0 1
0 38
0 39
1 2
2 3
3 4
4 5
5 6
5 40
6 7
6 44
7 8
8 9
8 52
9 10
10 11
10 54
11 12
11 55
11 57
12 13
12 58
12 60
12 61
12 63
12 64
12 66
12 67
13 14
14 15
15 16
16 17
17 18
17 69
18 19
18 70
18 74
18 75
18 77
18 79
19 20
19 80
19 86
20 21
20 88
20 89
20 90
20 92
20 94
21 22
21 98
21 99
22 23
23 24
23 103
23 106
23 109
23 113
24 25
24 115
24 116
24 117
24 120
24 121
25 26
26 27
26 124
26 125
26 127
26 131
26 132
27 28
28 29
29 30
29 134
29 135
30 31
30 137
30 141
30 146
31 32
32 33
32 147
32 148
32 153
32 156
32 159
32 164
33 34
33 165
33 166
34 35
34 167
35 36
35 169
35 172
35 173
36 37
36 176
40 41
40 42
40 43
44 45
44 46
44 47
44 48
44 49
44 50
44 51
52 53
55 56
58 59
61 62
64 65
67 68
70 71
70 72
70 73
75 76
77 78
80 81
80 82
80 83
80 84
80 85
86 87
90 91
92 93
94 95
94 96
94 97
99 100
99 101
99 102
103 104
103 105
106 107
106 108
109 110
109 111
109 112
113 114
117 118
117 119
121 122
121 123
125 126
127 128
127 129
127 130
132 133
135 136
137 138
137 139
137 140
141 142
141 143
141 144
141 145
148 149
148 150
148 151
148 152
153 154
153 155
156 157
156 158
159 160
159 161
159 162
159 163
167 168
169 170
169 171
173 174
173 175
