0 1
0 3
1 2
2 3
2 138
2 139
3 4
3 5
4 5
4 6
5 6
5 11
6 7
7 8
8 9
9 10
10 11
11 12
12 13
13 14
14 15
15 16
16 17
17 18
18 19
19 20
19 21
20 21
21 22
22 23
23 24
24 25
25 26
25 31
26 27
26 29
27 28
27 32
28 29
29 30
30 31
31 32
32 33
33 34
34 35
35 36
36 37
37 38
37 40
38 39
39 40
39 45
40 41
41 42
41 45
42 43
42 48
43 44
44 45
44 49
45 46
46 47
46 50
47 48
47 53
48 49
49 50
50 51
51 52
52 53
53 54
53 59
54 55
55 56
56 57
57 58
58 59
58 60
59 60
60 61
60 66
61 62
62 63
63 64
64 65
65 66
66 67
66 69
67 68
68 69
69 70
69 71
70 71
70 74
71 72
71 76
72 73
73 74
74 75
75 76
76 77
77 78
78 79
79 80
80 81
81 82
82 83
83 84
84 85
84 88
85 86
86 87
86 92
87 88
88 89
89 90
89 92
90 91
91 92
92 93
93 94
94 95
95 96
96 97
96 101
97 98
98 99
99 100
100 101
101 102
102 103
103 104
103 106
104 105
105 106
106 107
106 111
107 108
108 109
109 110
110 111
111 112
112 113
112 114
113 114
114 115
115 116
116 117
117 118
117 121
118 119
118 121
119 120
120 121
121 122
122 123
123 124
124 125
125 126
126 127
126 131
127 128
128 129
129 130
130 131
130 133
131 132
132 133
133 134
134 135
134 139
135 136
136 137
136 139
137 138
138 139
