0 0
0 1
0 2
0 3
0 4
0 5
0 6
0 7
0 8
0 9
0 10
0 11
0 12
0 13
0 14
0 15
0 16
0 17
0 18
0 20
0 21
0 22
0 23
0 24
0 25
0 26
0 27
0 28
0 29
0 30
0 31
0 32
0 33
0 34
0 35
0 36
0 37
0 38
0 39
0 40
0 41
0 42
0 43
0 44
0 45
0 46
0 47
0 48
0 49
0 50
0 51
0 52
0 53
0 54
0 55
0 56
0 57
0 58
0 59
0 60
0 61
0 62
0 63
0 64
0 65
0 66
0 67
0 68
0 69
0 70
0 71
0 72
0 73
0 74
0 75
0 76
0 77
0 78
0 79
0 80
0 81
0 82
0 83
0 84
0 85
0 86
0 87
0 88
0 89
0 90
0 91
0 92
0 93
0 94
0 95
0 96
0 97
0 98
0 99
0 100
0 101
0 102
0 103
0 104
0 105
0 106
0 107
0 108
0 109
0 110
0 111
0 112
0 114
0 115
0 116
0 117
0 119
0 120
0 121
0 122
0 123
0 124
0 126
0 127
0 128
0 129
0 130
0 131
0 132
0 133
0 134
0 135
0 136
0 137
0 138
0 139
0 140
0 141
0 142
0 143
0 144
0 145
0 146
0 147
0 148
0 149
0 150
0 151
0 152
0 153
0 154
0 155
0 156
0 157
0 158
0 159
0 160
0 161
0 162
0 163
0 164
0 165
0 166
0 167
0 168
0 169
0 170
0 171
0 172
0 173
0 174
0 176
0 177
0 178
0 179
0 180
0 181
0 182
0 183
0 184
0 185
0 187
0 188
0 189
0 190
0 191
0 192
0 194
0 195
0 196
0 197
0 198
0 199
0 200
0 201
0 202
0 203
0 204
0 205
0 206
0 207
0 208
0 209
0 210
0 211
0 212
0 213
0 214
0 215
0 216
0 217
0 218
0 219
0 220
0 221
0 222
0 223
0 224
0 225
0 226
0 227
0 228
0 229
0 230
0 231
0 232
0 233
0 234
0 235
0 236
0 237
0 238
0 239
0 240
0 241
0 242
0 243
0 244
0 245
0 246
0 247
0 248
0 249
0 250
0 251
0 252
0 253
0 254
0 255
0 256
0 257
0 258
0 259
0 260
0 261
0 262
0 263
0 264
0 265
0 266
0 267
0 269
0 270
0 271
0 272
0 273
0 274
0 275
0 276
0 277
0 278
0 279
0 280
0 281
0 282
0 283
0 284
0 286
0 287
0 288
0 289
0 290
0 291
0 292
0 293
0 294
0 295
0 296
0 298
0 299
0 300
0 301
0 302
0 303
0 304
0 305
0 306
0 307
0 308
0 309
0 310
0 311
0 312
0 314
0 315
0 316
0 317
0 319
0 320
0 321
0 322
0 324
0 325
0 326
0 327
0 328
0 329
0 330
0 331
0 332
0 333
0 334
0 335
0 336
0 337
0 338
0 339
0 340
0 341
0 342
0 343
0 344
0 345
0 346
0 347
0 348
0 350
0 351
0 352
0 353
0 355
0 356
0 357
0 358
0 359
0 360
0 361
0 362
0 363
0 364
0 365
0 366
0 367
0 368
0 369
0 370
0 371
0 373
0 374
0 375
0 378
0 379
0 380
0 381
0 382
0 383
0 384
0 386
0 387
0 388
0 389
0 391
0 392
0 393
0 394
0 395
0 396
0 397
0 398
0 399
0 400
0 401
0 402
0 403
0 404
0 407
0 408
0 410
1 0
1 1
1 2
1 3
1 4
1 5
1 6
1 7
1 8
1 9
1 10
1 12
1 13
1 14
1 15
1 16
1 17
1 18
1 19
1 20
1 21
1 22
1 23
1 24
1 25
1 26
1 27
1 28
1 29
1 30
1 31
1 32
1 33
1 34
1 35
1 36
1 37
1 38
1 39
1 40
1 41
1 42
1 43
1 44
1 45
1 46
1 47
1 49
1 50
1 51
1 52
1 53
1 54
1 55
1 56
1 57
1 58
1 59
1 61
1 62
1 63
1 64
1 65
1 66
1 67
1 68
1 69
1 70
1 71
1 72
1 73
1 74
1 75
1 76
1 77
1 78
1 79
1 80
1 81
1 82
1 83
1 84
1 85
1 86
1 87
1 88
1 89
1 90
1 91
1 92
1 93
1 94
1 95
1 96
1 97
1 98
1 99
1 100
1 101
1 102
1 103
1 104
1 105
1 106
1 107
1 108
1 109
1 110
1 111
1 112
1 113
1 114
1 115
1 116
1 117
1 118
1 119
1 120
1 121
1 122
1 123
1 124
1 125
1 126
1 127
1 128
1 129
1 130
1 131
1 132
1 133
1 134
1 135
1 136
1 137
1 138
1 139
1 140
1 141
1 142
1 143
1 144
1 145
1 146
1 147
1 148
1 149
1 150
1 151
1 152
1 153
1 154
1 155
1 156
1 157
1 158
1 159
1 160
1 161
1 162
1 163
1 164
1 165
1 166
1 167
1 168
1 169
1 170
1 171
1 172
1 173
1 174
1 175
1 176
1 177
1 178
1 179
1 180
1 181
1 182
1 183
1 184
1 185
1 186
1 187
1 188
1 189
1 190
1 191
1 192
1 193
1 194
1 195
1 196
1 197
1 198
1 199
1 200
1 201
1 202
1 203
1 204
1 205
1 206
1 207
1 208
1 209
1 210
1 211
1 212
1 213
1 214
1 215
1 216
1 217
1 218
1 219
1 220
1 221
1 222
1 223
1 224
1 225
1 226
1 227
1 228
1 229
1 230
1 231
1 232
1 233
1 234
1 235
1 236
1 237
1 238
1 239
1 240
1 241
1 242
1 243
1 244
1 245
1 246
1 247
1 248
1 249
1 250
1 251
1 252
1 253
1 254
1 255
1 256
1 257
1 258
1 259
1 260
1 261
1 262
1 263
1 264
1 265
1 266
1 267
1 269
1 270
1 271
1 272
1 273
1 274
1 275
1 276
1 277
1 278
1 279
1 280
1 281
1 282
1 283
1 284
1 285
1 286
1 287
1 288
1 289
1 290
1 291
1 292
1 293
1 294
1 295
1 296
1 298
1 299
1 300
1 301
1 302
1 303
1 304
1 305
1 306
1 307
1 308
1 309
1 310
1 311
1 312
1 313
1 314
1 315
1 316
1 317
1 318
1 319
1 320
1 321
1 322
1 324
1 325
1 326
1 327
1 328
1 329
1 330
1 331
1 332
1 333
1 334
1 336
1 337
1 338
1 339
1 340
1 341
1 342
1 343
1 344
1 345
1 346
1 347
1 348
1 349
1 350
1 351
1 352
1 353
1 354
1 355
1 356
1 357
1 358
1 359
1 360
1 361
1 362
1 363
1 364
1 365
1 366
1 367
1 368
1 369
1 370
1 371
1 373
1 374
1 375
1 376
1 377
1 378
1 379
1 380
1 381
1 382
1 383
1 384
1 386
1 388
1 389
1 390
1 391
1 392
1 393
1 394
1 395
1 396
1 397
1 398
1 399
1 400
1 401
1 402
1 403
1 404
1 405
1 406
1 407
1 408
1 409
2 0
2 1
2 2
2 3
2 4
2 5
2 6
2 7
2 8
2 9
2 10
2 11
2 12
2 13
2 14
2 15
2 16
2 17
2 18
2 19
2 20
2 21
2 22
2 23
2 24
2 25
2 26
2 27
2 28
2 29
2 30
2 31
2 32
2 33
2 34
2 35
2 36
2 37
2 38
2 39
2 40
2 41
2 42
2 43
2 44
2 45
2 46
2 47
2 49
2 50
2 51
2 52
2 53
2 54
2 55
2 56
2 57
2 58
2 59
2 60
2 61
2 62
2 63
2 64
2 65
2 66
2 67
2 68
2 69
2 70
2 71
2 72
2 73
2 74
2 75
2 76
2 77
2 78
2 79
2 80
2 81
2 82
2 83
2 84
2 85
2 86
2 87
2 88
2 89
2 90
2 91
2 92
2 93
2 94
2 95
2 96
2 99
2 100
2 101
2 102
2 103
2 104
2 105
2 106
2 107
2 109
2 110
2 111
2 112
2 113
2 114
2 115
2 116
2 117
2 118
2 119
2 120
2 121
2 122
2 123
2 124
2 125
2 127
2 128
2 129
2 130
2 132
2 133
2 134
2 135
2 136
2 137
2 138
2 139
2 140
2 141
2 142
2 143
2 144
2 145
2 146
2 147
2 148
2 149
2 150
2 151
2 152
2 153
2 154
2 155
2 156
2 157
2 158
2 159
2 161
2 162
2 163
2 164
2 165
2 166
2 167
2 169
2 170
2 171
2 172
2 173
2 174
2 176
2 177
2 178
2 179
2 180
2 181
2 182
2 183
2 184
2 185
2 186
2 187
2 188
2 189
2 190
2 191
2 192
2 193
2 194
2 195
2 196
2 197
2 198
2 199
2 200
2 201
2 202
2 203
2 204
2 205
2 206
2 207
2 208
2 209
2 210
2 211
2 212
2 213
2 214
2 215
2 216
2 217
2 218
2 219
2 220
2 221
2 222
2 223
2 224
2 225
2 226
2 227
2 228
2 229
2 230
2 231
2 232
2 233
2 234
2 235
2 236
2 237
2 238
2 239
2 240
2 241
2 242
2 243
2 244
2 245
2 246
2 247
2 248
2 249
2 250
2 251
2 252
2 253
2 254
2 255
2 256
2 257
2 258
2 259
2 260
2 261
2 262
2 263
2 264
2 265
2 266
2 267
2 268
2 269
2 270
2 271
2 272
2 273
2 274
2 275
2 276
2 277
2 278
2 281
2 282
2 283
2 286
2 287
2 288
2 289
2 290
2 291
2 292
2 293
2 294
2 295
2 296
2 298
2 299
2 300
2 301
2 302
2 303
2 304
2 305
2 306
2 307
2 308
2 309
2 310
2 311
2 312
2 314
2 315
2 317
2 318
2 320
2 321
2 322
2 323
2 324
2 325
2 326
2 327
2 328
2 329
2 330
2 331
2 332
2 333
2 335
2 336
2 337
2 338
2 339
2 340
2 341
2 342
2 343
2 344
2 345
2 346
2 347
2 348
2 349
2 350
2 352
2 353
2 354
2 355
2 356
2 357
2 358
2 359
2 360
2 361
2 362
2 363
2 364
2 365
2 366
2 367
2 368
2 369
2 370
2 371
2 372
2 373
2 374
2 375
2 376
2 377
2 379
2 380
2 381
2 382
2 383
2 384
2 386
2 388
2 391
2 392
2 393
2 394
2 395
2 396
2 397
2 398
2 399
2 400
2 401
2 402
2 403
2 404
2 405
2 406
2 407
2 408
2 409
2 410
3 0
3 1
3 2
3 3
3 4
3 5
3 6
3 7
3 8
3 9
3 10
3 11
3 12
3 13
3 14
3 15
3 16
3 17
3 18
3 19
3 20
3 21
3 22
3 23
3 24
3 25
3 26
3 27
3 28
3 29
3 30
3 31
3 32
3 33
3 34
3 35
3 36
3 37
3 38
3 40
3 41
3 43
3 44
3 45
3 46
3 47
3 49
3 50
3 51
3 52
3 53
3 54
3 55
3 57
3 58
3 59
3 61
3 62
3 63
3 64
3 65
3 66
3 67
3 68
3 69
3 70
3 71
3 72
3 73
3 74
3 75
3 76
3 77
3 78
3 79
3 80
3 81
3 82
3 83
3 84
3 85
3 86
3 87
3 88
3 89
3 90
3 91
3 92
3 93
3 94
3 95
3 96
3 97
3 98
3 99
3 100
3 101
3 103
3 105
3 107
3 108
3 110
3 112
3 113
3 114
3 115
3 116
3 117
3 118
3 119
3 121
3 122
3 123
3 124
3 125
3 126
3 127
3 128
3 129
3 130
3 131
3 132
3 133
3 134
3 135
3 136
3 137
3 139
3 140
3 142
3 143
3 144
3 145
3 147
3 148
3 149
3 150
3 151
3 152
3 153
3 154
3 155
3 156
3 157
3 158
3 159
3 161
3 162
3 163
3 164
3 165
3 166
3 167
3 169
3 170
3 171
3 172
3 173
3 176
3 177
3 178
3 179
3 180
3 181
3 182
3 183
3 184
3 185
3 186
3 187
3 188
3 189
3 190
3 191
3 192
3 193
3 194
3 195
3 196
3 197
3 198
3 199
3 200
3 201
3 202
3 203
3 204
3 205
3 206
3 207
3 208
3 209
3 210
3 212
3 213
3 214
3 215
3 216
3 217
3 218
3 219
3 220
3 221
3 222
3 223
3 224
3 225
3 226
3 228
3 229
3 230
3 231
3 233
3 234
3 235
3 236
3 239
3 240
3 242
3 243
3 244
3 245
3 246
3 247
3 248
3 249
3 250
3 252
3 253
3 254
3 256
3 257
3 258
3 259
3 260
3 262
3 263
3 264
3 265
3 266
3 267
3 268
3 269
3 270
3 271
3 272
3 273
3 274
3 275
3 276
3 277
3 278
3 279
3 280
3 281
3 282
3 283
3 284
3 285
3 286
3 287
3 288
3 289
3 290
3 291
3 292
3 293
3 294
3 295
3 296
3 297
3 298
3 299
3 300
3 301
3 302
3 303
3 304
3 305
3 306
3 307
3 308
3 309
3 310
3 311
3 312
3 313
3 314
3 315
3 316
3 317
3 318
3 319
3 320
3 321
3 322
3 323
3 324
3 325
3 326
3 327
3 328
3 329
3 330
3 331
3 332
3 333
3 334
3 335
3 336
3 337
3 338
3 339
3 340
3 341
3 343
3 344
3 345
3 347
3 348
3 349
3 350
3 351
3 352
3 353
3 355
3 356
3 357
3 358
3 360
3 361
3 363
3 364
3 365
3 366
3 367
3 369
3 370
3 373
3 374
3 376
3 378
3 379
3 380
3 381
3 382
3 383
3 384
3 386
3 388
3 389
3 391
3 392
3 393
3 394
3 395
3 397
3 398
3 399
3 400
3 401
3 402
3 403
3 404
3 406
3 408
3 409
4 0
4 1
4 2
4 3
4 4
4 5
4 6
4 7
4 8
4 9
4 10
4 11
4 12
4 13
4 14
4 15
4 16
4 17
4 18
4 19
4 20
4 21
4 22
4 23
4 24
4 25
4 26
4 27
4 28
4 29
4 30
4 31
4 32
4 33
4 34
4 35
4 36
4 37
4 38
4 39
4 40
4 41
4 43
4 45
4 46
4 49
4 51
4 54
4 55
4 56
4 57
4 58
4 61
4 62
4 63
4 64
4 65
4 66
4 67
4 68
4 69
4 70
4 71
4 72
4 73
4 74
4 75
4 76
4 77
4 78
4 79
4 80
4 81
4 82
4 83
4 84
4 85
4 86
4 87
4 88
4 89
4 91
4 92
4 93
4 94
4 95
4 97
4 98
4 99
4 100
4 101
4 102
4 103
4 104
4 105
4 106
4 107
4 109
4 110
4 112
4 114
4 115
4 116
4 117
4 118
4 119
4 120
4 121
4 122
4 123
4 124
4 126
4 127
4 128
4 130
4 132
4 133
4 134
4 135
4 136
4 137
4 138
4 139
4 140
4 141
4 142
4 143
4 145
4 146
4 147
4 148
4 149
4 151
4 153
4 154
4 155
4 156
4 157
4 158
4 159
4 161
4 163
4 164
4 165
4 166
4 167
4 169
4 170
4 171
4 172
4 174
4 176
4 177
4 178
4 179
4 180
4 182
4 183
4 184
4 185
4 186
4 187
4 188
4 189
4 190
4 191
4 192
4 193
4 194
4 196
4 197
4 198
4 199
4 200
4 203
4 206
4 207
4 208
4 209
4 210
4 212
4 213
4 214
4 215
4 217
4 218
4 220
4 221
4 222
4 223
4 224
4 225
4 227
4 228
4 229
4 230
4 231
4 233
4 236
4 239
4 242
4 243
4 244
4 245
4 246
4 247
4 248
4 249
4 250
4 252
4 253
4 257
4 259
4 261
4 263
4 264
4 265
4 266
4 267
4 270
4 271
4 272
4 273
4 274
4 275
4 276
4 277
4 280
4 281
4 282
4 283
4 284
4 286
4 287
4 288
4 289
4 290
4 291
4 292
4 293
4 294
4 295
4 296
4 299
4 300
4 301
4 302
4 303
4 304
4 305
4 306
4 307
4 308
4 309
4 310
4 314
4 315
4 316
4 318
4 320
4 323
4 324
4 327
4 328
4 329
4 330
4 331
4 332
4 333
4 334
4 335
4 336
4 337
4 338
4 339
4 340
4 341
4 342
4 343
4 344
4 345
4 346
4 347
4 348
4 349
4 350
4 351
4 352
4 353
4 354
4 355
4 356
4 357
4 358
4 359
4 360
4 361
4 362
4 363
4 364
4 365
4 366
4 367
4 368
4 369
4 371
4 373
4 374
4 375
4 378
4 381
4 382
4 383
4 384
4 386
4 387
4 389
4 391
4 392
4 393
4 394
4 399
4 400
4 402
4 403
4 407
4 408
4 409
5 0
5 1
5 2
5 3
5 4
5 5
5 6
5 7
5 8
5 9
5 10
5 11
5 14
5 15
5 16
5 17
5 18
5 19
5 20
5 21
5 22
5 23
5 24
5 25
5 26
5 28
5 30
5 31
5 32
5 33
5 34
5 35
5 36
5 38
5 39
5 41
5 43
5 45
5 46
5 49
5 51
5 52
5 54
5 55
5 56
5 57
5 59
5 60
5 61
5 62
5 64
5 65
5 66
5 67
5 68
5 69
5 70
5 71
5 73
5 74
5 75
5 76
5 79
5 81
5 82
5 87
5 89
5 91
5 92
5 94
5 95
5 96
5 99
5 100
5 101
5 103
5 105
5 107
5 109
5 110
5 111
5 112
5 113
5 114
5 115
5 116
5 117
5 122
5 123
5 125
5 126
5 129
5 130
5 131
5 132
5 133
5 134
5 136
5 137
5 138
5 140
5 141
5 143
5 144
5 146
5 148
5 149
5 150
5 151
5 152
5 154
5 156
5 157
5 161
5 162
5 163
5 164
5 167
5 169
5 171
5 173
5 174
5 178
5 180
5 182
5 183
5 184
5 185
5 188
5 189
5 190
5 192
5 194
5 195
5 197
5 198
5 200
5 201
5 202
5 204
5 207
5 208
5 209
5 213
5 215
5 216
5 217
5 218
5 220
5 223
5 226
5 229
5 230
5 233
5 234
5 236
5 237
5 238
5 242
5 244
5 248
5 250
5 251
5 252
5 253
5 254
5 257
5 259
5 265
5 267
5 269
5 270
5 271
5 273
5 274
5 275
5 281
5 282
5 283
5 284
5 286
5 288
5 290
5 291
5 293
5 295
5 296
5 299
5 304
5 306
5 307
5 310
5 312
5 315
5 317
5 318
5 320
5 324
5 325
5 329
5 333
5 335
5 337
5 340
5 341
5 342
5 343
5 345
5 347
5 348
5 349
5 352
5 353
5 355
5 357
5 358
5 359
5 360
5 364
5 365
5 366
5 367
5 368
5 369
5 370
5 371
5 372
5 373
5 375
5 381
5 384
5 391
5 398
5 402
5 403
5 404
5 409
6 0
6 1
6 2
6 3
6 4
6 5
6 6
6 7
6 8
6 9
6 10
6 17
6 18
6 19
6 23
6 24
6 25
6 26
6 27
6 28
6 30
6 31
6 32
6 33
6 34
6 35
6 36
6 37
6 38
6 40
6 43
6 45
6 46
6 49
6 55
6 57
6 59
6 61
6 63
6 66
6 68
6 69
6 81
6 82
6 84
6 86
6 87
6 88
6 89
6 94
6 95
6 98
6 100
6 103
6 105
6 107
6 109
6 110
6 112
6 115
6 117
6 120
6 121
6 122
6 127
6 128
6 129
6 130
6 132
6 133
6 137
6 138
6 141
6 143
6 146
6 147
6 150
6 151
6 156
6 162
6 164
6 165
6 171
6 172
6 176
6 180
6 182
6 185
6 187
6 189
6 190
6 191
6 194
6 196
6 197
6 202
6 206
6 207
6 209
6 214
6 215
6 217
6 218
6 222
6 226
6 230
6 233
6 236
6 237
6 240
6 241
6 243
6 247
6 248
6 253
6 257
6 258
6 265
6 270
6 271
6 273
6 275
6 281
6 283
6 287
6 288
6 290
6 295
6 296
6 300
6 305
6 311
6 314
6 318
6 321
6 330
6 340
6 342
6 343
6 344
6 348
6 350
6 351
6 353
6 355
6 356
6 361
6 369
6 372
6 373
6 374
6 375
6 381
6 384
6 388
6 389
6 400
7 0
7 1
7 2
7 3
7 4
7 5
7 6
7 7
7 8
7 16
7 18
7 22
7 25
7 26
7 28
7 29
7 30
7 31
7 32
7 33
7 34
7 36
7 41
7 55
7 58
7 59
7 61
7 68
7 77
7 80
7 88
7 89
7 91
7 96
7 98
7 101
7 103
7 105
7 107
7 110
7 121
7 123
7 126
7 132
7 135
7 142
7 143
7 149
7 151
7 164
7 167
7 178
7 182
7 185
7 188
7 194
7 196
7 197
7 207
7 209
7 214
7 215
7 217
7 220
7 233
7 242
7 243
7 250
7 270
7 272
7 273
7 275
7 284
7 286
7 288
7 291
7 292
7 298
7 300
7 303
7 309
7 323
7 332
7 340
7 352
7 367
7 369
7 376
7 379
7 397
7 402
8 0
8 1
8 2
8 3
8 4
8 5
8 6
8 7
8 10
8 13
8 14
8 16
8 17
8 18
8 24
8 25
8 27
8 28
8 30
8 31
8 32
8 33
8 34
8 35
8 36
8 37
8 38
8 49
8 55
8 62
8 67
8 70
8 72
8 75
8 89
8 91
8 94
8 103
8 107
8 109
8 110
8 112
8 113
8 122
8 123
8 128
8 132
8 136
8 138
8 140
8 141
8 144
8 150
8 151
8 154
8 156
8 165
8 166
8 171
8 177
8 178
8 180
8 183
8 185
8 188
8 189
8 192
8 194
8 196
8 197
8 207
8 208
8 212
8 213
8 215
8 222
8 239
8 248
8 264
8 268
8 285
8 287
8 288
8 295
8 300
8 305
8 309
8 335
8 340
8 348
8 349
8 351
8 355
8 360
8 367
8 373
8 374
8 393
8 402
9 0
9 1
9 2
9 3
9 4
9 5
9 6
9 10
9 15
9 18
9 24
9 27
9 29
9 35
9 36
9 43
9 49
9 52
9 58
9 65
9 68
9 73
9 77
9 92
9 93
9 94
9 96
9 103
9 107
9 112
9 117
9 129
9 133
9 137
9 138
9 142
9 148
9 149
9 151
9 152
9 156
9 157
9 162
9 164
9 169
9 176
9 180
9 187
9 189
9 192
9 194
9 200
9 201
9 203
9 207
9 208
9 217
9 230
9 236
9 252
9 253
9 255
9 259
9 265
9 281
9 289
9 308
9 373
9 384
9 393
9 401
9 402
10 0
10 1
10 2
10 3
10 4
10 5
10 6
10 8
10 9
10 13
10 16
10 17
10 23
10 24
10 28
10 34
10 36
10 38
10 41
10 43
10 52
10 57
10 58
10 62
10 68
10 73
10 77
10 88
10 91
10 103
10 107
10 110
10 112
10 115
10 116
10 122
10 129
10 141
10 152
10 164
10 165
10 177
10 180
10 188
10 190
10 192
10 194
10 198
10 203
10 206
10 207
10 222
10 224
10 231
10 244
10 248
10 255
10 257
10 272
10 275
10 277
10 287
10 293
10 294
10 304
10 323
10 329
10 343
10 347
10 366
10 367
10 370
10 373
10 384
10 395
10 403
10 406
11 0
11 2
11 3
11 4
11 5
11 20
11 37
11 52
11 71
11 94
11 110
11 121
11 122
11 128
11 149
11 180
11 190
11 194
11 197
11 207
11 240
11 241
11 247
11 274
11 277
11 291
11 329
11 342
11 350
11 352
12 0
12 1
12 2
12 3
12 4
12 25
12 30
12 46
12 61
12 68
12 73
12 79
12 86
12 110
12 126
12 133
12 140
12 188
12 195
12 198
12 207
12 210
12 216
12 258
12 306
12 310
12 337
12 353
12 355
12 367
13 0
13 1
13 2
13 3
13 4
13 8
13 10
13 22
13 30
13 34
13 45
13 49
13 88
13 102
13 110
13 112
13 121
13 163
13 218
13 240
13 243
13 248
13 251
13 253
13 273
13 279
13 288
13 323
13 331
13 367
13 379
14 0
14 1
14 2
14 3
14 4
14 5
14 8
14 20
14 24
14 25
14 26
14 30
14 33
14 61
14 68
14 95
14 105
14 107
14 121
14 132
14 143
14 156
14 167
14 182
14 185
14 189
14 192
14 194
14 213
14 231
14 305
14 323
14 340
14 348
14 367
14 370
14 371
14 373
15 0
15 1
15 2
15 3
15 4
15 5
15 9
15 31
15 34
15 35
15 40
15 41
15 61
15 69
15 85
15 87
15 88
15 91
15 94
15 103
15 107
15 109
15 117
15 131
15 144
15 149
15 156
15 163
15 193
15 196
15 203
15 210
15 213
15 215
15 238
15 248
15 288
15 305
15 401
16 0
16 1
16 2
16 3
16 4
16 5
16 7
16 8
16 10
16 25
16 38
16 45
16 49
16 57
16 110
16 112
16 122
16 151
16 163
16 164
16 208
16 248
16 253
16 291
16 305
16 356
16 372
16 374
17 0
17 1
17 2
17 3
17 4
17 5
17 6
17 8
17 10
17 19
17 23
17 105
17 110
17 122
17 138
17 178
17 185
17 189
17 192
17 207
17 208
17 226
17 270
17 275
17 287
17 326
17 337
17 343
17 350
17 374
17 379
18 0
18 1
18 2
18 3
18 4
18 5
18 6
18 7
18 8
18 9
18 19
18 27
18 30
18 57
18 75
18 77
18 94
18 103
18 112
18 141
18 161
18 165
18 167
18 178
18 185
18 192
18 194
18 197
18 215
18 218
18 282
18 300
18 340
18 342
18 347
18 360
18 373
18 379
18 384
18 401
19 1
19 2
19 3
19 4
19 5
19 6
19 17
19 18
19 24
19 25
19 28
19 33
19 34
19 45
19 49
19 55
19 68
19 72
19 73
19 105
19 107
19 122
19 133
19 134
19 146
19 151
19 176
19 178
19 180
19 188
19 189
19 192
19 194
19 197
19 217
19 222
19 244
19 248
19 270
19 275
19 281
19 300
19 311
19 324
19 344
19 348
19 367
19 369
19 370
19 401
19 404
20 0
20 1
20 2
20 3
20 4
20 5
20 11
20 14
20 34
20 55
20 57
20 68
20 70
20 83
20 94
20 105
20 115
20 156
20 182
20 185
20 200
20 207
20 208
20 217
20 241
20 248
20 273
20 277
20 288
20 293
20 300
20 315
20 332
20 340
20 342
20 352
20 395
21 0
21 1
21 2
21 3
21 4
21 5
21 29
21 55
21 66
21 69
21 80
21 81
21 103
21 105
21 107
21 112
21 114
21 115
21 122
21 124
21 129
21 149
21 153
21 169
21 195
21 207
21 217
21 219
21 236
21 242
21 248
21 250
21 272
21 281
21 287
21 296
21 353
21 363
21 366
21 396
21 403
22 0
22 1
22 2
22 3
22 4
22 5
22 7
22 13
22 34
22 35
22 43
22 61
22 85
22 88
22 103
22 107
22 110
22 115
22 117
22 171
22 185
22 192
22 197
22 208
22 244
22 277
22 291
22 314
22 326
22 352
22 353
22 360
22 370
22 374
22 383
22 384
22 402
23 0
23 1
23 2
23 3
23 4
23 5
23 6
23 10
23 17
23 28
23 36
23 38
23 61
23 68
23 89
23 95
23 100
23 107
23 110
23 127
23 132
23 133
23 177
23 180
23 185
23 189
23 192
23 207
23 209
23 218
23 236
23 247
23 268
23 278
23 281
23 301
23 318
23 324
23 343
23 345
23 371
23 384
23 390
23 402
24 0
24 1
24 2
24 3
24 4
24 5
24 6
24 8
24 9
24 10
24 14
24 19
24 25
24 28
24 43
24 57
24 61
24 100
24 103
24 105
24 107
24 165
24 178
24 185
24 192
24 196
24 207
24 213
24 236
24 244
24 301
24 349
24 373
24 401
24 402
25 0
25 1
25 2
25 3
25 4
25 5
25 6
25 7
25 8
25 12
25 14
25 16
25 19
25 24
25 35
25 38
25 52
25 62
25 70
25 73
25 91
25 103
25 115
25 117
25 138
25 141
25 164
25 179
25 182
25 184
25 188
25 189
25 190
25 207
25 208
25 213
25 217
25 244
25 275
25 288
25 304
25 367
25 370
25 373
25 402
26 0
26 1
26 2
26 3
26 4
26 5
26 6
26 7
26 14
26 32
26 34
26 36
26 45
26 49
26 70
26 71
26 73
26 94
26 97
26 102
26 105
26 110
26 114
26 115
26 121
26 123
26 138
26 141
26 154
26 156
26 161
26 185
26 187
26 189
26 190
26 247
26 273
26 288
26 315
26 342
26 385
26 387
26 409
27 0
27 1
27 2
27 3
27 4
27 6
27 8
27 9
27 18
27 28
27 30
27 34
27 58
27 61
27 88
27 94
27 103
27 107
27 109
27 112
27 120
27 138
27 176
27 178
27 184
27 185
27 212
27 222
27 231
27 236
27 244
27 271
27 273
27 277
27 281
27 288
27 291
27 339
27 342
27 348
27 351
27 373
27 374
27 384
27 401
27 402
27 405
28 0
28 1
28 2
28 3
28 4
28 5
28 6
28 7
28 8
28 10
28 19
28 23
28 24
28 27
28 31
28 34
28 36
28 38
28 70
28 94
28 103
28 105
28 120
28 122
28 126
28 128
28 177
28 180
28 185
28 190
28 192
28 194
28 197
28 207
28 236
28 244
28 252
28 273
28 275
28 278
28 301
28 304
28 318
28 323
28 325
28 339
28 343
28 344
28 348
28 349
28 355
28 369
28 371
28 373
28 390
28 395
28 401
28 402
28 403
29 0
29 1
29 2
29 3
29 4
29 7
29 9
29 21
29 30
29 33
29 43
29 52
29 55
29 60
29 65
29 68
29 83
29 92
29 98
29 103
29 105
29 107
29 115
29 116
29 118
29 125
29 128
29 133
29 134
29 135
29 143
29 149
29 162
29 164
29 172
29 178
29 185
29 188
29 190
29 196
29 207
29 209
29 214
29 221
29 223
29 236
29 238
29 248
29 254
29 255
29 256
29 265
29 272
29 274
29 287
29 288
29 289
29 308
29 309
29 312
29 325
29 337
29 363
29 386
29 397
30 0
30 1
30 2
30 3
30 4
30 5
30 6
30 7
30 8
30 12
30 13
30 14
30 18
30 27
30 29
30 33
30 35
30 45
30 49
30 59
30 66
30 91
30 95
30 105
30 107
30 109
30 110
30 112
30 115
30 122
30 164
30 167
30 171
30 177
30 194
30 196
30 206
30 207
30 209
30 237
30 268
30 273
30 282
30 288
30 309
30 352
30 365
30 367
30 373
30 382
30 403
31 0
31 1
31 2
31 3
31 4
31 5
31 6
31 7
31 8
31 15
31 28
31 80
31 91
31 93
31 94
31 95
31 103
31 105
31 109
31 110
31 123
31 128
31 138
31 139
31 145
31 151
31 156
31 179
31 182
31 185
31 208
31 209
31 215
31 265
31 271
31 272
31 279
31 287
31 288
31 301
31 327
31 367
31 369
31 371
31 397
32 0
32 1
32 2
32 3
32 4
32 5
32 6
32 7
32 8
32 26
32 37
32 41
32 45
32 49
32 66
32 71
32 82
32 90
32 93
32 94
32 103
32 105
32 110
32 115
32 123
32 126
32 136
32 151
32 161
32 181
32 190
32 197
32 207
32 213
32 253
32 272
32 273
32 287
32 361
32 374
32 384
32 386
33 0
33 1
33 2
33 3
33 4
33 5
33 6
33 7
33 8
33 14
33 19
33 29
33 30
33 45
33 55
33 61
33 62
33 65
33 89
33 93
33 103
33 105
33 107
33 108
33 109
33 112
33 116
33 121
33 122
33 132
33 143
33 154
33 161
33 167
33 180
33 182
33 185
33 192
33 194
33 196
33 207
33 208
33 215
33 223
33 226
33 241
33 247
33 275
33 281
33 289
33 323
33 333
33 365
33 370
33 384
33 387
33 402
34 0
34 1
34 2
34 3
34 4
34 5
34 6
34 7
34 8
34 10
34 13
34 15
34 19
34 20
34 22
34 26
34 27
34 28
34 45
34 49
34 52
34 55
34 57
34 61
34 70
34 73
34 91
34 94
34 97
34 103
34 105
34 109
34 110
34 126
34 128
34 132
34 138
34 141
34 161
34 180
34 181
34 182
34 185
34 187
34 190
34 197
34 207
34 213
34 217
34 280
34 288
34 303
34 327
34 350
34 355
34 357
34 384
34 402
35 0
35 1
35 2
35 3
35 4
35 5
35 6
35 8
35 9
35 15
35 22
35 25
35 30
35 37
35 41
35 45
35 49
35 52
35 57
35 73
35 87
35 88
35 91
35 94
35 100
35 103
35 109
35 110
35 115
35 117
35 119
35 127
35 132
35 136
35 161
35 165
35 180
35 185
35 189
35 192
35 193
35 194
35 197
35 207
35 209
35 224
35 226
35 244
35 246
35 264
35 273
35 277
35 288
35 302
35 309
35 312
35 350
35 372
35 384
35 391
36 0
36 1
36 2
36 3
36 4
36 5
36 6
36 7
36 8
36 9
36 10
36 23
36 26
36 28
36 37
36 38
36 41
36 43
36 49
36 66
36 68
36 73
36 77
36 80
36 98
36 100
36 101
36 102
36 103
36 104
36 105
36 107
36 108
36 110
36 112
36 114
36 116
36 117
36 120
36 124
36 126
36 128
36 129
36 136
36 140
36 144
36 145
36 151
36 154
36 155
36 159
36 164
36 165
36 180
36 181
36 184
36 185
36 189
36 190
36 192
36 193
36 195
36 196
36 197
36 198
36 203
36 207
36 209
36 212
36 219
36 220
36 236
36 239
36 243
36 245
36 246
36 252
36 270
36 274
36 278
36 282
36 286
36 289
36 295
36 303
36 305
36 306
36 312
36 313
36 317
36 325
36 329
36 332
36 337
36 340
36 342
36 350
36 355
36 356
36 361
36 374
36 382
36 384
36 389
36 391
36 401
36 403
36 410
37 0
37 1
37 2
37 3
37 4
37 6
37 8
37 11
37 32
37 35
37 36
37 37
37 38
37 41
37 43
37 49
37 54
37 55
37 67
37 79
37 84
37 90
37 105
37 107
37 112
37 114
37 115
37 124
37 136
37 143
37 147
37 153
37 161
37 171
37 178
37 184
37 185
37 197
37 206
37 214
37 216
37 219
37 223
37 224
37 260
37 274
37 287
37 292
37 370
37 371
37 375
38 0
38 1
38 2
38 3
38 4
38 5
38 6
38 8
38 10
38 16
38 23
38 25
38 28
38 36
38 37
38 43
38 44
38 49
38 51
38 55
38 58
38 84
38 89
38 92
38 93
38 94
38 95
38 96
38 107
38 108
38 110
38 112
38 125
38 128
38 133
38 136
38 141
38 147
38 149
38 157
38 161
38 162
38 166
38 177
38 178
38 180
38 183
38 185
38 190
38 203
38 207
38 218
38 220
38 222
38 236
38 239
38 248
38 252
38 255
38 275
38 283
38 296
38 301
38 325
38 327
38 332
38 334
38 337
38 345
38 356
38 360
38 366
38 368
38 370
38 374
39 0
39 1
39 2
39 4
39 5
39 49
39 65
39 103
39 112
39 134
39 151
39 172
39 188
39 189
39 196
39 274
39 373
40 0
40 1
40 2
40 3
40 4
40 6
40 15
40 71
40 131
40 207
40 240
40 288
40 293
41 0
41 1
41 2
41 3
41 4
41 5
41 7
41 10
41 15
41 32
41 35
41 36
41 37
41 41
41 43
41 46
41 47
41 49
41 50
41 55
41 66
41 73
41 74
41 82
41 84
41 85
41 89
41 99
41 100
41 102
41 103
41 104
41 105
41 107
41 110
41 111
41 112
41 115
41 124
41 129
41 131
41 134
41 135
41 136
41 142
41 147
41 150
41 151
41 153
41 157
41 160
41 165
41 170
41 171
41 174
41 178
41 180
41 185
41 189
41 191
41 203
41 207
41 208
41 212
41 214
41 217
41 221
41 224
41 229
41 231
41 236
41 242
41 248
41 249
41 251
41 254
41 258
41 265
41 270
41 271
41 273
41 280
41 281
41 287
41 292
41 293
41 298
41 301
41 307
41 317
41 320
41 323
41 329
41 337
41 354
41 355
41 362
41 364
41 365
41 368
41 376
41 382
41 384
41 387
41 392
41 410
42 0
42 1
42 2
42 49
42 110
43 0
43 1
43 2
43 3
43 4
43 5
43 6
43 9
43 10
43 22
43 24
43 29
43 36
43 37
43 38
43 41
43 43
43 46
43 49
43 55
43 63
43 65
43 66
43 73
43 78
43 83
43 84
43 91
43 93
43 95
43 96
43 98
43 100
43 101
43 103
43 105
43 107
43 110
43 112
43 115
43 119
43 121
43 122
43 125
43 127
43 129
43 133
43 143
43 147
43 148
43 149
43 151
43 153
43 154
43 155
43 161
43 162
43 163
43 166
43 170
43 172
43 176
43 185
43 189
43 192
43 195
43 197
43 199
43 205
43 206
43 207
43 208
43 214
43 217
43 224
43 226
43 228
43 236
43 237
43 242
43 243
43 248
43 251
43 256
43 259
43 271
43 273
43 280
43 287
43 293
43 296
43 302
43 304
43 305
43 306
43 322
43 327
43 332
43 337
43 350
43 355
43 356
43 358
43 364
43 369
43 375
43 376
43 383
43 384
43 388
43 391
43 393
43 394
43 403
44 0
44 1
44 2
44 3
44 38
44 100
44 103
44 403
44 409
45 0
45 1
45 2
45 3
45 4
45 5
45 6
45 13
45 16
45 19
45 26
45 30
45 32
45 33
45 34
45 35
45 45
45 57
45 58
45 62
45 88
45 89
45 94
45 103
45 105
45 107
45 108
45 109
45 110
45 122
45 149
45 165
45 177
45 178
45 179
45 185
45 192
45 197
45 200
45 218
45 222
45 224
45 248
45 252
45 273
45 274
45 301
45 303
45 304
45 323
45 333
45 339
45 340
45 344
45 345
45 348
45 349
45 367
45 369
45 370
45 371
45 402
46 0
46 1
46 2
46 3
46 4
46 5
46 6
46 12
46 41
46 43
46 49
46 86
46 103
46 105
46 107
46 122
46 162
46 185
46 197
46 287
46 294
46 341
46 353
46 354
46 366
46 368
46 391
46 403
46 409
47 0
47 1
47 2
47 3
47 41
47 107
47 115
47 122
47 128
47 212
47 243
47 256
47 257
47 276
47 317
47 367
47 380
47 382
47 384
47 395
48 0
48 48
49 0
49 1
49 2
49 3
49 4
49 5
49 6
49 8
49 9
49 13
49 16
49 19
49 26
49 30
49 32
49 34
49 35
49 36
49 37
49 38
49 39
49 41
49 42
49 43
49 46
49 49
49 50
49 51
49 54
49 55
49 56
49 58
49 65
49 68
49 71
49 73
49 74
49 79
49 84
49 85
49 86
49 90
49 94
49 95
49 97
49 100
49 103
49 105
49 107
49 110
49 115
49 117
49 118
49 119
49 122
49 123
49 125
49 126
49 128
49 129
49 132
49 134
49 135
49 136
49 137
49 140
49 141
49 142
49 143
49 147
49 148
49 151
49 153
49 154
49 157
49 163
49 172
49 179
49 180
49 183
49 184
49 185
49 189
49 190
49 197
49 198
49 201
49 203
49 206
49 207
49 216
49 217
49 224
49 235
49 245
49 249
49 251
49 254
49 261
49 262
49 265
49 273
49 275
49 280
49 288
49 289
49 293
49 296
49 306
49 309
49 316
49 323
49 325
49 327
49 338
49 339
49 346
49 351
49 353
49 355
49 364
49 366
49 375
49 376
49 380
49 384
49 393
49 396
49 397
49 403
50 0
50 1
50 2
50 3
50 41
50 49
50 71
50 133
50 151
50 160
50 219
50 271
50 342
50 384
51 0
51 1
51 2
51 3
51 4
51 5
51 38
51 49
51 52
51 55
51 59
51 66
51 76
51 79
51 84
51 105
51 107
51 110
51 112
51 119
51 133
51 136
51 153
51 157
51 164
51 165
51 172
51 185
51 190
51 201
51 206
51 212
51 214
51 217
51 219
51 223
51 256
51 281
51 290
51 296
51 317
51 338
51 341
51 356
51 403
52 0
52 1
52 2
52 3
52 5
52 9
52 10
52 11
52 25
52 29
52 34
52 35
52 51
52 55
52 94
52 98
52 103
52 107
52 109
52 112
52 116
52 128
52 133
52 156
52 174
52 178
52 189
52 192
52 200
52 205
52 207
52 217
52 236
52 248
52 272
52 281
52 293
52 384
52 396
53 0
53 1
53 2
53 3
53 147
53 327
54 0
54 1
54 2
54 3
54 4
54 5
54 37
54 49
54 55
54 59
54 64
54 78
54 94
54 103
54 105
54 117
54 118
54 147
54 157
54 180
54 186
54 189
54 201
54 203
54 206
54 210
54 236
54 255
54 256
54 259
54 273
55 0
55 1
55 2
55 3
55 4
55 5
55 6
55 7
55 8
55 19
55 20
55 21
55 29
55 33
55 34
55 37
55 38
55 41
55 43
55 49
55 51
55 52
55 54
55 55
55 59
55 60
55 61
55 63
55 64
55 66
55 68
55 69
55 73
55 79
55 80
55 81
55 87
55 88
55 92
55 93
55 94
55 100
55 103
55 105
55 107
55 110
55 114
55 115
55 117
55 119
55 124
55 125
55 129
55 134
55 135
55 137
55 138
55 143
55 145
55 146
55 147
55 148
55 149
55 150
55 151
55 153
55 154
55 158
55 159
55 162
55 164
55 166
55 169
55 171
55 172
55 180
55 182
55 184
55 185
55 190
55 196
55 197
55 198
55 202
55 206
55 207
55 208
55 212
55 213
55 214
55 216
55 217
55 219
55 227
55 231
55 233
55 236
55 237
55 238
55 243
55 245
55 248
55 252
55 258
55 259
55 267
55 268
55 272
55 273
55 274
55 275
55 282
55 287
55 288
55 309
55 321
55 322
55 328
55 329
55 337
55 340
55 343
55 347
55 354
55 357
55 363
55 370
55 384
55 400
55 401
56 0
56 1
56 2
56 4
56 5
56 49
56 100
56 182
56 184
56 185
56 391
57 0
57 1
57 2
57 3
57 4
57 5
57 6
57 10
57 16
57 18
57 20
57 24
57 34
57 35
57 45
57 70
57 91
57 93
57 115
57 132
57 167
57 182
57 192
57 197
57 215
57 270
57 274
57 277
57 287
57 295
57 300
57 304
57 340
57 347
57 367
57 369
57 384
58 0
58 1
58 2
58 3
58 4
58 7
58 9
58 10
58 27
58 38
58 45
58 49
58 58
58 89
58 105
58 107
58 109
58 115
58 132
58 139
58 166
58 192
58 199
58 208
58 217
58 244
58 248
58 288
58 329
58 347
58 352
58 367
58 371
59 0
59 1
59 2
59 3
59 5
59 6
59 7
59 30
59 51
59 54
59 55
59 76
59 78
59 81
59 103
59 129
59 143
59 148
59 172
59 185
59 190
59 273
59 282
59 340
59 350
59 394
60 0
60 2
60 5
60 29
60 55
60 76
60 79
60 105
60 110
60 118
60 125
60 136
60 151
60 153
60 157
60 162
60 164
60 172
60 185
60 195
60 233
60 256
60 287
60 331
60 376
61 0
61 1
61 2
61 3
61 4
61 5
61 6
61 7
61 12
61 14
61 15
61 22
61 23
61 24
61 27
61 33
61 34
61 55
61 73
61 75
61 88
61 94
61 103
61 104
61 107
61 111
61 120
61 143
61 180
61 185
61 188
61 196
61 207
61 213
61 215
61 217
61 305
61 343
61 349
61 367
61 384
61 403
62 0
62 1
62 2
62 3
62 4
62 5
62 8
62 10
62 25
62 33
62 45
62 89
62 96
62 103
62 107
62 112
62 132
62 144
62 161
62 165
62 185
62 194
62 196
62 207
62 215
62 271
62 324
62 340
62 343
62 365
62 384
62 393
63 0
63 1
63 2
63 3
63 4
63 6
63 43
63 55
63 119
63 136
63 151
63 162
63 172
63 178
63 213
63 289
63 293
63 322
63 350
64 0
64 1
64 2
64 3
64 4
64 5
64 54
64 55
64 78
64 90
64 112
64 114
64 127
64 181
64 185
64 188
64 258
64 262
64 276
64 316
65 0
65 1
65 2
65 3
65 4
65 5
65 9
65 29
65 33
65 39
65 43
65 49
65 84
65 96
65 103
65 105
65 110
65 112
65 115
65 119
65 144
65 147
65 149
65 151
65 159
65 165
65 203
65 207
65 234
65 253
65 254
65 264
65 280
65 321
65 340
65 382
65 384
65 391
65 407
66 0
66 1
66 2
66 3
66 4
66 5
66 6
66 21
66 30
66 32
66 36
66 41
66 43
66 51
66 55
66 68
66 74
66 76
66 79
66 80
66 93
66 105
66 112
66 116
66 117
66 135
66 152
66 153
66 157
66 172
66 185
66 199
66 203
66 209
66 211
66 216
66 217
66 224
66 242
66 245
66 248
66 260
66 265
66 266
66 278
66 337
66 341
66 363
66 364
66 368
66 375
67 0
67 1
67 2
67 3
67 4
67 5
67 8
67 37
67 67
67 68
67 73
67 76
67 78
67 79
67 81
67 86
67 100
67 102
67 103
67 112
67 129
67 138
67 143
67 148
67 157
67 173
67 187
67 192
67 202
67 203
67 230
67 233
67 254
67 273
67 278
67 282
67 296
67 334
67 341
67 350
67 353
67 354
67 363
68 0
68 1
68 2
68 3
68 4
68 5
68 6
68 7
68 9
68 10
68 12
68 14
68 19
68 20
68 23
68 29
68 36
68 49
68 55
68 66
68 67
68 95
68 105
68 115
68 134
68 140
68 141
68 142
68 146
68 170
68 172
68 180
68 182
68 185
68 190
68 192
68 196
68 203
68 207
68 212
68 217
68 228
68 245
68 250
68 251
68 262
68 273
68 274
68 275
68 295
68 296
68 318
68 330
68 350
68 374
68 376
68 384
69 0
69 1
69 2
69 3
69 4
69 5
69 6
69 15
69 21
69 55
69 81
69 90
69 96
69 100
69 103
69 105
69 107
69 112
69 151
69 178
69 207
69 216
69 227
69 230
69 255
69 274
69 288
69 291
69 325
69 334
69 373
69 383
69 386
69 388
70 0
70 1
70 2
70 3
70 4
70 5
70 8
70 20
70 25
70 26
70 28
70 34
70 57
70 71
70 84
70 105
70 107
70 110
70 133
70 144
70 165
70 167
70 180
70 185
70 225
70 274
70 288
70 304
70 315
70 340
70 369
71 0
71 1
71 2
71 3
71 4
71 5
71 11
71 26
71 32
71 40
71 49
71 50
71 70
71 94
71 100
71 103
71 110
71 119
71 121
71 146
71 151
71 179
71 207
71 212
71 224
71 248
71 272
71 292
71 348
71 405
72 0
72 1
72 2
72 3
72 4
72 8
72 19
72 103
72 114
72 151
72 203
72 207
72 273
72 301
72 340
72 346
73 0
73 1
73 2
73 3
73 4
73 5
73 9
73 10
73 12
73 19
73 25
73 26
73 34
73 35
73 36
73 41
73 43
73 49
73 55
73 61
73 67
73 74
73 84
73 85
73 86
73 90
73 91
73 94
73 96
73 100
73 103
73 107
73 110
73 118
73 122
73 126
73 133
73 135
73 137
73 151
73 153
73 154
73 164
73 182
73 185
73 188
73 190
73 197
73 200
73 207
73 209
73 210
73 216
73 238
73 248
73 264
73 267
73 272
73 273
73 274
73 281
73 290
73 310
73 322
73 326
73 337
73 341
73 344
73 352
73 353
73 355
73 357
73 366
73 384
73 402
74 0
74 1
74 2
74 3
74 4
74 5
74 41
74 49
74 66
74 73
74 84
74 105
74 110
74 115
74 129
74 136
74 137
74 185
74 201
74 206
74 207
74 209
74 219
74 246
74 273
74 284
74 287
74 289
74 332
74 337
74 384
74 391
75 0
75 1
75 2
75 3
75 4
75 5
75 8
75 18
75 61
75 106
75 123
75 143
75 144
75 156
75 165
75 177
75 178
75 185
75 192
75 197
75 208
75 257
75 277
75 300
75 310
75 313
75 330
75 333
75 349
75 355
75 369
75 370
75 374
75 384
76 0
76 1
76 2
76 3
76 4
76 5
76 51
76 59
76 60
76 66
76 67
76 84
76 105
76 112
76 115
76 133
76 143
76 148
76 162
76 180
76 233
76 248
76 266
76 274
76 320
76 350
76 366
76 384
76 391
77 0
77 1
77 2
77 3
77 4
77 7
77 9
77 10
77 18
77 36
77 80
77 95
77 103
77 105
77 117
77 178
77 196
77 222
77 231
77 237
77 252
77 272
77 288
77 334
77 339
77 340
77 343
77 401
78 0
78 1
78 2
78 3
78 4
78 43
78 54
78 59
78 64
78 67
78 79
78 122
78 134
78 140
78 143
78 148
78 197
78 217
78 224
78 234
78 258
78 262
78 350
78 376
78 396
79 0
79 1
79 2
79 3
79 4
79 5
79 12
79 37
79 49
79 51
79 55
79 60
79 66
79 67
79 78
79 100
79 102
79 103
79 105
79 115
79 122
79 135
79 151
79 154
79 155
79 157
79 182
79 207
79 212
79 217
79 236
79 341
79 380
79 388
79 396
79 403
79 409
80 0
80 1
80 2
80 3
80 4
80 7
80 21
80 31
80 36
80 55
80 66
80 77
80 80
80 82
80 90
80 103
80 107
80 110
80 116
80 133
80 139
80 148
80 151
80 152
80 163
80 180
80 183
80 185
80 194
80 197
80 273
80 283
80 284
80 288
80 325
80 384
81 0
81 1
81 2
81 3
81 4
81 5
81 6
81 21
81 55
81 59
81 67
81 69
81 96
81 100
81 103
81 110
81 118
81 135
81 140
81 149
81 154
81 190
81 197
81 203
81 212
81 217
81 267
81 272
81 296
82 0
82 1
82 2
82 3
82 4
82 5
82 6
82 32
82 41
82 80
82 92
82 95
82 100
82 103
82 110
82 133
82 137
82 163
82 216
82 283
82 306
83 0
83 1
83 2
83 3
83 4
83 20
83 29
83 43
83 100
83 101
83 103
83 122
83 129
83 190
83 219
83 238
83 366
84 0
84 1
84 2
84 3
84 4
84 6
84 37
84 38
84 41
84 43
84 49
84 51
84 65
84 70
84 73
84 74
84 76
84 87
84 103
84 105
84 110
84 143
84 166
84 180
84 190
84 200
84 208
84 260
84 288
84 289
84 329
84 350
84 356
84 365
85 0
85 1
85 2
85 3
85 4
85 15
85 22
85 41
85 49
85 73
85 85
85 86
85 105
85 107
85 110
85 115
85 122
85 127
85 137
85 139
85 163
85 180
85 185
85 189
85 192
85 193
85 207
85 208
85 210
85 272
85 306
86 0
86 1
86 2
86 3
86 4
86 6
86 12
86 46
86 49
86 67
86 73
86 85
86 103
86 105
86 110
86 115
86 122
86 133
86 150
86 180
86 184
86 188
86 207
86 210
86 243
86 254
86 278
86 289
86 296
86 316
86 332
86 341
87 0
87 1
87 2
87 3
87 4
87 5
87 6
87 15
87 35
87 55
87 84
87 95
87 101
87 105
87 110
87 115
87 120
87 121
87 127
87 182
87 190
87 197
87 248
87 282
87 284
87 287
87 303
87 309
87 314
87 332
87 356
87 360
87 372
87 384
88 0
88 1
88 2
88 3
88 4
88 6
88 7
88 10
88 13
88 15
88 22
88 27
88 35
88 45
88 55
88 61
88 99
88 107
88 109
88 110
88 115
88 121
88 132
88 136
88 171
88 178
88 180
88 191
88 215
88 264
88 271
88 273
88 280
88 286
88 288
88 291
88 309
88 334
88 367
89 0
89 1
89 2
89 3
89 4
89 5
89 6
89 7
89 8
89 23
89 33
89 38
89 41
89 45
89 58
89 62
89 95
89 100
89 103
89 107
89 134
89 154
89 177
89 180
89 192
89 207
89 226
89 238
89 275
89 342
90 0
90 1
90 2
90 3
90 32
90 37
90 49
90 64
90 69
90 73
90 80
90 100
90 102
90 105
90 110
90 115
90 122
90 152
90 184
90 185
90 190
90 192
90 207
90 240
90 282
90 287
90 358
90 368
90 385
91 0
91 1
91 2
91 3
91 4
91 5
91 7
91 8
91 10
91 15
91 25
91 30
91 31
91 34
91 35
91 43
91 57
91 73
91 94
91 100
91 101
91 105
91 107
91 109
91 120
91 121
91 136
91 142
91 154
91 180
91 190
91 208
91 212
91 215
91 218
91 264
91 272
91 283
91 291
91 343
91 344
91 351
91 367
91 370
91 374
91 384
92 0
92 1
92 2
92 3
92 4
92 5
92 9
92 29
92 38
92 55
92 82
92 96
92 100
92 103
92 105
92 107
92 110
92 115
92 127
92 136
92 137
92 147
92 149
92 151
92 165
92 185
92 194
92 197
92 217
92 225
92 276
92 282
92 309
92 310
92 325
92 331
93 0
93 1
93 2
93 3
93 4
93 9
93 31
93 32
93 33
93 38
93 43
93 55
93 57
93 66
93 100
93 103
93 110
93 115
93 117
93 122
93 148
93 151
93 162
93 184
93 186
93 197
93 207
93 292
93 331
93 340
93 358
93 359
93 384
93 391
93 407
94 0
94 1
94 2
94 3
94 4
94 5
94 6
94 8
94 9
94 11
94 15
94 18
94 20
94 26
94 27
94 28
94 31
94 32
94 34
94 35
94 38
94 45
94 49
94 52
94 54
94 55
94 61
94 71
94 73
94 91
94 103
94 107
94 109
94 110
94 136
94 138
94 148
94 151
94 156
94 163
94 181
94 182
94 185
94 190
94 208
94 271
94 374
95 0
95 1
95 2
95 3
95 4
95 5
95 6
95 14
95 23
95 30
95 31
95 38
95 43
95 49
95 68
95 77
95 82
95 87
95 89
95 107
95 110
95 113
95 115
95 121
95 148
95 150
95 154
95 164
95 171
95 180
95 182
95 190
95 208
95 223
95 231
95 253
95 273
95 277
95 282
95 288
95 293
95 295
95 305
95 329
95 336
95 343
95 350
95 365
95 373
95 391
96 0
96 1
96 2
96 3
96 5
96 7
96 9
96 38
96 43
96 62
96 65
96 69
96 73
96 81
96 92
96 107
96 112
96 136
96 137
96 139
96 143
96 149
96 169
96 178
96 185
96 192
96 198
96 203
96 239
96 245
96 250
96 273
96 284
96 293
96 306
96 317
96 318
96 373
96 384
96 403
96 409
97 0
97 1
97 3
97 4
97 26
97 34
97 49
97 98
97 110
97 154
97 180
97 185
97 190
97 207
97 209
97 224
97 227
97 283
97 341
97 396
98 0
98 1
98 3
98 4
98 6
98 7
98 29
98 36
98 43
98 52
98 97
98 116
98 149
98 206
98 214
98 273
98 350
99 0
99 1
99 2
99 3
99 4
99 5
99 41
99 88
99 100
99 102
99 103
99 104
99 169
99 180
99 206
99 281
99 329
99 377
99 382
99 410
100 0
100 1
100 2
100 3
100 4
100 5
100 6
100 23
100 24
100 35
100 36
100 41
100 43
100 44
100 49
100 55
100 56
100 67
100 69
100 71
100 73
100 79
100 81
100 82
100 83
100 89
100 90
100 91
100 92
100 93
100 99
100 102
100 103
100 110
100 115
100 122
100 128
100 133
100 134
100 136
100 147
100 153
100 157
100 158
100 170
100 180
100 184
100 197
100 202
100 203
100 207
100 209
100 210
100 217
100 219
100 230
100 232
100 248
100 250
100 262
100 265
100 274
100 275
100 283
100 290
100 301
100 334
100 348
100 363
100 364
100 366
100 376
100 383
100 384
101 0
101 1
101 2
101 3
101 4
101 5
101 7
101 36
101 43
101 83
101 87
101 91
101 103
101 107
101 111
101 117
101 125
101 126
101 129
101 133
101 136
101 185
101 186
101 198
101 208
101 217
101 220
101 224
101 259
101 276
101 288
101 318
101 332
101 354
102 0
102 1
102 2
102 4
102 13
102 26
102 36
102 41
102 67
102 79
102 90
102 99
102 100
102 102
102 104
102 105
102 106
102 110
102 111
102 117
102 137
102 159
102 160
102 180
102 184
102 197
102 203
102 207
102 217
102 271
102 293
102 366
102 382
102 384
102 385
103 0
103 1
103 2
103 3
103 4
103 5
103 6
103 7
103 8
103 9
103 10
103 15
103 18
103 21
103 22
103 24
103 25
103 27
103 28
103 29
103 31
103 32
103 33
103 34
103 35
103 36
103 39
103 41
103 43
103 44
103 45
103 46
103 49
103 52
103 54
103 55
103 59
103 61
103 62
103 65
103 67
103 69
103 71
103 72
103 73
103 77
103 79
103 80
103 81
103 82
103 83
103 84
103 86
103 89
103 92
103 93
103 94
103 99
103 100
103 101
103 103
103 105
103 106
103 107
103 108
103 109
103 110
103 112
103 114
103 115
103 117
103 119
103 122
103 126
103 128
103 132
103 133
103 134
103 136
103 137
103 141
103 142
103 143
103 147
103 148
103 149
103 152
103 153
103 154
103 156
103 157
103 159
103 163
103 170
103 171
103 172
103 176
103 177
103 180
103 185
103 187
103 188
103 190
103 192
103 194
103 195
103 197
103 198
103 201
103 207
103 208
103 212
103 213
103 217
103 218
103 219
103 220
103 222
103 224
103 226
103 228
103 233
103 236
103 237
103 238
103 242
103 243
103 248
103 251
103 253
103 256
103 259
103 261
103 264
103 265
103 269
103 271
103 272
103 273
103 274
103 275
103 277
103 278
103 282
103 284
103 288
103 289
103 290
103 291
103 292
103 294
103 296
103 303
103 304
103 309
103 310
103 315
103 316
103 321
103 322
103 324
103 326
103 327
103 328
103 329
103 337
103 341
103 345
103 348
103 353
103 366
103 369
103 376
103 380
103 384
103 386
103 391
103 394
103 397
103 404
104 0
104 1
104 2
104 4
104 36
104 41
104 61
104 99
104 102
104 105
104 115
104 133
104 160
104 169
104 185
104 321
104 382
104 384
105 0
105 1
105 2
105 3
105 4
105 5
105 6
105 7
105 14
105 17
105 19
105 20
105 21
105 24
105 26
105 28
105 29
105 30
105 31
105 32
105 33
105 34
105 36
105 37
105 41
105 43
105 45
105 46
105 49
105 51
105 54
105 55
105 58
105 60
105 65
105 66
105 68
105 69
105 70
105 74
105 76
105 77
105 79
105 84
105 85
105 86
105 87
105 90
105 91
105 92
105 102
105 103
105 104
105 105
105 107
105 108
105 110
105 111
105 112
105 113
105 114
105 115
105 116
105 117
105 119
105 121
105 122
105 124
105 125
105 126
105 130
105 131
105 132
105 133
105 135
105 136
105 138
105 140
105 147
105 148
105 149
105 151
105 152
105 153
105 154
105 163
105 167
105 170
105 171
105 172
105 176
105 177
105 178
105 180
105 181
105 184
105 185
105 186
105 188
105 189
105 190
105 192
105 194
105 196
105 197
105 198
105 201
105 203
105 206
105 207
105 210
105 212
105 213
105 217
105 218
105 219
105 224
105 226
105 227
105 228
105 229
105 236
105 237
105 242
105 243
105 245
105 249
105 254
105 255
105 256
105 259
105 260
105 263
105 264
105 268
105 269
105 270
105 271
105 273
105 274
105 276
105 278
105 281
105 283
105 287
105 292
105 314
105 317
105 318
105 320
105 329
105 332
105 339
105 340
105 342
105 344
105 362
105 364
105 366
105 367
105 377
105 378
105 380
105 382
105 384
105 387
105 388
105 389
105 392
105 398
105 401
105 402
105 407
105 410
106 0
106 1
106 2
106 4
106 75
106 102
106 103
106 151
106 189
106 208
106 382
106 399
107 0
107 1
107 2
107 3
107 4
107 5
107 6
107 7
107 8
107 9
107 10
107 14
107 15
107 19
107 21
107 22
107 23
107 24
107 27
107 29
107 30
107 33
107 36
107 37
107 38
107 41
107 43
107 45
107 46
107 47
107 49
107 51
107 52
107 55
107 58
107 61
107 62
107 69
107 70
107 73
107 80
107 85
107 88
107 89
107 91
107 92
107 94
107 95
107 96
107 101
107 103
107 105
107 109
107 110
107 113
107 115
107 116
107 117
107 120
107 122
107 127
107 132
107 133
107 136
107 139
107 149
107 151
107 152
107 153
107 154
107 157
107 158
107 162
107 163
107 164
107 167
107 169
107 170
107 171
107 177
107 180
107 183
107 185
107 188
107 189
107 190
107 194
107 196
107 197
107 198
107 202
107 203
107 207
107 208
107 210
107 215
107 216
107 218
107 220
107 226
107 234
107 237
107 240
107 243
107 253
107 254
107 257
107 259
107 260
107 270
107 272
107 273
107 275
107 282
107 288
107 290
107 300
107 301
107 305
107 307
107 308
107 311
107 312
107 315
107 324
107 325
107 332
107 333
107 337
107 345
107 353
107 354
107 365
107 367
107 371
107 373
107 382
107 384
107 389
107 390
107 400
107 402
108 0
108 1
108 3
108 33
108 36
108 38
108 45
108 103
108 105
108 159
108 304
108 329
108 360
109 0
109 1
109 2
109 4
109 5
109 6
109 8
109 15
109 27
109 30
109 31
109 33
109 34
109 35
109 45
109 52
109 58
109 88
109 91
109 94
109 103
109 107
109 112
109 115
109 128
109 143
109 161
109 162
109 192
109 194
109 207
109 213
109 223
109 244
109 291
109 295
109 305
109 355
109 369
109 373
109 400
110 0
110 1
110 2
110 3
110 4
110 5
110 6
110 7
110 8
110 10
110 11
110 12
110 13
110 16
110 17
110 22
110 23
110 26
110 30
110 31
110 32
110 34
110 35
110 36
110 38
110 41
110 42
110 43
110 45
110 49
110 51
110 55
110 60
110 65
110 70
110 71
110 73
110 74
110 80
110 81
110 82
110 84
110 85
110 86
110 87
110 88
110 90
110 92
110 93
110 94
110 95
110 97
110 100
110 102
110 103
110 105
110 107
110 110
110 111
110 112
110 114
110 115
110 123
110 124
110 125
110 127
110 129
110 130
110 131
110 132
110 134
110 136
110 137
110 140
110 141
110 142
110 147
110 148
110 149
110 150
110 151
110 153
110 154
110 156
110 157
110 164
110 166
110 167
110 174
110 176
110 177
110 178
110 179
110 180
110 182
110 185
110 187
110 188
110 190
110 194
110 197
110 198
110 202
110 207
110 208
110 212
110 216
110 217
110 220
110 223
110 224
110 236
110 238
110 239
110 241
110 242
110 243
110 258
110 260
110 262
110 264
110 265
110 268
110 271
110 272
110 273
110 274
110 278
110 281
110 282
110 283
110 287
110 288
110 290
110 294
110 299
110 305
110 309
110 310
110 313
110 321
110 329
110 332
110 337
110 340
110 342
110 345
110 348
110 356
110 365
110 366
110 369
110 373
110 378
110 382
110 383
110 384
110 390
110 401
110 403
110 409
111 0
111 1
111 2
111 5
111 41
111 61
111 101
111 102
111 105
111 110
111 111
111 154
111 160
111 180
111 200
111 250
111 382
111 397
112 0
112 1
112 2
112 3
112 4
112 5
112 6
112 8
112 9
112 10
112 13
112 16
112 18
112 21
112 27
112 30
112 33
112 36
112 37
112 38
112 39
112 41
112 43
112 51
112 52
112 62
112 64
112 65
112 66
112 67
112 69
112 76
112 96
112 103
112 105
112 109
112 110
112 112
112 114
112 117
112 122
112 128
112 132
112 134
112 143
112 147
112 161
112 178
112 181
112 192
112 197
112 206
112 210
112 218
112 219
112 226
112 228
112 229
112 233
112 248
112 255
112 257
112 273
112 276
112 277
112 281
112 287
112 288
112 293
112 301
112 308
112 340
112 365
112 369
112 391
112 397
113 1
113 2
113 3
113 5
113 8
113 95
113 105
113 107
113 115
113 136
113 180
113 189
113 393
114 0
114 1
114 2
114 3
114 4
114 5
114 21
114 26
114 36
114 37
114 55
114 64
114 72
114 103
114 105
114 110
114 112
114 126
114 133
114 145
114 147
114 151
114 153
114 154
114 185
114 189
114 195
114 197
114 198
114 213
114 217
114 236
114 281
114 292
114 301
114 311
114 384
114 391
115 0
115 1
115 2
115 3
115 4
115 5
115 6
115 10
115 20
115 21
115 22
115 25
115 26
115 29
115 30
115 32
115 35
115 37
115 41
115 43
115 47
115 49
115 55
115 57
115 58
115 65
115 68
115 74
115 76
115 79
115 85
115 86
115 87
115 88
115 90
115 92
115 93
115 95
115 100
115 103
115 104
115 105
115 107
115 109
115 110
115 113
115 115
115 119
115 122
115 128
115 133
115 136
115 139
115 141
115 147
115 148
115 149
115 152
115 153
115 154
115 162
115 164
115 172
115 176
115 179
115 180
115 183
115 185
115 187
115 188
115 197
115 206
115 207
115 209
115 213
115 215
115 216
115 217
115 223
115 224
115 225
115 228
115 230
115 233
115 234
115 238
115 242
115 244
115 248
115 259
115 261
115 272
115 274
115 287
115 289
115 294
115 308
115 316
115 318
115 320
115 321
115 340
115 343
115 351
115 359
115 360
115 366
115 378
115 380
115 384
115 388
116 0
116 1
116 2
116 3
116 4
116 5
116 10
116 29
116 33
116 36
116 52
116 66
116 80
116 98
116 105
116 107
116 139
116 181
116 184
116 185
116 203
116 210
116 212
116 213
116 236
116 251
116 268
116 272
116 276
116 303
116 314
116 329
116 332
116 378
116 384
117 0
117 1
117 2
117 3
117 4
117 5
117 6
117 9
117 15
117 22
117 25
117 35
117 36
117 49
117 54
117 55
117 66
117 77
117 93
117 101
117 102
117 103
117 105
117 107
117 112
117 118
117 119
117 143
117 151
117 153
117 156
117 158
117 162
117 167
117 180
117 206
117 208
117 214
117 226
117 237
117 244
117 251
117 259
117 281
117 296
117 305
117 317
117 322
117 323
117 324
117 327
117 331
117 353
117 368
117 381
117 384
117 394
117 395
118 1
118 2
118 3
118 4
118 29
118 49
118 54
118 60
118 73
118 81
118 117
118 151
118 157
118 162
118 164
118 172
118 180
118 185
118 192
118 200
118 201
118 203
118 293
118 394
119 0
119 1
119 2
119 3
119 4
119 35
119 43
119 49
119 51
119 55
119 63
119 65
119 71
119 103
119 105
119 115
119 117
119 136
119 153
119 161
119 165
119 197
119 208
119 217
119 240
119 243
119 248
119 254
119 266
119 289
119 306
119 325
119 331
119 350
119 374
119 381
119 408
120 0
120 1
120 2
120 4
120 6
120 27
120 28
120 36
120 61
120 87
120 91
120 107
120 122
120 141
120 167
120 182
120 190
120 197
120 203
120 208
120 243
120 340
120 345
121 0
121 1
121 2
121 3
121 4
121 6
121 7
121 11
121 13
121 14
121 26
121 33
121 43
121 71
121 87
121 88
121 91
121 95
121 105
121 143
121 156
121 159
121 180
121 189
121 192
121 210
121 223
121 229
121 231
121 240
121 288
121 291
121 295
121 348
121 350
121 356
121 357
121 402
122 0
122 1
122 2
122 3
122 4
122 5
122 6
122 8
122 10
122 11
122 16
122 17
122 19
122 21
122 28
122 30
122 33
122 43
122 45
122 46
122 47
122 49
122 73
122 78
122 79
122 83
122 85
122 86
122 90
122 93
122 100
122 103
122 105
122 107
122 112
122 115
122 120
122 132
122 133
122 136
122 138
122 141
122 146
122 154
122 164
122 177
122 180
122 185
122 188
122 189
122 192
122 207
122 217
122 218
122 244
122 248
122 253
122 271
122 277
122 287
122 289
122 290
122 301
122 304
122 310
122 333
122 340
122 343
122 352
122 353
122 365
122 367
123 0
123 1
123 2
123 3
123 4
123 5
123 7
123 8
123 26
123 31
123 32
123 49
123 75
123 110
123 136
123 138
123 156
123 207
123 222
123 280
123 288
123 318
123 343
124 0
124 1
124 2
124 3
124 4
124 21
124 36
124 37
124 41
124 55
124 105
124 110
124 129
124 130
124 150
124 153
124 155
124 203
124 207
124 224
124 249
124 320
124 380
125 1
125 2
125 3
125 5
125 29
125 38
125 43
125 49
125 55
125 60
125 101
125 105
125 110
125 166
125 169
125 178
125 309
125 320
125 395
126 0
126 1
126 3
126 4
126 5
126 7
126 12
126 28
126 32
126 34
126 36
126 49
126 73
126 101
126 103
126 105
126 114
126 156
126 182
126 189
126 190
126 208
126 222
126 273
126 283
126 309
126 318
126 319
126 384
126 405
127 0
127 1
127 2
127 3
127 4
127 6
127 23
127 35
127 43
127 64
127 85
127 87
127 92
127 107
127 110
127 149
127 151
127 167
127 185
127 198
127 264
127 321
127 325
127 329
127 384
127 393
128 0
128 1
128 2
128 3
128 4
128 6
128 8
128 11
128 28
128 29
128 31
128 34
128 36
128 38
128 47
128 49
128 52
128 100
128 103
128 109
128 112
128 115
128 128
128 136
128 148
128 151
128 161
128 182
128 184
128 185
128 188
128 197
128 206
128 217
128 260
128 262
128 271
128 272
128 289
128 305
128 355
128 400
129 0
129 1
129 2
129 3
129 5
129 6
129 9
129 10
129 21
129 36
129 41
129 43
129 49
129 55
129 59
129 67
129 74
129 83
129 101
129 110
129 124
129 136
129 147
129 153
129 165
129 180
129 189
129 206
129 207
129 243
129 256
129 273
129 368
129 384
129 389
130 0
130 1
130 2
130 3
130 4
130 5
130 6
130 105
130 110
130 124
130 136
130 182
130 185
130 190
130 207
130 210
130 316
131 0
131 1
131 3
131 5
131 15
131 40
131 41
131 105
131 110
131 180
131 196
131 210
131 242
131 312
132 0
132 1
132 2
132 3
132 4
132 5
132 6
132 7
132 8
132 14
132 23
132 33
132 34
132 35
132 49
132 57
132 58
132 62
132 88
132 103
132 105
132 107
132 110
132 112
132 122
132 177
132 178
132 180
132 185
132 190
132 209
132 223
132 226
132 236
132 248
132 270
132 272
132 274
132 275
132 278
132 288
132 323
132 324
132 327
132 333
132 340
132 345
132 370
132 371
133 0
133 1
133 2
133 3
133 4
133 5
133 6
133 9
133 12
133 19
133 23
133 29
133 38
133 43
133 50
133 51
133 52
133 70
133 73
133 76
133 80
133 82
133 86
133 100
133 101
133 103
133 104
133 105
133 107
133 114
133 115
133 122
133 133
133 137
133 143
133 145
133 164
133 169
133 178
133 189
133 190
133 197
133 203
133 207
133 210
133 216
133 227
133 228
133 236
133 242
133 245
133 246
133 274
133 296
133 311
133 350
133 355
133 388
134 0
134 1
134 2
134 3
134 4
134 5
134 19
134 29
134 39
134 41
134 49
134 55
134 68
134 78
134 89
134 100
134 103
134 110
134 112
134 140
134 166
134 178
134 196
134 217
134 226
134 237
134 244
134 250
134 265
134 271
134 289
134 293
134 353
134 388
135 0
135 1
135 2
135 3
135 4
135 7
135 29
135 41
135 49
135 55
135 66
135 73
135 79
135 81
135 105
135 164
135 185
135 189
135 217
135 227
135 293
135 353
135 389
135 391
135 396
136 0
136 1
136 2
136 3
136 4
136 5
136 8
136 32
136 35
136 36
136 37
136 38
136 41
136 49
136 51
136 60
136 63
136 74
136 88
136 91
136 92
136 94
136 96
136 100
136 101
136 103
136 105
136 107
136 110
136 113
136 115
136 119
136 122
136 123
136 128
136 129
136 130
136 136
136 143
136 147
136 149
136 152
136 165
136 180
136 185
136 189
136 195
136 196
136 202
136 207
136 214
136 215
136 217
136 224
136 227
136 236
136 249
136 259
136 272
136 275
136 282
136 285
136 306
136 312
136 317
136 340
136 350
136 370
136 372
136 378
136 383
136 384
136 398
137 0
137 1
137 2
137 3
137 4
137 5
137 6
137 9
137 49
137 55
137 73
137 74
137 82
137 85
137 92
137 96
137 102
137 103
137 110
137 133
137 150
137 157
137 190
137 196
137 228
137 236
137 317
137 378
137 388
137 391
138 0
138 1
138 2
138 4
138 5
138 6
138 8
138 9
138 17
138 25
138 26
138 27
138 31
138 34
138 55
138 67
138 94
138 105
138 122
138 123
138 156
138 182
138 185
138 187
138 196
138 197
138 224
138 252
138 273
138 286
138 288
138 310
138 343
139 0
139 1
139 2
139 3
139 4
139 31
139 58
139 80
139 85
139 96
139 107
139 115
139 116
139 149
139 170
139 185
139 192
139 230
139 245
139 256
139 287
139 288
139 306
139 318
139 384
139 391
140 0
140 1
140 2
140 3
140 4
140 5
140 8
140 12
140 36
140 49
140 68
140 78
140 81
140 105
140 110
140 134
140 182
140 190
140 198
140 204
140 228
140 264
140 265
140 293
140 296
140 316
140 342
141 0
141 1
141 2
141 4
141 5
141 6
141 8
141 10
141 18
141 25
141 26
141 34
141 38
141 49
141 68
141 103
141 110
141 115
141 120
141 122
141 185
141 207
141 218
141 244
141 287
141 288
141 304
141 336
141 367
141 382
141 384
142 0
142 1
142 2
142 3
142 4
142 7
142 9
142 41
142 49
142 68
142 91
142 103
142 110
142 142
142 149
142 164
142 207
142 214
142 221
142 236
142 242
142 259
142 270
142 276
142 288
142 303
142 308
142 329
142 376
143 0
143 1
143 2
143 3
143 4
143 5
143 6
143 7
143 14
143 29
143 33
143 37
143 43
143 49
143 55
143 59
143 61
143 67
143 75
143 76
143 78
143 84
143 96
143 103
143 109
143 112
143 117
143 121
143 133
143 136
143 145
143 149
143 153
143 154
143 155
143 165
143 185
143 192
143 196
143 214
143 223
143 225
143 250
143 254
143 257
143 259
143 326
143 344
143 345
143 359
143 363
143 370
143 371
144 0
144 1
144 2
144 3
144 5
144 8
144 15
144 36
144 62
144 65
144 70
144 75
144 178
144 192
144 194
144 210
144 220
144 244
144 248
144 257
144 312
144 337
144 349
145 0
145 1
145 2
145 3
145 4
145 31
145 36
145 55
145 114
145 133
145 143
145 180
145 181
145 185
145 192
145 267
145 275
145 277
145 295
145 311
145 324
145 333
145 346
145 402
146 0
146 1
146 2
146 4
146 5
146 6
146 19
146 55
146 68
146 71
146 122
146 197
146 208
146 248
146 281
146 323
146 370
146 391
146 398
147 0
147 1
147 2
147 3
147 4
147 6
147 37
147 38
147 41
147 43
147 49
147 53
147 54
147 55
147 65
147 92
147 100
147 103
147 105
147 110
147 112
147 114
147 115
147 129
147 136
147 248
147 273
147 274
147 289
147 338
147 388
148 0
148 1
148 2
148 3
148 4
148 5
148 9
148 43
148 49
148 55
148 59
148 67
148 76
148 78
148 80
148 93
148 94
148 95
148 103
148 105
148 110
148 115
148 128
148 152
148 153
148 155
148 157
148 161
148 163
148 165
148 172
148 178
148 179
148 180
148 188
148 190
148 197
148 207
148 217
148 239
148 242
148 243
148 260
148 262
148 266
148 281
148 287
148 305
148 384
148 393
149 0
149 1
149 2
149 3
149 4
149 5
149 7
149 9
149 11
149 15
149 21
149 29
149 38
149 43
149 45
149 55
149 65
149 81
149 92
149 96
149 98
149 103
149 105
149 107
149 110
149 115
149 127
149 136
149 139
149 142
149 143
149 151
149 157
149 178
149 192
149 194
149 196
149 198
149 203
149 206
149 211
149 236
149 265
149 274
149 276
149 279
149 282
149 289
149 350
149 384
150 0
150 1
150 2
150 3
150 5
150 6
150 8
150 41
150 55
150 86
150 95
150 110
150 124
150 137
150 171
150 183
150 185
150 208
150 217
150 240
150 285
150 312
150 314
150 380
151 0
151 1
151 2
151 3
151 4
151 5
151 6
151 7
151 8
151 9
151 16
151 19
151 31
151 32
151 36
151 39
151 41
151 43
151 49
151 50
151 55
151 60
151 63
151 65
151 69
151 71
151 72
151 73
151 79
151 80
151 92
151 93
151 94
151 105
151 106
151 107
151 110
151 114
151 117
151 118
151 127
151 128
151 149
151 153
151 156
151 160
151 162
151 164
151 165
151 180
151 184
151 185
151 188
151 190
151 195
151 203
151 212
151 217
151 222
151 224
151 234
151 242
151 243
151 248
151 261
151 263
151 273
151 283
151 287
151 288
151 304
151 306
151 317
151 329
151 338
151 346
151 368
151 381
151 384
151 387
152 0
152 1
152 2
152 3
152 5
152 9
152 10
152 66
152 80
152 90
152 103
152 105
152 107
152 115
152 136
152 148
152 162
152 190
152 204
152 211
152 233
152 236
152 265
152 293
152 298
152 299
152 306
152 312
152 327
153 0
153 1
153 2
153 3
153 4
153 21
153 37
153 41
153 43
153 49
153 51
153 55
153 60
153 66
153 73
153 100
153 103
153 105
153 107
153 110
153 114
153 115
153 117
153 119
153 124
153 129
153 143
153 148
153 151
153 162
153 185
153 198
153 203
153 206
153 217
153 249
153 250
153 259
153 260
153 264
153 288
153 289
153 317
153 320
153 341
153 350
153 353
153 376
153 381
154 0
154 1
154 2
154 3
154 4
154 5
154 8
154 26
154 33
154 36
154 43
154 49
154 55
154 73
154 79
154 81
154 89
154 91
154 95
154 97
154 103
154 105
154 107
154 110
154 111
154 114
154 115
154 122
154 143
154 155
154 164
154 180
154 185
154 207
154 208
154 218
154 237
154 244
154 247
154 259
154 271
154 275
154 315
154 348
154 352
154 360
154 371
154 379
154 384
154 395
154 409
155 0
155 1
155 2
155 3
155 4
155 36
155 43
155 79
155 124
155 143
155 148
155 154
155 161
155 197
155 202
155 207
155 208
155 227
155 241
155 320
155 322
155 327
156 0
156 1
156 2
156 3
156 4
156 5
156 6
156 8
156 9
156 14
156 15
156 20
156 26
156 31
156 52
156 75
156 94
156 103
156 110
156 117
156 121
156 123
156 126
156 138
156 151
156 164
156 180
156 185
156 187
156 189
156 222
156 273
156 287
156 304
156 310
156 318
156 340
156 361
157 0
157 1
157 2
157 3
157 4
157 5
157 9
157 38
157 41
157 49
157 51
157 54
157 60
157 66
157 67
157 79
157 100
157 103
157 107
157 110
157 118
157 137
157 148
157 149
157 157
157 169
157 172
157 178
157 186
157 192
157 196
157 197
157 201
157 203
157 207
157 230
157 233
157 234
157 254
157 262
157 272
157 292
157 293
157 294
157 316
157 337
157 353
157 363
157 366
157 376
157 389
157 394
157 407
158 0
158 1
158 2
158 3
158 4
158 55
158 100
158 107
158 117
158 189
158 242
158 248
158 265
158 332
158 358
159 0
159 1
159 2
159 3
159 4
159 36
159 55
159 65
159 102
159 103
159 108
159 121
159 194
159 207
159 271
159 330
159 353
159 361
159 384
159 403
160 0
160 1
160 41
160 50
160 102
160 104
160 111
160 151
160 180
160 384
161 0
161 1
161 2
161 3
161 4
161 5
161 18
161 26
161 32
161 33
161 34
161 35
161 37
161 38
161 43
161 62
161 109
161 112
161 119
161 128
161 148
161 155
161 194
161 239
161 275
161 293
161 333
162 0
162 1
162 2
162 3
162 5
162 6
162 9
162 29
162 38
162 43
162 46
162 55
162 60
162 63
162 76
162 93
162 107
162 109
162 115
162 117
162 118
162 151
162 152
162 153
162 164
162 172
162 214
162 251
162 259
162 290
162 292
162 366
163 0
163 1
163 2
163 3
163 4
163 5
163 13
163 15
163 16
163 43
163 49
163 80
163 82
163 85
163 94
163 103
163 105
163 107
163 148
163 166
163 185
163 189
163 197
163 208
163 210
163 239
163 274
163 276
163 288
163 309
163 314
163 331
163 332
163 352
163 365
163 367
163 373
163 384
163 401
163 402
164 0
164 1
164 2
164 3
164 4
164 5
164 6
164 7
164 9
164 10
164 16
164 25
164 29
164 30
164 36
164 51
164 55
164 60
164 73
164 95
164 107
164 110
164 115
164 118
164 122
164 133
164 135
164 142
164 151
164 154
164 156
164 162
164 165
164 180
164 187
164 190
164 197
164 200
164 201
164 204
164 206
164 211
164 224
164 243
164 251
164 259
164 272
164 273
164 281
164 288
164 293
164 294
164 295
164 296
164 299
164 307
164 308
164 333
164 341
164 345
164 350
164 366
164 367
164 373
164 376
165 0
165 1
165 2
165 3
165 4
165 6
165 8
165 10
165 18
165 24
165 35
165 36
165 41
165 45
165 51
165 62
165 65
165 70
165 75
165 92
165 119
165 129
165 136
165 143
165 148
165 151
165 164
165 180
165 189
165 190
165 207
165 216
165 248
165 257
165 271
165 367
165 384
165 402
165 407
165 408
166 0
166 1
166 2
166 3
166 4
166 8
166 38
166 43
166 55
166 58
166 84
166 110
166 125
166 134
166 163
166 231
166 289
166 309
166 332
166 365
166 371
167 0
167 1
167 2
167 3
167 4
167 5
167 7
167 14
167 18
167 30
167 33
167 57
167 70
167 105
167 107
167 110
167 117
167 120
167 127
167 185
167 281
167 288
167 304
167 365
167 367
167 369
167 393
168 0
168 1
169 0
169 1
169 2
169 3
169 4
169 5
169 9
169 21
169 55
169 96
169 99
169 104
169 107
169 125
169 133
169 157
169 178
169 179
169 197
169 198
169 217
169 234
169 306
169 373
170 0
170 1
170 2
170 3
170 4
170 41
170 43
170 68
170 100
170 103
170 105
170 107
170 139
170 180
170 203
170 217
170 233
170 248
170 259
170 296
170 299
170 306
170 337
170 353
170 384
171 0
171 1
171 2
171 3
171 4
171 5
171 6
171 8
171 22
171 30
171 37
171 41
171 55
171 88
171 95
171 103
171 105
171 107
171 150
171 185
171 189
171 194
171 197
171 202
171 207
171 208
171 217
171 220
171 288
171 291
171 309
171 354
171 360
172 0
172 1
172 2
172 3
172 4
172 6
172 29
172 39
172 43
172 49
172 51
172 55
172 59
172 60
172 63
172 66
172 68
172 103
172 105
172 115
172 118
172 148
172 157
172 162
172 185
172 203
172 206
172 213
172 214
172 216
172 236
172 243
172 248
172 254
172 255
172 260
172 262
172 282
172 293
172 298
172 317
172 320
172 403
173 0
173 1
173 2
173 3
173 5
173 67
173 316
174 0
174 1
174 2
174 4
174 5
174 41
174 52
174 110
174 212
174 271
174 276
174 391
175 1
176 0
176 1
176 2
176 3
176 4
176 6
176 9
176 19
176 27
176 43
176 103
176 105
176 110
176 115
176 177
176 178
176 185
176 196
176 207
176 222
176 293
176 300
176 304
176 309
176 370
176 393
176 395
177 0
177 1
177 2
177 3
177 4
177 8
177 10
177 23
177 28
177 30
177 38
177 45
177 75
177 89
177 103
177 105
177 107
177 110
177 122
177 132
177 176
177 180
177 185
177 189
177 213
177 271
177 339
177 384
178 0
178 1
178 2
178 3
178 4
178 5
178 7
178 8
178 17
178 18
178 19
178 24
178 27
178 29
178 37
178 38
178 41
178 45
178 52
178 63
178 69
178 75
178 77
178 88
178 96
178 105
178 110
178 112
178 125
178 132
178 133
178 134
178 144
178 148
178 149
178 157
178 169
178 176
178 185
178 192
178 197
178 206
178 233
178 244
178 248
178 256
178 272
178 287
178 301
178 304
178 333
178 335
178 349
178 358
178 401
179 0
179 1
179 2
179 3
179 4
179 25
179 31
179 45
179 49
179 71
179 110
179 115
179 148
179 169
179 180
179 189
179 217
179 224
179 351
179 384
179 407
180 0
180 1
180 2
180 3
180 4
180 5
180 6
180 8
180 9
180 10
180 11
180 19
180 23
180 28
180 33
180 34
180 35
180 36
180 38
180 41
180 49
180 54
180 55
180 61
180 68
180 70
180 76
180 80
180 84
180 85
180 86
180 88
180 89
180 91
180 95
180 97
180 99
180 100
180 102
180 103
180 105
180 107
180 110
180 111
180 113
180 115
180 117
180 118
180 121
180 122
180 129
180 131
180 132
180 136
180 145
180 148
180 151
180 154
180 156
180 160
180 164
180 165
180 170
180 177
180 179
180 181
180 184
180 185
180 188
180 190
180 192
180 194
180 197
180 204
180 207
180 208
180 210
180 213
180 217
180 218
180 222
180 224
180 226
180 227
180 236
180 240
180 244
180 248
180 253
180 264
180 271
180 273
180 274
180 279
180 281
180 283
180 286
180 288
180 292
180 293
180 295
180 296
180 304
180 305
180 315
180 323
180 329
180 334
180 338
180 339
180 341
180 345
180 348
180 358
180 359
180 367
180 378
180 381
180 384
180 390
180 391
180 401
180 408
180 409
181 0
181 1
181 2
181 3
181 32
181 34
181 36
181 64
181 94
181 105
181 112
181 116
181 145
181 180
181 185
181 193
181 197
181 209
181 219
181 232
181 233
181 254
181 272
181 360
181 378
181 384
181 391
182 0
182 1
182 2
182 3
182 4
182 5
182 6
182 7
182 14
182 20
182 25
182 31
182 33
182 34
182 55
182 56
182 57
182 68
182 73
182 79
182 87
182 94
182 95
182 110
182 120
182 126
182 128
182 130
182 138
182 140
182 185
182 189
182 197
182 200
182 206
182 207
182 208
182 217
182 223
182 236
182 273
182 279
182 287
182 288
182 290
182 292
182 305
182 337
182 340
182 350
182 391
182 399
183 0
183 1
183 2
183 3
183 4
183 5
183 8
183 38
183 49
183 80
183 107
183 115
183 150
183 183
183 248
183 274
183 329
183 350
183 378
184 0
184 1
184 2
184 3
184 4
184 5
184 25
184 27
184 36
184 37
184 49
184 55
184 56
184 86
184 90
184 93
184 100
184 102
184 105
184 116
184 128
184 151
184 180
184 184
184 186
184 189
184 197
184 200
184 207
184 209
184 210
184 212
184 213
184 219
184 232
184 240
184 241
184 242
184 259
184 268
184 269
184 305
184 318
184 344
184 353
184 356
184 361
184 384
184 391
184 407
185 0
185 1
185 2
185 3
185 4
185 5
185 6
185 7
185 8
185 14
185 17
185 18
185 20
185 22
185 23
185 24
185 26
185 27
185 28
185 29
185 31
185 33
185 34
185 35
185 36
185 37
185 38
185 41
185 43
185 45
185 46
185 49
185 51
185 55
185 56
185 59
185 60
185 61
185 62
185 64
185 66
185 68
185 70
185 73
185 74
185 75
185 80
185 85
185 90
185 92
185 94
185 96
185 97
185 101
185 103
185 104
185 105
185 107
185 110
185 114
185 115
185 116
185 118
185 122
185 127
185 128
185 130
185 132
185 135
185 136
185 138
185 139
185 141
185 143
185 145
185 150
185 151
185 153
185 154
185 156
185 163
185 167
185 171
185 172
185 176
185 177
185 178
185 180
185 181
185 182
185 185
185 189
185 190
185 192
185 194
185 195
185 197
185 198
185 207
185 209
185 210
185 212
185 214
185 217
185 218
185 219
185 220
185 222
185 223
185 224
185 226
185 235
185 236
185 239
185 240
185 243
185 247
185 255
185 259
185 262
185 273
185 283
185 287
185 288
185 289
185 291
185 293
185 294
185 295
185 301
185 311
185 315
185 317
185 318
185 326
185 327
185 329
185 333
185 337
185 339
185 340
185 344
185 348
185 350
185 353
185 366
185 370
185 371
185 373
185 375
185 384
185 391
185 402
186 1
186 2
186 3
186 4
186 54
186 93
186 101
186 105
186 157
186 184
186 192
186 248
186 407
187 0
187 1
187 2
187 3
187 4
187 6
187 9
187 26
187 34
187 67
187 103
187 110
187 115
187 138
187 156
187 164
187 206
187 207
187 220
187 223
187 225
187 228
187 248
187 278
187 292
187 327
187 340
187 359
187 391
187 403
188 0
188 1
188 2
188 3
188 4
188 5
188 7
188 8
188 10
188 12
188 19
188 25
188 29
188 39
188 61
188 64
188 73
188 86
188 103
188 105
188 107
188 110
188 115
188 122
188 128
188 148
188 151
188 180
188 196
188 197
188 207
188 210
188 211
188 217
188 236
188 248
188 274
188 294
188 299
188 306
188 316
188 324
188 337
188 340
188 343
188 348
188 355
188 364
188 399
189 0
189 1
189 2
189 3
189 4
189 5
189 6
189 8
189 9
189 14
189 17
189 19
189 23
189 25
189 26
189 35
189 36
189 39
189 41
189 43
189 49
189 52
189 54
189 85
189 105
189 106
189 107
189 113
189 114
189 121
189 122
189 126
189 129
189 133
189 135
189 136
189 156
189 158
189 163
189 165
189 171
189 177
189 179
189 182
189 184
189 185
189 189
189 190
189 192
189 194
189 197
189 212
189 226
189 237
189 246
189 248
189 252
189 254
189 257
189 260
189 264
189 272
189 286
189 290
189 301
189 303
189 309
189 313
189 323
189 326
189 332
189 340
189 344
189 356
189 357
189 367
189 376
189 384
189 396
189 400
190 0
190 1
190 2
190 3
190 4
190 5
190 6
190 10
190 11
190 25
190 26
190 28
190 29
190 32
190 34
190 36
190 38
190 49
190 51
190 55
190 59
190 68
190 73
190 81
190 83
190 84
190 87
190 90
190 91
190 94
190 95
190 97
190 103
190 105
190 107
190 110
190 120
190 126
190 130
190 132
190 133
190 137
190 140
190 148
190 151
190 152
190 164
190 165
190 180
190 185
190 189
190 190
190 192
190 202
190 206
190 207
190 208
190 209
190 212
190 213
190 214
190 220
190 233
190 236
190 242
190 244
190 248
190 253
190 257
190 259
190 260
190 262
190 272
190 288
190 289
190 296
190 315
190 319
190 320
190 325
190 330
190 332
190 333
190 337
190 340
190 342
190 350
190 359
190 369
190 373
190 381
190 384
190 390
190 391
190 405
191 0
191 1
191 2
191 3
191 4
191 6
191 41
191 88
191 211
191 256
191 331
192 0
192 1
192 2
192 3
192 4
192 5
192 8
192 9
192 10
192 14
192 17
192 18
192 19
192 22
192 23
192 24
192 28
192 33
192 35
192 36
192 43
192 45
192 52
192 57
192 58
192 67
192 68
192 75
192 85
192 89
192 90
192 96
192 103
192 105
192 109
192 112
192 118
192 121
192 122
192 139
192 143
192 144
192 145
192 149
192 157
192 178
192 180
192 185
192 186
192 189
192 190
192 192
192 196
192 197
192 207
192 208
192 217
192 223
192 226
192 236
192 242
192 244
192 245
192 275
192 277
192 281
192 282
192 288
192 323
192 325
192 333
192 348
192 352
192 361
192 367
192 373
192 407
193 1
193 2
193 3
193 4
193 15
193 35
193 36
193 85
193 181
193 239
193 302
193 337
193 340
194 0
194 1
194 2
194 3
194 4
194 5
194 6
194 7
194 8
194 9
194 10
194 11
194 14
194 18
194 19
194 28
194 30
194 33
194 35
194 62
194 80
194 92
194 103
194 105
194 107
194 109
194 110
194 144
194 149
194 159
194 161
194 171
194 180
194 185
194 189
194 197
194 208
194 226
194 248
194 257
194 278
194 282
194 288
194 291
194 323
194 347
194 357
194 370
194 384
194 387
195 0
195 1
195 2
195 3
195 5
195 12
195 21
195 36
195 43
195 60
195 103
195 114
195 136
195 151
195 185
195 196
195 203
195 207
195 212
195 217
195 221
195 228
195 242
195 248
195 265
195 287
195 296
195 306
195 371
195 384
196 0
196 1
196 2
196 3
196 4
196 6
196 7
196 8
196 15
196 24
196 29
196 30
196 33
196 36
196 39
196 55
196 61
196 62
196 68
196 77
196 105
196 107
196 131
196 134
196 136
196 137
196 138
196 143
196 149
196 157
196 176
196 188
196 192
196 195
196 197
196 203
196 206
196 207
196 224
196 244
196 258
196 266
196 276
196 320
196 366
196 367
196 370
196 386
196 408
197 0
197 1
197 2
197 3
197 4
197 5
197 6
197 7
197 8
197 11
197 18
197 19
197 22
197 28
197 32
197 34
197 35
197 36
197 37
197 43
197 45
197 46
197 49
197 55
197 57
197 73
197 75
197 78
197 80
197 81
197 87
197 92
197 93
197 100
197 102
197 103
197 105
197 107
197 110
197 112
197 114
197 115
197 119
197 120
197 128
197 133
197 138
197 146
197 148
197 155
197 157
197 163
197 164
197 169
197 171
197 178
197 180
197 181
197 182
197 184
197 185
197 188
197 189
197 192
197 194
197 196
197 197
197 204
197 205
197 206
197 207
197 208
197 217
197 220
197 230
197 236
197 237
197 243
197 244
197 246
197 248
197 250
197 252
197 257
197 273
197 277
197 282
197 292
197 293
197 296
197 300
197 301
197 305
197 312
197 315
197 332
197 336
197 340
197 355
197 359
197 369
197 374
197 384
197 391
197 393
198 0
198 1
198 2
198 3
198 4
198 5
198 10
198 12
198 36
198 49
198 55
198 96
198 101
198 103
198 105
198 107
198 110
198 114
198 127
198 140
198 149
198 153
198 169
198 185
198 209
198 238
198 262
198 376
199 0
199 1
199 2
199 3
199 4
199 43
199 58
199 66
199 217
199 224
199 329
200 0
200 1
200 2
200 3
200 4
200 5
200 9
200 20
200 45
200 52
200 73
200 84
200 111
200 118
200 164
200 182
200 184
200 207
200 208
200 266
200 288
200 344
200 350
200 384
200 397
201 0
201 1
201 2
201 3
201 5
201 9
201 49
201 51
201 54
201 74
201 103
201 105
201 118
201 157
201 164
201 203
201 207
201 254
201 294
201 316
201 368
202 0
202 1
202 2
202 3
202 5
202 6
202 55
202 67
202 100
202 107
202 110
202 136
202 155
202 171
202 190
202 273
202 288
203 0
203 1
203 2
203 3
203 4
203 9
203 10
203 15
203 36
203 38
203 41
203 49
203 54
203 65
203 66
203 67
203 68
203 72
203 81
203 96
203 100
203 102
203 105
203 107
203 116
203 118
203 120
203 124
203 133
203 149
203 151
203 153
203 157
203 170
203 172
203 195
203 196
203 201
203 203
203 208
203 223
203 230
203 248
203 249
203 250
203 254
203 255
203 258
203 259
203 281
203 282
203 288
203 290
203 293
203 294
203 299
203 312
203 314
203 316
203 334
203 363
203 378
203 380
203 381
203 384
203 388
203 389
204 0
204 1
204 2
204 3
204 5
204 140
204 152
204 164
204 180
204 197
204 224
204 230
204 254
204 292
205 0
205 1
205 2
205 3
205 43
205 52
205 197
205 207
205 227
205 338
205 340
205 363
206 0
206 1
206 2
206 3
206 4
206 6
206 10
206 30
206 37
206 43
206 49
206 51
206 54
206 55
206 74
206 98
206 99
206 105
206 112
206 115
206 117
206 128
206 129
206 149
206 153
206 164
206 172
206 178
206 182
206 187
206 190
206 196
206 197
206 216
206 248
206 254
206 260
206 262
206 273
206 276
206 309
206 320
206 327
206 337
206 338
206 355
206 384
206 394
207 0
207 1
207 2
207 3
207 4
207 5
207 6
207 7
207 8
207 9
207 10
207 11
207 12
207 17
207 20
207 21
207 23
207 24
207 25
207 28
207 29
207 30
207 32
207 33
207 34
207 35
207 36
207 38
207 40
207 41
207 43
207 49
207 52
207 55
207 61
207 62
207 65
207 68
207 69
207 71
207 72
207 73
207 74
207 79
207 85
207 86
207 89
207 90
207 93
207 97
207 100
207 102
207 103
207 105
207 107
207 109
207 110
207 115
207 122
207 123
207 124
207 129
207 130
207 133
207 136
207 141
207 142
207 148
207 154
207 155
207 157
207 159
207 165
207 171
207 176
207 180
207 182
207 184
207 185
207 187
207 188
207 190
207 192
207 195
207 196
207 197
207 200
207 201
207 205
207 207
207 209
207 211
207 214
207 216
207 217
207 220
207 224
207 228
207 236
207 245
207 248
207 249
207 251
207 256
207 261
207 262
207 271
207 273
207 276
207 278
207 280
207 281
207 282
207 288
207 289
207 293
207 296
207 308
207 326
207 327
207 337
207 340
207 345
207 346
207 350
207 358
207 366
207 383
207 384
207 391
207 393
207 398
207 399
207 401
207 402
207 403
207 405
208 0
208 1
208 2
208 3
208 4
208 5
208 8
208 9
208 16
208 17
208 20
208 22
208 25
208 31
208 33
208 41
208 43
208 55
208 58
208 75
208 84
208 85
208 91
208 94
208 95
208 101
208 103
208 106
208 107
208 110
208 117
208 119
208 120
208 126
208 146
208 150
208 154
208 155
208 163
208 171
208 180
208 182
208 190
208 192
208 194
208 197
208 200
208 203
208 223
208 226
208 286
208 287
208 304
208 305
208 315
208 340
208 345
208 347
208 348
208 353
208 355
208 369
208 384
208 391
208 395
209 0
209 1
209 2
209 3
209 4
209 5
209 6
209 7
209 23
209 29
209 30
209 31
209 35
209 36
209 66
209 73
209 74
209 97
209 100
209 115
209 132
209 181
209 184
209 185
209 190
209 198
209 207
209 212
209 217
209 218
209 224
209 238
209 246
209 265
209 269
209 288
209 338
209 382
209 384
209 391
209 397
210 0
210 1
210 2
210 3
210 4
210 12
210 15
210 54
210 73
210 85
210 86
210 100
210 105
210 107
210 112
210 116
210 121
210 130
210 131
210 133
210 144
210 163
210 180
210 184
210 185
210 188
210 248
210 288
210 361
210 375
210 384
211 0
211 1
211 2
211 66
211 149
211 152
211 164
211 188
211 191
211 207
211 221
211 331
211 391
212 0
212 1
212 2
212 3
212 4
212 8
212 27
212 36
212 41
212 47
212 51
212 55
212 68
212 71
212 79
212 81
212 91
212 103
212 105
212 110
212 116
212 151
212 174
212 184
212 185
212 189
212 190
212 195
212 209
212 212
212 259
212 268
212 269
212 317
212 321
212 327
212 328
212 384
212 401
213 0
213 1
213 2
213 3
213 4
213 5
213 8
213 14
213 15
213 24
213 25
213 32
213 34
213 55
213 61
213 63
213 103
213 105
213 109
213 114
213 115
213 116
213 172
213 177
213 180
213 184
213 190
213 213
213 218
213 248
213 304
213 305
213 333
213 367
213 369
213 387
213 403
214 0
214 1
214 2
214 3
214 4
214 6
214 7
214 29
214 37
214 41
214 43
214 51
214 55
214 98
214 117
214 136
214 142
214 143
214 162
214 172
214 185
214 190
214 207
214 233
214 251
214 273
214 282
214 409
215 0
215 1
215 2
215 3
215 4
215 5
215 6
215 7
215 8
215 15
215 18
215 31
215 33
215 57
215 61
215 62
215 88
215 91
215 107
215 115
215 136
215 217
215 271
215 295
216 0
216 1
216 2
216 3
216 5
216 12
216 37
216 49
216 55
216 66
216 69
216 73
216 82
216 107
216 110
216 115
216 133
216 165
216 172
216 206
216 207
216 227
216 248
216 254
216 260
216 275
216 314
216 338
216 359
216 384
217 0
217 1
217 2
217 3
217 4
217 5
217 6
217 7
217 9
217 19
217 20
217 21
217 25
217 34
217 41
217 43
217 49
217 51
217 52
217 55
217 58
217 61
217 66
217 68
217 78
217 79
217 81
217 92
217 100
217 101
217 102
217 103
217 105
217 110
217 114
217 115
217 119
217 122
217 128
217 134
217 135
217 136
217 148
217 150
217 151
217 153
217 169
217 170
217 171
217 179
217 180
217 182
217 185
217 188
217 192
217 195
217 197
217 199
217 207
217 209
217 215
217 218
217 220
217 224
217 228
217 243
217 244
217 250
217 255
217 256
217 257
217 262
217 265
217 272
217 280
217 284
217 287
217 288
217 292
217 293
217 295
217 299
217 302
217 306
217 320
217 341
217 360
217 383
217 384
217 394
217 397
217 403
218 0
218 1
218 2
218 3
218 4
218 5
218 6
218 13
218 18
218 23
218 38
218 45
218 91
218 103
218 105
218 107
218 112
218 122
218 141
218 154
218 180
218 185
218 209
218 213
218 217
218 244
218 272
218 275
218 301
218 318
218 340
218 344
219 0
219 1
219 2
219 3
219 21
219 36
219 37
219 50
219 51
219 55
219 74
219 83
219 100
219 103
219 105
219 112
219 181
219 184
219 185
219 219
219 273
219 298
219 310
219 361
219 391
219 404
220 0
220 1
220 2
220 3
220 4
220 5
220 7
220 36
220 38
220 101
220 103
220 107
220 110
220 144
220 171
220 185
220 187
220 190
220 197
220 207
220 217
220 220
220 242
220 248
220 290
220 312
220 324
220 330
220 372
220 384
220 403
221 0
221 1
221 2
221 3
221 4
221 29
221 41
221 142
221 195
221 211
221 287
221 327
221 340
221 366
221 386
222 0
222 1
222 2
222 3
222 4
222 6
222 8
222 10
222 19
222 27
222 38
222 45
222 77
222 103
222 123
222 126
222 151
222 156
222 176
222 180
222 185
222 237
222 252
222 286
222 304
222 339
222 342
222 351
223 0
223 1
223 2
223 3
223 4
223 5
223 29
223 33
223 37
223 51
223 95
223 109
223 110
223 115
223 121
223 132
223 143
223 182
223 185
223 187
223 192
223 203
223 208
223 226
223 239
223 271
223 272
223 293
223 295
223 329
223 333
223 371
223 378
223 384
223 403
224 0
224 1
224 2
224 3
224 4
224 10
224 35
224 37
224 41
224 43
224 45
224 49
224 66
224 71
224 78
224 97
224 101
224 103
224 105
224 110
224 115
224 124
224 136
224 138
224 151
224 164
224 179
224 180
224 185
224 196
224 199
224 204
224 207
224 209
224 217
224 231
224 233
224 237
224 246
224 248
224 263
224 269
224 296
224 320
224 334
224 339
224 340
224 351
224 353
224 365
224 368
224 384
224 391
225 0
225 1
225 2
225 3
225 4
225 70
225 92
225 115
225 143
225 187
226 0
226 1
226 2
226 3
226 5
226 6
226 17
226 33
226 35
226 43
226 89
226 103
226 105
226 107
226 112
226 117
226 132
226 134
226 180
226 185
226 189
226 192
226 194
226 208
226 223
226 244
226 278
226 287
226 300
226 323
226 384
226 395
227 0
227 1
227 2
227 4
227 55
227 69
227 97
227 105
227 133
227 135
227 136
227 155
227 180
227 205
227 216
227 292
227 294
227 322
227 328
227 403
228 0
228 1
228 2
228 3
228 4
228 43
228 68
228 103
228 105
228 112
228 115
228 133
228 137
228 140
228 187
228 195
228 207
228 217
228 236
228 242
228 287
229 0
229 1
229 2
229 3
229 4
229 5
229 41
229 105
229 112
229 121
229 340
229 384
229 404
230 0
230 1
230 2
230 3
230 4
230 5
230 6
230 9
230 67
230 69
230 100
230 115
230 139
230 157
230 197
230 203
230 204
230 274
231 0
231 1
231 2
231 3
231 4
231 10
231 14
231 27
231 41
231 55
231 77
231 95
231 121
231 166
231 224
231 309
231 332
231 334
231 339
231 345
231 380
232 0
232 1
232 2
232 100
232 181
232 184
232 232
233 0
233 1
233 2
233 3
233 4
233 5
233 6
233 7
233 55
233 60
233 67
233 76
233 103
233 112
233 115
233 152
233 157
233 170
233 178
233 181
233 190
233 214
233 224
233 236
233 238
233 320
233 359
233 389
233 394
234 0
234 1
234 2
234 3
234 5
234 65
234 78
234 107
234 115
234 151
234 157
234 169
234 245
234 291
234 306
234 325
234 373
235 0
235 1
235 2
235 3
235 49
235 185
236 0
236 1
236 2
236 3
236 4
236 5
236 6
236 9
236 21
236 23
236 24
236 27
236 28
236 29
236 36
236 38
236 41
236 43
236 52
236 54
236 55
236 79
236 103
236 105
236 110
236 114
236 116
236 132
236 133
236 136
236 137
236 142
236 149
236 152
236 172
236 180
236 182
236 185
236 188
236 190
236 192
236 197
236 207
236 228
236 233
236 252
236 271
236 274
236 281
236 289
236 290
236 309
236 331
236 337
236 344
236 353
236 356
236 370
236 384
236 405
237 0
237 1
237 2
237 5
237 6
237 30
237 43
237 55
237 77
237 103
237 105
237 107
237 117
237 134
237 154
237 189
237 197
237 222
237 224
237 244
237 277
237 315
237 323
237 352
237 372
237 373
237 403
238 0
238 1
238 2
238 5
238 15
238 29
238 55
238 73
238 83
238 89
238 103
238 110
238 115
238 198
238 209
238 233
238 250
238 251
238 271
238 292
238 294
238 328
238 348
238 359
239 0
239 1
239 2
239 3
239 4
239 8
239 36
239 38
239 96
239 110
239 148
239 161
239 163
239 185
239 193
239 223
239 239
239 248
239 252
239 274
239 343
239 372
239 384
240 0
240 1
240 2
240 3
240 6
240 11
240 13
240 40
240 90
240 107
240 119
240 121
240 150
240 180
240 184
240 185
240 304
240 340
240 352
240 365
240 366
240 384
240 391
241 0
241 1
241 2
241 6
241 11
241 20
241 33
241 110
241 155
241 184
241 248
241 312
242 0
242 1
242 2
242 3
242 4
242 5
242 7
242 21
242 41
242 43
242 66
242 103
242 105
242 110
242 115
242 131
242 133
242 142
242 148
242 151
242 158
242 184
242 190
242 192
242 195
242 220
242 228
242 265
242 299
242 302
242 307
242 308
242 340
242 350
242 353
242 361
242 403
243 0
243 1
243 2
243 3
243 4
243 6
243 7
243 13
243 36
243 43
243 47
243 55
243 86
243 103
243 105
243 107
243 110
243 119
243 120
243 129
243 148
243 151
243 164
243 172
243 185
243 197
243 217
243 248
243 259
243 260
243 272
243 283
243 289
243 292
243 293
243 296
243 329
243 334
243 353
243 366
243 368
243 384
243 403
244 0
244 1
244 2
244 3
244 4
244 5
244 10
244 19
244 22
244 24
244 25
244 27
244 28
244 35
244 58
244 109
244 115
244 117
244 122
244 134
244 141
244 144
244 154
244 178
244 180
244 190
244 192
244 196
244 197
244 217
244 218
244 226
244 237
244 248
244 273
244 277
244 288
244 333
244 348
244 373
244 391
245 0
245 1
245 2
245 3
245 4
245 36
245 49
245 55
245 66
245 68
245 96
245 105
245 133
245 139
245 192
245 207
245 234
245 259
245 272
245 325
245 334
246 0
246 1
246 2
246 3
246 4
246 35
246 36
246 74
246 133
246 189
246 197
246 209
246 224
246 257
246 384
246 405
247 0
247 1
247 2
247 3
247 4
247 6
247 11
247 23
247 26
247 33
247 154
247 185
247 248
247 275
247 278
247 284
247 311
247 345
247 384
247 395
247 403
248 0
248 1
248 2
248 3
248 4
248 5
248 6
248 8
248 10
248 13
248 15
248 16
248 19
248 20
248 21
248 29
248 38
248 41
248 43
248 45
248 52
248 55
248 58
248 66
248 71
248 73
248 76
248 87
248 100
248 103
248 112
248 115
248 119
248 122
248 132
248 144
248 146
248 147
248 151
248 158
248 165
248 170
248 172
248 178
248 180
248 183
248 186
248 187
248 188
248 189
248 190
248 194
248 195
248 197
248 203
248 206
248 207
248 210
248 213
248 216
248 220
248 224
248 239
248 241
248 243
248 244
248 247
248 249
248 257
248 260
248 266
248 273
248 274
248 278
248 282
248 286
248 288
248 290
248 293
248 296
248 306
248 309
248 312
248 322
248 325
248 329
248 332
248 333
248 338
248 340
248 349
248 356
248 363
248 384
248 398
248 404
249 0
249 1
249 2
249 3
249 4
249 41
249 49
249 105
249 124
249 136
249 153
249 203
249 207
249 248
249 332
249 337
250 0
250 1
250 2
250 3
250 4
250 5
250 7
250 21
250 68
250 96
250 100
250 111
250 134
250 143
250 153
250 197
250 203
250 217
250 238
250 275
251 0
251 1
251 2
251 5
251 13
251 41
251 43
251 49
251 68
251 103
251 116
251 117
251 162
251 164
251 207
251 214
251 238
251 274
251 278
251 328
251 331
251 394
252 0
252 1
252 2
252 3
252 4
252 5
252 9
252 28
252 36
252 38
252 45
252 55
252 77
252 138
252 189
252 197
252 222
252 236
252 239
252 304
252 339
253 0
253 1
253 2
253 3
253 4
253 5
253 6
253 9
253 13
253 16
253 32
253 65
253 95
253 103
253 107
253 122
253 180
253 190
253 264
253 271
253 329
253 340
253 367
253 378
254 0
254 1
254 2
254 3
254 5
254 29
254 41
254 49
254 65
254 67
254 86
254 105
254 107
254 119
254 143
254 157
254 172
254 181
254 189
254 201
254 203
254 204
254 206
254 216
254 273
254 316
254 338
254 366
255 0
255 1
255 2
255 9
255 10
255 29
255 38
255 54
255 69
255 105
255 112
255 172
255 185
255 203
255 217
255 283
255 293
255 296
255 350
255 388
256 0
256 1
256 2
256 3
256 29
256 43
256 47
256 51
256 54
256 60
256 103
256 105
256 129
256 139
256 178
256 191
256 207
256 217
256 261
256 281
256 293
256 314
256 317
256 337
256 384
256 395
257 0
257 1
257 2
257 3
257 4
257 5
257 6
257 10
257 47
257 75
257 107
257 112
257 143
257 144
257 165
257 189
257 190
257 194
257 197
257 217
257 246
257 248
257 268
257 281
257 300
257 323
257 345
257 373
258 0
258 1
258 2
258 3
258 6
258 12
258 41
258 55
258 64
258 78
258 110
258 196
258 203
258 280
258 293
258 296
259 0
259 1
259 2
259 3
259 4
259 5
259 9
259 43
259 54
259 55
259 101
259 103
259 105
259 107
259 115
259 117
259 136
259 142
259 143
259 153
259 154
259 162
259 164
259 170
259 184
259 185
259 190
259 203
259 212
259 243
259 245
259 273
259 282
259 293
259 307
259 341
259 350
259 381
259 382
259 409
260 0
260 1
260 2
260 3
260 37
260 66
260 84
260 105
260 107
260 110
260 128
260 148
260 153
260 172
260 189
260 190
260 206
260 216
260 243
260 248
260 264
260 276
260 288
260 289
260 376
261 0
261 1
261 2
261 4
261 49
261 103
261 115
261 151
261 207
261 256
261 265
261 274
261 281
261 293
261 308
261 364
261 391
262 0
262 1
262 2
262 3
262 49
262 64
262 68
262 78
262 100
262 110
262 128
262 148
262 157
262 172
262 185
262 190
262 198
262 206
262 207
262 217
262 289
262 307
262 308
262 376
262 382
263 0
263 1
263 2
263 3
263 4
263 105
263 151
263 224
263 287
264 0
264 1
264 2
264 3
264 4
264 8
264 35
264 65
264 73
264 88
264 91
264 103
264 105
264 110
264 127
264 140
264 153
264 180
264 189
264 253
264 260
264 347
264 384
265 0
265 1
265 2
265 3
265 4
265 5
265 6
265 9
265 29
265 31
265 41
265 49
265 66
265 100
265 103
265 110
265 134
265 140
265 149
265 152
265 158
265 195
265 209
265 217
265 242
265 261
265 271
265 341
266 0
266 1
266 2
266 3
266 4
266 66
266 76
266 119
266 148
266 196
266 200
266 248
266 288
267 0
267 1
267 2
267 3
267 4
267 5
267 55
267 73
267 81
267 145
268 2
268 3
268 8
268 23
268 30
268 55
268 105
268 110
268 116
268 184
268 212
268 257
268 373
268 384
269 0
269 1
269 2
269 3
269 5
269 103
269 105
269 184
269 209
269 212
269 224
269 307
270 0
270 1
270 2
270 3
270 4
270 5
270 6
270 7
270 17
270 19
270 36
270 41
270 57
270 105
270 107
270 132
270 142
270 330
270 332
270 340
270 343
270 351
270 369
270 397
271 0
271 1
271 2
271 3
271 4
271 5
271 6
271 27
271 31
271 41
271 43
271 50
271 62
271 88
271 94
271 102
271 103
271 105
271 110
271 122
271 128
271 134
271 154
271 159
271 165
271 174
271 177
271 180
271 207
271 215
271 223
271 236
271 238
271 253
271 265
271 278
271 281
271 287
271 327
271 332
271 353
271 364
272 0
272 1
272 2
272 3
272 4
272 7
272 10
272 21
272 29
272 31
272 32
272 52
272 55
272 71
272 73
272 77
272 81
272 85
272 91
272 103
272 107
272 110
272 115
272 116
272 128
272 132
272 136
272 157
272 164
272 178
272 181
272 189
272 190
272 217
272 218
272 223
272 243
272 245
272 273
272 288
272 289
272 312
272 321
272 332
272 334
272 384
272 397
273 0
273 1
273 2
273 3
273 4
273 5
273 6
273 7
273 13
273 20
273 26
273 27
273 28
273 30
273 32
273 35
273 41
273 43
273 45
273 49
273 54
273 55
273 59
273 67
273 68
273 72
273 73
273 74
273 80
273 88
273 95
273 96
273 98
273 103
273 105
273 107
273 110
273 112
273 126
273 129
273 138
273 147
273 151
273 156
273 164
273 180
273 182
273 185
273 197
273 202
273 206
273 207
273 214
273 219
273 244
273 248
273 254
273 259
273 272
273 280
273 287
273 310
273 329
273 332
273 342
273 347
273 365
273 367
273 391
274 0
274 1
274 2
274 3
274 4
274 5
274 11
274 29
274 36
274 37
274 39
274 45
274 55
274 57
274 68
274 69
274 70
274 73
274 76
274 100
274 103
274 105
274 110
274 115
274 132
274 133
274 147
274 149
274 163
274 180
274 183
274 188
274 230
274 236
274 239
274 248
274 251
274 261
274 295
274 366
274 367
275 0
275 1
275 2
275 3
275 4
275 5
275 6
275 7
275 10
275 17
275 19
275 25
275 28
275 33
275 38
275 49
275 55
275 68
275 89
275 100
275 103
275 107
275 132
275 136
275 145
275 154
275 161
275 192
275 216
275 218
275 247
275 250
275 301
275 324
275 355
275 371
275 378
276 0
276 1
276 2
276 3
276 4
276 47
276 64
276 92
276 101
276 105
276 112
276 116
276 142
276 149
276 163
276 174
276 196
276 206
276 207
276 260
276 317
276 320
276 386
277 0
277 1
277 2
277 3
277 4
277 10
277 11
277 20
277 22
277 27
277 35
277 57
277 75
277 95
277 103
277 112
277 122
277 145
277 192
277 197
277 237
277 244
277 288
277 332
277 340
277 384
278 0
278 1
278 2
278 3
278 23
278 28
278 36
278 66
278 67
278 86
278 103
278 105
278 110
278 132
278 187
278 194
278 207
278 226
278 247
278 248
278 251
278 271
278 326
278 390
279 0
279 1
279 3
279 13
279 31
279 149
279 180
279 182
279 345
280 0
280 1
280 3
280 4
280 34
280 41
280 43
280 49
280 65
280 88
280 123
280 207
280 217
280 258
280 273
280 280
280 281
280 282
280 290
280 315
280 319
280 327
280 381
280 382
280 395
281 0
281 1
281 2
281 3
281 4
281 5
281 6
281 9
281 19
281 21
281 23
281 27
281 33
281 41
281 51
281 52
281 73
281 99
281 105
281 110
281 112
281 114
281 117
281 146
281 148
281 164
281 167
281 180
281 192
281 203
281 207
281 236
281 256
281 257
281 261
281 271
281 280
281 323
281 327
281 358
281 368
282 0
282 1
282 2
282 3
282 4
282 5
282 18
282 30
282 36
282 55
282 59
282 67
282 87
282 90
282 92
282 95
282 103
282 107
282 110
282 136
282 149
282 172
282 192
282 194
282 197
282 203
282 207
282 214
282 248
282 259
282 280
282 287
282 288
283 0
283 1
283 2
283 3
283 4
283 5
283 6
283 38
283 80
283 82
283 91
283 97
283 100
283 105
283 110
283 126
283 151
283 180
283 185
283 243
283 255
283 354
283 368
284 0
284 1
284 3
284 4
284 5
284 7
284 74
284 80
284 87
284 96
284 103
284 217
284 247
284 288
284 318
284 383
284 398
285 1
285 3
285 8
285 136
285 150
285 312
285 332
286 0
286 1
286 2
286 3
286 4
286 5
286 7
286 36
286 88
286 138
286 180
286 189
286 208
286 222
286 248
286 304
286 351
287 0
287 1
287 2
287 3
287 4
287 6
287 8
287 10
287 17
287 21
287 29
287 31
287 32
287 37
287 41
287 43
287 46
287 55
287 57
287 60
287 74
287 87
287 90
287 105
287 110
287 112
287 115
287 122
287 139
287 141
287 148
287 151
287 156
287 178
287 182
287 185
287 195
287 208
287 217
287 221
287 226
287 228
287 263
287 271
287 273
287 282
287 292
287 296
287 302
287 318
287 326
287 329
287 332
287 333
287 340
287 358
287 363
287 373
287 391
287 404
288 0
288 1
288 2
288 3
288 4
288 5
288 6
288 7
288 8
288 13
288 15
288 20
288 25
288 26
288 27
288 29
288 30
288 31
288 34
288 35
288 40
288 49
288 55
288 58
288 69
288 70
288 77
288 80
288 84
288 88
288 95
288 101
288 103
288 107
288 110
288 112
288 121
288 123
288 132
288 138
288 139
288 141
288 142
288 151
288 153
288 163
288 164
288 167
288 171
288 180
288 182
288 185
288 190
288 192
288 194
288 200
288 202
288 203
288 207
288 209
288 210
288 217
288 244
288 248
288 260
288 266
288 272
288 277
288 282
288 284
288 315
288 332
288 340
288 355
288 363
288 370
288 376
288 378
288 403
289 0
289 1
289 2
289 3
289 4
289 9
289 29
289 33
289 36
289 49
289 63
289 74
289 84
289 86
289 103
289 115
289 119
289 122
289 128
289 134
289 147
289 149
289 153
289 166
289 185
289 190
289 207
289 236
289 243
289 260
289 262
289 272
289 328
289 331
289 356
290 0
290 1
290 2
290 3
290 4
290 5
290 6
290 51
290 73
290 100
290 103
290 107
290 110
290 122
290 162
290 182
290 189
290 203
290 220
290 236
290 248
290 280
290 365
291 0
291 1
291 2
291 3
291 4
291 5
291 7
291 11
291 16
291 22
291 27
291 69
291 88
291 91
291 103
291 109
291 121
291 171
291 185
291 194
291 234
291 339
291 373
291 374
292 0
292 1
292 2
292 3
292 4
292 7
292 37
292 41
292 71
292 93
292 103
292 105
292 114
292 157
292 162
292 180
292 182
292 187
292 197
292 204
292 217
292 227
292 238
292 243
292 287
292 307
292 332
292 384
293 0
293 1
293 2
293 3
293 4
293 5
293 10
293 20
293 40
293 41
293 43
293 49
293 52
293 63
293 95
293 96
293 102
293 112
293 118
293 134
293 135
293 140
293 152
293 157
293 161
293 164
293 172
293 176
293 180
293 185
293 197
293 203
293 207
293 217
293 223
293 243
293 248
293 255
293 256
293 258
293 259
293 261
293 305
293 307
293 322
293 323
293 328
293 334
293 340
293 375
293 384
293 401
294 0
294 1
294 2
294 3
294 4
294 10
294 46
294 103
294 110
294 115
294 157
294 164
294 185
294 188
294 201
294 203
294 227
294 238
294 316
295 0
295 1
295 2
295 3
295 4
295 5
295 6
295 8
295 36
295 57
295 68
295 95
295 109
295 121
295 145
295 164
295 180
295 185
295 215
295 217
295 223
295 274
295 332
295 403
296 0
296 1
296 2
296 3
296 4
296 5
296 6
296 21
296 38
296 43
296 49
296 51
296 67
296 68
296 81
296 86
296 103
296 117
296 133
296 140
296 164
296 170
296 180
296 190
296 195
296 197
296 207
296 224
296 243
296 248
296 255
296 258
296 287
296 341
296 381
297 3
298 0
298 1
298 2
298 3
298 7
298 41
298 152
298 172
298 219
298 384
299 0
299 1
299 2
299 3
299 4
299 5
299 110
299 152
299 164
299 170
299 188
299 203
299 217
299 242
300 0
300 1
300 2
300 3
300 4
300 6
300 7
300 8
300 18
300 19
300 20
300 57
300 75
300 107
300 176
300 197
300 226
300 257
300 304
300 332
301 0
301 1
301 2
301 3
301 4
301 23
301 24
301 28
301 31
301 38
301 41
301 45
301 72
301 100
301 107
301 112
301 114
301 122
301 178
301 185
301 189
301 197
301 218
301 275
301 343
302 0
302 1
302 2
302 3
302 4
302 35
302 43
302 193
302 217
302 242
302 287
302 302
303 0
303 1
303 2
303 3
303 4
303 7
303 34
303 36
303 45
303 87
303 103
303 116
303 142
303 189
303 326
303 332
304 0
304 1
304 2
304 3
304 4
304 5
304 10
304 25
304 28
304 43
304 45
304 57
304 70
304 103
304 108
304 122
304 141
304 151
304 156
304 167
304 176
304 178
304 180
304 208
304 213
304 222
304 240
304 252
304 286
304 300
304 333
304 344
304 365
305 0
305 1
305 2
305 3
305 4
305 6
305 8
305 14
305 15
305 16
305 36
305 43
305 61
305 95
305 107
305 109
305 110
305 117
305 128
305 148
305 180
305 182
305 184
305 197
305 208
305 213
305 293
305 361
306 0
306 1
306 2
306 3
306 4
306 5
306 12
306 36
306 43
306 49
306 82
306 85
306 96
306 119
306 136
306 139
306 151
306 152
306 169
306 170
306 188
306 195
306 217
306 234
306 248
306 308
306 339
306 407
306 408
307 0
307 1
307 2
307 3
307 4
307 5
307 41
307 107
307 164
307 242
307 259
307 262
307 269
307 292
307 293
307 386
307 391
308 0
308 1
308 2
308 3
308 4
308 9
308 29
308 107
308 112
308 115
308 142
308 164
308 207
308 242
308 261
308 262
308 306
308 320
309 0
309 1
309 2
309 3
309 4
309 7
309 8
309 29
309 30
309 35
309 49
309 55
309 87
309 88
309 92
309 103
309 110
309 125
309 126
309 163
309 166
309 171
309 176
309 189
309 206
309 231
309 236
309 248
309 314
309 334
309 347
309 350
309 360
309 384
310 0
310 1
310 2
310 3
310 4
310 5
310 12
310 73
310 75
310 92
310 103
310 110
310 122
310 138
310 156
310 219
310 273
310 400
311 0
311 1
311 2
311 3
311 6
311 19
311 107
311 114
311 133
311 145
311 185
311 247
311 403
312 0
312 1
312 2
312 3
312 5
312 29
312 35
312 36
312 107
312 131
312 136
312 144
312 150
312 152
312 197
312 203
312 220
312 241
312 248
312 272
312 285
313 1
313 3
313 36
313 75
313 110
313 189
313 369
314 0
314 1
314 2
314 3
314 4
314 6
314 22
314 87
314 105
314 116
314 150
314 163
314 203
314 216
314 256
314 309
314 391
315 0
315 1
315 2
315 3
315 4
315 5
315 20
315 26
315 70
315 103
315 107
315 154
315 180
315 185
315 190
315 197
315 208
315 237
315 280
315 288
315 315
315 384
315 393
316 0
316 1
316 3
316 4
316 49
316 64
316 86
316 103
316 115
316 130
316 140
316 157
316 173
316 188
316 201
316 203
316 254
316 294
316 384
316 386
316 389
317 0
317 1
317 2
317 3
317 5
317 36
317 41
317 47
317 51
317 96
317 105
317 117
317 136
317 137
317 151
317 153
317 172
317 185
317 212
317 256
317 276
317 384
317 395
318 1
318 2
318 3
318 4
318 5
318 6
318 23
318 28
318 68
318 96
318 101
318 105
318 115
318 123
318 126
318 139
318 156
318 184
318 185
318 218
318 284
318 287
318 340
318 390
319 0
319 1
319 3
319 126
319 190
319 280
320 0
320 1
320 2
320 3
320 4
320 5
320 41
320 76
320 105
320 115
320 124
320 125
320 153
320 155
320 172
320 190
320 196
320 206
320 217
320 224
320 233
320 276
320 308
320 396
321 0
321 1
321 2
321 3
321 6
321 55
321 65
321 103
321 104
321 110
321 115
321 127
321 212
321 272
321 325
321 391
322 0
322 1
322 2
322 3
322 43
322 55
322 63
322 73
322 103
322 117
322 155
322 227
322 248
322 293
322 350
323 2
323 3
323 4
323 7
323 10
323 13
323 14
323 28
323 33
323 41
323 45
323 49
323 117
323 132
323 146
323 180
323 189
323 192
323 194
323 226
323 237
323 257
323 281
323 293
323 333
323 340
323 349
323 367
323 379
324 0
324 1
324 2
324 3
324 4
324 5
324 19
324 23
324 62
324 103
324 107
324 117
324 132
324 145
324 188
324 220
324 275
324 332
324 340
324 369
325 0
325 1
325 2
325 3
325 5
325 28
325 29
325 36
325 38
325 49
325 69
325 80
325 92
325 107
325 119
325 127
325 190
325 192
325 234
325 245
325 248
325 321
325 329
326 0
326 1
326 2
326 3
326 17
326 22
326 73
326 103
326 143
326 185
326 189
326 207
326 278
326 287
326 303
326 333
326 345
326 352
327 0
327 1
327 2
327 3
327 4
327 31
327 34
327 38
327 43
327 49
327 53
327 103
327 117
327 132
327 152
327 155
327 185
327 187
327 206
327 207
327 212
327 221
327 271
327 280
327 281
327 351
327 408
328 0
328 1
328 2
328 3
328 4
328 55
328 103
328 212
328 227
328 238
328 251
328 289
328 293
328 337
328 384
329 0
329 1
329 2
329 3
329 4
329 5
329 10
329 11
329 36
329 41
329 55
329 58
329 84
329 95
329 99
329 103
329 105
329 108
329 110
329 116
329 127
329 142
329 151
329 180
329 183
329 185
329 199
329 223
329 243
329 248
329 253
329 273
329 287
329 325
329 329
329 334
329 353
329 356
329 358
329 384
329 398
329 407
330 0
330 1
330 2
330 3
330 4
330 6
330 68
330 75
330 159
330 190
330 220
330 270
331 0
331 1
331 2
331 3
331 4
331 13
331 60
331 92
331 93
331 117
331 119
331 163
331 191
331 211
331 236
331 251
331 289
332 0
332 1
332 2
332 3
332 4
332 7
332 20
332 36
332 38
332 43
332 74
332 86
332 87
332 101
332 105
332 107
332 110
332 116
332 158
332 163
332 166
332 189
332 190
332 197
332 231
332 248
332 249
332 270
332 271
332 272
332 273
332 277
332 285
332 287
332 288
332 292
332 295
332 300
332 303
332 324
332 351
332 365
332 386
332 403
333 0
333 1
333 2
333 3
333 4
333 5
333 33
333 45
333 75
333 107
333 122
333 132
333 145
333 161
333 164
333 178
333 185
333 190
333 192
333 213
333 223
333 244
333 248
333 287
333 304
333 323
333 326
333 360
333 370
333 371
334 0
334 1
334 3
334 4
334 38
334 67
334 69
334 77
334 88
334 100
334 180
334 203
334 224
334 231
334 243
334 245
334 272
334 293
334 309
334 329
334 368
334 388
335 0
335 2
335 3
335 4
335 5
335 8
335 178
336 0
336 1
336 2
336 3
336 4
336 95
336 141
336 197
336 374
336 379
336 382
336 384
337 0
337 1
337 2
337 3
337 4
337 5
337 12
337 17
337 29
337 36
337 38
337 41
337 43
337 55
337 66
337 73
337 74
337 103
337 107
337 110
337 144
337 157
337 170
337 182
337 185
337 188
337 190
337 193
337 206
337 207
337 236
337 249
337 256
337 328
337 337
337 340
337 343
337 355
337 372
337 407
338 0
338 1
338 2
338 3
338 4
338 49
338 51
338 147
338 151
338 180
338 205
338 206
338 209
338 216
338 248
338 254
338 384
338 391
339 0
339 1
339 2
339 3
339 4
339 27
339 28
339 45
339 49
339 77
339 105
339 177
339 180
339 185
339 222
339 224
339 231
339 252
339 291
339 306
339 402
340 0
340 1
340 2
340 3
340 4
340 5
340 6
340 7
340 8
340 14
340 18
340 20
340 36
340 45
340 55
340 57
340 59
340 62
340 65
340 70
340 72
340 77
340 93
340 105
340 110
340 112
340 115
340 120
340 122
340 132
340 136
340 156
340 182
340 185
340 187
340 188
340 189
340 190
340 193
340 197
340 205
340 207
340 208
340 218
340 221
340 224
340 229
340 240
340 242
340 248
340 253
340 270
340 277
340 287
340 288
340 293
340 318
340 323
340 324
340 337
340 343
340 345
340 351
340 367
340 370
340 390
341 0
341 1
341 2
341 3
341 4
341 5
341 46
341 51
341 66
341 67
341 73
341 79
341 86
341 97
341 103
341 153
341 164
341 180
341 217
341 259
341 265
341 296
341 358
341 409
342 0
342 1
342 2
342 4
342 5
342 6
342 11
342 18
342 20
342 26
342 27
342 36
342 50
342 89
342 105
342 110
342 140
342 190
342 222
342 273
342 365
342 372
342 387
343 0
343 1
343 2
343 3
343 4
343 5
343 6
343 10
343 17
343 23
343 28
343 55
343 61
343 62
343 77
343 91
343 95
343 115
343 122
343 123
343 138
343 188
343 239
343 270
343 301
343 337
343 340
343 365
344 0
344 1
344 2
344 3
344 4
344 6
344 19
344 28
344 45
344 73
344 91
344 105
344 143
344 184
344 185
344 189
344 200
344 218
344 236
344 304
344 367
344 370
344 373
345 0
345 1
345 2
345 3
345 4
345 5
345 23
345 38
345 45
345 103
345 107
345 110
345 120
345 132
345 143
345 164
345 180
345 207
345 208
345 231
345 247
345 257
345 279
345 326
345 340
345 370
346 0
346 1
346 2
346 4
346 49
346 72
346 145
346 151
346 207
347 0
347 1
347 2
347 3
347 4
347 5
347 10
347 18
347 55
347 57
347 58
347 194
347 208
347 264
347 273
347 309
348 0
348 1
348 2
348 3
348 4
348 5
348 6
348 8
348 14
348 19
348 27
348 28
348 45
348 71
348 100
348 103
348 110
348 121
348 154
348 180
348 185
348 188
348 192
348 208
348 238
348 244
348 352
348 384
348 391
349 1
349 2
349 3
349 4
349 5
349 8
349 24
349 28
349 45
349 61
349 75
349 144
349 178
349 248
349 323
349 373
350 0
350 1
350 2
350 3
350 4
350 6
350 11
350 17
350 34
350 35
350 36
350 43
350 59
350 63
350 67
350 68
350 76
350 78
350 84
350 95
350 98
350 119
350 121
350 133
350 136
350 149
350 153
350 164
350 182
350 183
350 185
350 190
350 200
350 207
350 242
350 255
350 259
350 309
350 322
350 360
351 0
351 1
351 3
351 4
351 6
351 8
351 27
351 49
351 91
351 115
351 179
351 222
351 224
351 270
351 286
351 327
351 332
351 340
351 399
351 401
352 0
352 1
352 2
352 3
352 4
352 5
352 7
352 11
352 20
352 22
352 30
352 58
352 73
352 122
352 154
352 163
352 192
352 237
352 240
352 326
352 348
353 0
353 1
353 2
353 3
353 4
353 5
353 6
353 12
353 21
353 22
353 46
353 49
353 67
353 73
353 103
353 107
353 117
353 122
353 134
353 135
353 153
353 157
353 159
353 170
353 184
353 185
353 208
353 224
353 236
353 242
353 243
353 271
353 329
353 381
353 384
353 409
354 1
354 2
354 4
354 41
354 46
354 55
354 67
354 101
354 107
354 171
354 283
355 0
355 1
355 2
355 3
355 4
355 5
355 6
355 8
355 12
355 28
355 34
355 36
355 41
355 43
355 49
355 73
355 75
355 109
355 128
355 133
355 188
355 197
355 206
355 208
355 275
355 288
355 337
355 409
356 0
356 1
356 2
356 3
356 4
356 6
356 16
356 36
356 38
356 43
356 51
356 84
356 87
356 110
356 121
356 184
356 189
356 236
356 248
356 289
356 329
357 0
357 1
357 2
357 3
357 4
357 5
357 34
357 55
357 73
357 121
357 189
357 194
357 384
358 0
358 1
358 2
358 3
358 4
358 5
358 43
358 90
358 93
358 158
358 178
358 180
358 207
358 281
358 287
358 329
358 341
358 384
359 0
359 1
359 2
359 4
359 5
359 93
359 115
359 143
359 180
359 187
359 190
359 197
359 216
359 233
359 238
359 384
360 0
360 1
360 2
360 3
360 4
360 5
360 8
360 18
360 22
360 38
360 87
360 108
360 115
360 154
360 171
360 181
360 217
360 309
360 333
360 350
360 384
360 391
361 0
361 1
361 2
361 3
361 4
361 6
361 32
361 36
361 156
361 159
361 184
361 192
361 210
361 219
361 242
361 305
362 0
362 1
362 2
362 4
362 41
362 105
363 0
363 1
363 2
363 3
363 4
363 21
363 29
363 55
363 66
363 67
363 100
363 143
363 157
363 203
363 205
363 248
363 287
363 288
364 0
364 1
364 2
364 3
364 4
364 5
364 41
364 43
364 49
364 66
364 100
364 105
364 188
364 261
364 271
365 0
365 1
365 2
365 3
365 4
365 5
365 30
365 33
365 41
365 62
365 84
365 95
365 107
365 110
365 112
365 122
365 163
365 166
365 167
365 224
365 240
365 273
365 290
365 304
365 332
365 342
365 343
365 370
366 0
366 1
366 2
366 3
366 4
366 5
366 10
366 21
366 38
366 46
366 49
366 73
366 76
366 83
366 100
366 102
366 103
366 105
366 110
366 115
366 157
366 162
366 164
366 185
366 196
366 207
366 221
366 240
366 243
366 254
366 274
366 368
366 376
366 384
366 386
367 0
367 1
367 2
367 3
367 4
367 5
367 7
367 8
367 10
367 12
367 13
367 14
367 19
367 25
367 30
367 31
367 45
367 47
367 57
367 58
367 61
367 88
367 91
367 105
367 107
367 122
367 141
367 163
367 164
367 165
367 167
367 180
367 189
367 192
367 196
367 213
367 253
367 273
367 274
367 323
367 340
367 344
367 371
367 384
368 0
368 1
368 2
368 4
368 5
368 38
368 41
368 46
368 66
368 90
368 117
368 129
368 151
368 201
368 224
368 243
368 281
368 283
368 334
368 366
368 382
369 0
369 1
369 2
369 3
369 4
369 5
369 6
369 7
369 19
369 28
369 31
369 43
369 45
369 57
369 70
369 75
369 103
369 109
369 110
369 112
369 167
369 190
369 197
369 208
369 213
369 270
369 313
369 324
369 397
370 0
370 1
370 2
370 3
370 5
370 10
370 14
370 19
370 22
370 25
370 33
370 37
370 38
370 45
370 55
370 75
370 91
370 132
370 136
370 143
370 146
370 176
370 185
370 194
370 196
370 236
370 288
370 333
370 340
370 344
370 345
370 365
371 0
371 1
371 2
371 4
371 5
371 14
371 23
371 28
371 31
371 37
371 45
371 58
371 107
371 132
371 143
371 154
371 166
371 185
371 195
371 223
371 275
371 333
371 367
372 2
372 5
372 6
372 16
372 35
372 87
372 136
372 220
372 237
372 239
372 337
372 342
373 0
373 1
373 2
373 3
373 4
373 5
373 6
373 8
373 9
373 10
373 14
373 18
373 24
373 25
373 27
373 28
373 30
373 39
373 69
373 95
373 96
373 107
373 109
373 110
373 163
373 164
373 169
373 185
373 190
373 192
373 234
373 237
373 244
373 257
373 268
373 287
373 291
373 344
373 349
373 402
374 0
374 1
374 2
374 3
374 4
374 6
374 8
374 16
374 17
374 22
374 27
374 32
374 36
374 38
374 68
374 75
374 91
374 94
374 119
374 197
374 291
374 336
375 0
375 1
375 2
375 4
375 5
375 6
375 37
375 43
375 49
375 66
375 185
375 210
375 293
375 391
376 1
376 2
376 3
376 7
376 41
376 43
376 49
376 60
376 68
376 78
376 100
376 103
376 142
376 153
376 157
376 164
376 189
376 198
376 260
376 262
376 288
376 366
377 1
377 2
377 99
377 105
377 377
377 410
378 0
378 1
378 3
378 4
378 105
378 110
378 115
378 116
378 136
378 137
378 180
378 181
378 183
378 203
378 223
378 253
378 275
378 288
379 0
379 1
379 2
379 3
379 7
379 13
379 17
379 18
379 154
379 323
379 336
380 0
380 1
380 2
380 3
380 47
380 49
380 79
380 103
380 105
380 115
380 124
380 150
380 203
380 231
380 395
381 0
381 1
381 2
381 3
381 4
381 5
381 6
381 117
381 119
381 151
381 153
381 180
381 190
381 203
381 259
381 280
381 296
381 353
381 396
381 403
382 0
382 1
382 2
382 3
382 4
382 30
382 36
382 41
382 47
382 65
382 99
382 102
382 104
382 105
382 106
382 107
382 110
382 111
382 141
382 209
382 259
382 262
382 280
382 336
382 368
382 382
382 384
383 0
383 1
383 2
383 3
383 4
383 22
383 43
383 69
383 100
383 110
383 136
383 207
383 217
383 284
384 0
384 1
384 2
384 3
384 4
384 5
384 6
384 9
384 10
384 18
384 22
384 23
384 27
384 32
384 33
384 34
384 35
384 36
384 41
384 43
384 47
384 49
384 50
384 52
384 55
384 57
384 61
384 62
384 65
384 68
384 73
384 74
384 75
384 76
384 80
384 87
384 91
384 93
384 96
384 100
384 102
384 103
384 104
384 105
384 107
384 110
384 114
384 115
384 116
384 117
384 126
384 127
384 129
384 136
384 139
384 141
384 148
384 149
384 151
384 154
384 159
384 160
384 163
384 165
384 170
384 177
384 179
384 180
384 181
384 184
384 185
384 189
384 190
384 194
384 195
384 197
384 200
384 203
384 206
384 207
384 208
384 209
384 210
384 212
384 216
384 217
384 220
384 223
384 224
384 226
384 229
384 236
384 239
384 240
384 243
384 246
384 247
384 248
384 256
384 264
384 268
384 272
384 277
384 292
384 293
384 298
384 309
384 315
384 316
384 317
384 328
384 329
384 336
384 338
384 348
384 353
384 357
384 358
384 359
384 360
384 366
384 367
384 382
384 384
384 392
384 403
385 26
385 90
385 102
386 0
386 1
386 2
386 3
386 4
386 29
386 32
386 69
386 103
386 196
386 221
386 276
386 307
386 316
386 332
386 366
387 0
387 4
387 26
387 33
387 41
387 105
387 151
387 194
387 213
387 342
388 0
388 1
388 2
388 3
388 6
388 43
388 69
388 79
388 105
388 115
388 133
388 134
388 137
388 147
388 203
388 255
388 334
388 408
389 0
389 1
389 3
389 4
389 6
389 36
389 105
389 107
389 129
389 135
389 157
389 203
389 233
389 316
390 1
390 23
390 28
390 107
390 110
390 180
390 190
390 278
390 318
390 340
391 0
391 1
391 2
391 3
391 4
391 5
391 35
391 36
391 43
391 46
391 56
391 65
391 74
391 76
391 93
391 95
391 103
391 112
391 114
391 135
391 137
391 139
391 146
391 174
391 180
391 181
391 182
391 184
391 185
391 187
391 190
391 197
391 207
391 208
391 209
391 211
391 219
391 224
391 240
391 244
391 261
391 273
391 287
391 307
391 314
391 321
391 338
391 348
391 360
391 375
391 403
392 0
392 1
392 2
392 3
392 4
392 41
392 105
392 384
393 0
393 1
393 2
393 3
393 4
393 8
393 9
393 43
393 49
393 62
393 113
393 127
393 148
393 167
393 176
393 197
393 207
393 315
394 0
394 1
394 2
394 3
394 4
394 43
394 59
394 103
394 117
394 118
394 157
394 206
394 217
394 233
394 251
395 0
395 1
395 2
395 3
395 10
395 20
395 28
395 47
395 117
395 125
395 154
395 176
395 208
395 226
395 247
395 256
395 280
395 317
395 380
396 0
396 1
396 2
396 21
396 49
396 52
396 78
396 79
396 97
396 135
396 189
396 320
396 381
396 409
397 0
397 1
397 2
397 3
397 7
397 29
397 31
397 49
397 103
397 111
397 112
397 200
397 209
397 217
397 270
397 272
397 369
398 0
398 1
398 2
398 3
398 5
398 105
398 136
398 146
398 207
398 248
398 284
398 329
399 0
399 1
399 2
399 3
399 4
399 106
399 182
399 188
399 207
399 351
400 0
400 1
400 2
400 3
400 4
400 6
400 55
400 107
400 109
400 128
400 189
400 310
401 0
401 1
401 2
401 3
401 9
401 15
401 18
401 19
401 24
401 27
401 28
401 36
401 55
401 77
401 105
401 110
401 163
401 178
401 180
401 207
401 212
401 293
401 351
401 402
402 0
402 1
402 2
402 3
402 4
402 5
402 7
402 8
402 9
402 22
402 23
402 24
402 25
402 27
402 28
402 33
402 34
402 45
402 73
402 105
402 107
402 121
402 145
402 163
402 165
402 185
402 207
402 339
402 373
402 401
403 0
403 1
403 2
403 3
403 4
403 5
403 10
403 21
403 28
403 30
403 36
403 43
403 44
403 46
403 49
403 51
403 61
403 79
403 96
403 110
403 159
403 172
403 187
403 207
403 213
403 217
403 220
403 223
403 227
403 237
403 242
403 243
403 247
403 288
403 295
403 311
403 332
403 381
403 384
403 391
404 0
404 1
404 2
404 3
404 5
404 19
404 103
404 219
404 229
404 248
404 287
405 1
405 2
405 27
405 71
405 126
405 190
405 207
405 236
405 246
405 405
405 406
406 1
406 2
406 3
406 10
406 405
407 0
407 1
407 2
407 4
407 65
407 93
407 105
407 157
407 165
407 179
407 184
407 186
407 192
407 306
407 329
407 337
408 0
408 1
408 2
408 3
408 4
408 119
408 165
408 180
408 196
408 306
408 327
408 388
409 1
409 2
409 3
409 4
409 5
409 26
409 44
409 46
409 79
409 96
409 110
409 154
409 180
409 214
409 259
409 341
409 353
409 355
409 396
410 0
410 2
410 36
410 41
410 99
410 105
410 377
410 410
