0 0
0 1
0 2
0 3
0 4
0 5
0 6
0 7
0 8
0 9
0 10
0 11
0 12
0 13
0 14
0 15
0 16
0 17
0 18
0 19
0 20
0 21
0 22
0 23
0 24
0 25
0 26
0 27
0 28
0 29
0 30
0 31
0 32
0 33
0 34
0 35
0 36
0 37
0 38
0 39
0 40
0 41
0 42
0 43
0 44
0 45
0 46
0 47
0 48
0 49
0 50
0 51
0 52
0 53
0 54
0 55
0 56
0 57
0 58
0 59
0 60
0 61
0 62
0 63
0 64
0 65
0 66
0 67
0 68
0 69
0 70
0 71
0 72
0 73
0 74
0 75
0 76
0 77
0 78
0 79
0 80
0 81
0 82
0 83
0 84
0 85
0 86
0 87
0 88
0 89
0 90
0 91
0 92
0 93
0 94
0 95
0 96
0 97
0 98
0 99
0 100
0 101
0 102
0 103
0 104
0 105
0 106
0 107
0 108
0 109
0 110
0 111
0 112
0 113
0 114
0 115
0 116
0 117
0 118
0 119
0 120
0 121
0 122
0 123
0 124
0 125
0 126
0 127
0 128
0 129
0 130
0 131
0 132
0 133
0 134
0 135
0 136
0 137
0 138
0 139
0 140
0 141
0 142
0 143
0 144
0 145
0 146
0 147
0 148
0 149
0 150
1 0
1 1
1 2
1 3
1 4
1 5
1 6
1 7
1 8
1 9
1 10
1 11
1 12
1 13
1 14
1 15
1 16
1 17
1 18
1 19
1 20
1 21
1 22
1 24
1 25
1 26
1 27
1 28
1 29
1 30
1 31
1 32
1 33
1 34
1 35
1 36
1 37
1 38
1 39
1 40
1 41
1 42
1 43
1 44
1 45
1 46
1 47
1 48
1 49
1 50
1 51
1 52
1 53
1 54
1 55
1 56
1 57
1 58
1 59
1 60
1 61
1 62
1 63
1 64
1 65
1 66
1 67
1 68
1 69
1 70
1 71
1 72
1 73
1 74
1 75
1 76
1 77
1 78
1 79
1 80
1 81
1 82
1 83
1 84
1 85
1 86
1 87
1 88
1 89
1 90
1 91
1 92
1 93
1 94
1 95
1 96
1 97
1 98
1 99
1 100
1 101
1 102
1 103
1 104
1 105
1 106
1 107
1 108
1 109
1 110
1 111
1 112
1 113
1 114
1 115
1 116
1 117
1 118
1 119
1 120
1 121
1 122
1 123
1 124
1 125
1 126
1 127
1 128
1 129
1 130
1 131
1 132
1 133
1 134
1 135
1 136
1 137
1 138
1 139
1 140
1 141
1 142
1 143
1 144
1 145
1 146
1 147
1 148
1 149
1 150
2 0
2 1
2 2
2 3
2 4
2 5
2 6
2 7
2 8
2 9
2 10
2 11
2 12
2 13
2 14
2 15
2 16
2 17
2 18
2 19
2 20
2 21
2 22
2 24
2 25
2 26
2 27
2 28
2 29
2 30
2 31
2 32
2 33
2 34
2 35
2 36
2 37
2 38
2 39
2 40
2 41
2 42
2 43
2 44
2 45
2 46
2 47
2 48
2 49
2 50
2 51
2 52
2 53
2 54
2 55
2 56
2 57
2 58
2 59
2 60
2 61
2 62
2 63
2 64
2 65
2 66
2 67
2 68
2 69
2 70
2 71
2 72
2 73
2 74
2 75
2 76
2 77
2 78
2 79
2 80
2 81
2 82
2 83
2 84
2 85
2 86
2 87
2 88
2 89
2 90
2 91
2 92
2 93
2 94
2 95
2 96
2 97
2 98
2 99
2 100
2 101
2 102
2 103
2 104
2 105
2 106
2 107
2 108
2 109
2 110
2 111
2 112
2 113
2 114
2 115
2 116
2 117
2 118
2 119
2 120
2 121
2 122
2 123
2 124
2 125
2 126
2 127
2 128
2 129
2 130
2 131
2 132
2 133
2 134
2 135
2 136
2 137
2 138
2 139
2 140
2 141
2 142
2 143
2 144
2 145
2 146
2 147
2 149
2 150
3 0
3 1
3 2
3 3
3 4
3 5
3 6
3 7
3 8
3 9
3 10
3 11
3 12
3 13
3 14
3 15
3 16
3 17
3 18
3 19
3 20
3 21
3 22
3 24
3 26
3 27
3 28
3 29
3 30
3 31
3 32
3 33
3 35
3 36
3 37
3 38
3 39
3 40
3 41
3 42
3 43
3 44
3 45
3 46
3 47
3 48
3 49
3 50
3 51
3 52
3 53
3 54
3 55
3 56
3 57
3 58
3 59
3 60
3 61
3 62
3 63
3 64
3 65
3 66
3 67
3 68
3 69
3 70
3 71
3 72
3 73
3 74
3 75
3 77
3 78
3 79
3 81
3 82
3 83
3 84
3 85
3 86
3 87
3 88
3 89
3 90
3 91
3 92
3 93
3 94
3 95
3 96
3 97
3 98
3 99
3 100
3 101
3 102
3 103
3 104
3 105
3 106
3 107
3 108
3 109
3 110
3 111
3 112
3 114
3 115
3 116
3 117
3 118
3 119
3 121
3 122
3 123
3 124
3 125
3 126
3 127
3 128
3 129
3 130
3 131
3 132
3 133
3 134
3 135
3 136
3 137
3 138
3 139
3 140
3 141
3 142
3 143
3 144
3 145
3 149
3 150
4 0
4 1
4 2
4 3
4 4
4 5
4 6
4 7
4 8
4 9
4 10
4 11
4 12
4 13
4 14
4 15
4 16
4 17
4 18
4 19
4 20
4 21
4 22
4 24
4 26
4 27
4 29
4 30
4 32
4 33
4 34
4 35
4 36
4 37
4 38
4 39
4 40
4 41
4 42
4 43
4 45
4 46
4 47
4 49
4 50
4 51
4 52
4 53
4 54
4 55
4 56
4 57
4 58
4 59
4 60
4 61
4 62
4 64
4 66
4 68
4 69
4 70
4 71
4 72
4 74
4 75
4 77
4 78
4 79
4 80
4 81
4 82
4 83
4 84
4 85
4 86
4 87
4 88
4 89
4 90
4 91
4 93
4 94
4 95
4 96
4 97
4 98
4 99
4 100
4 102
4 103
4 104
4 105
4 106
4 108
4 109
4 110
4 111
4 112
4 114
4 115
4 117
4 119
4 121
4 122
4 123
4 124
4 125
4 126
4 128
4 129
4 130
4 131
4 132
4 133
4 134
4 136
4 138
4 139
4 140
4 142
4 143
4 145
4 149
4 150
5 0
5 1
5 2
5 3
5 4
5 5
5 6
5 8
5 9
5 10
5 11
5 13
5 14
5 16
5 17
5 18
5 19
5 20
5 21
5 22
5 24
5 26
5 27
5 28
5 29
5 31
5 33
5 35
5 36
5 37
5 38
5 39
5 40
5 41
5 42
5 43
5 44
5 45
5 46
5 49
5 50
5 51
5 52
5 53
5 57
5 58
5 59
5 60
5 64
5 66
5 68
5 70
5 71
5 72
5 74
5 75
5 79
5 81
5 82
5 85
5 86
5 89
5 90
5 91
5 93
5 94
5 97
5 100
5 102
5 104
5 107
5 109
5 110
5 115
5 117
5 118
5 119
5 122
5 123
5 124
5 125
5 127
5 131
5 133
5 134
5 137
5 142
5 143
5 145
5 149
6 0
6 1
6 2
6 3
6 4
6 5
6 6
6 7
6 9
6 10
6 12
6 13
6 14
6 16
6 17
6 20
6 21
6 24
6 26
6 27
6 28
6 32
6 33
6 35
6 37
6 38
6 39
6 43
6 45
6 46
6 47
6 49
6 50
6 52
6 54
6 56
6 60
6 61
6 64
6 66
6 68
6 70
6 71
6 72
6 73
6 75
6 76
6 77
6 79
6 81
6 82
6 84
6 85
6 87
6 90
6 91
6 92
6 94
6 97
6 100
6 103
6 104
6 105
6 106
6 112
6 115
6 119
6 121
6 124
6 134
6 137
6 140
6 141
6 142
6 143
7 0
7 1
7 2
7 3
7 4
7 6
7 10
7 11
7 14
7 16
7 19
7 24
7 27
7 28
7 35
7 38
7 39
7 41
7 43
7 47
7 49
7 52
7 53
7 54
7 57
7 62
7 64
7 71
7 79
7 84
7 86
7 100
7 108
7 109
7 111
7 114
7 121
7 122
7 126
7 149
8 0
8 1
8 2
8 3
8 4
8 5
8 8
8 10
8 12
8 13
8 14
8 15
8 16
8 19
8 20
8 21
8 24
8 27
8 35
8 37
8 39
8 41
8 43
8 45
8 51
8 52
8 53
8 60
8 64
8 66
8 68
8 74
8 75
8 76
8 81
8 82
8 86
8 91
8 92
8 94
8 97
8 98
8 100
8 103
8 105
8 110
8 112
8 115
8 119
8 121
8 122
8 124
8 126
8 127
8 132
8 134
8 136
8 140
8 142
8 149
9 0
9 1
9 2
9 3
9 4
9 5
9 6
9 11
9 12
9 18
9 20
9 21
9 35
9 36
9 39
9 41
9 43
9 45
9 54
9 57
9 58
9 60
9 66
9 68
9 70
9 71
9 72
9 82
9 94
9 96
9 97
9 98
9 99
9 100
9 107
9 111
9 119
9 133
9 134
9 136
9 138
9 140
9 143
9 147
10 0
10 1
10 2
10 3
10 4
10 5
10 6
10 7
10 8
10 10
10 11
10 12
10 13
10 14
10 15
10 18
10 19
10 20
10 24
10 27
10 30
10 32
10 35
10 36
10 37
10 39
10 48
10 58
10 60
10 64
10 66
10 68
10 70
10 74
10 75
10 76
10 79
10 81
10 87
10 90
10 91
10 92
10 96
10 97
10 99
10 100
10 102
10 105
10 107
10 108
10 109
10 110
10 114
10 117
10 119
10 121
10 122
10 124
10 134
10 138
10 149
11 0
11 1
11 2
11 3
11 4
11 5
11 7
11 9
11 10
11 12
11 13
11 14
11 16
11 18
11 19
11 20
11 21
11 24
11 32
11 33
11 35
11 37
11 39
11 43
11 45
11 48
11 52
11 58
11 60
11 70
11 71
11 72
11 73
11 74
11 75
11 78
11 79
11 82
11 84
11 85
11 86
11 90
11 91
11 94
11 97
11 104
11 107
11 109
11 110
11 114
11 116
11 117
11 121
11 125
11 132
11 133
11 136
11 138
11 149
12 0
12 1
12 2
12 3
12 4
12 6
12 8
12 9
12 10
12 11
12 13
12 17
12 20
12 21
12 24
12 27
12 28
12 32
12 33
12 35
12 37
12 38
12 39
12 41
12 43
12 44
12 49
12 50
12 60
12 61
12 62
12 64
12 66
12 68
12 70
12 71
12 73
12 74
12 75
12 77
12 78
12 79
12 82
12 86
12 97
12 100
12 102
12 104
12 109
12 111
12 115
12 123
12 124
12 128
12 134
12 135
12 138
12 144
12 150
13 0
13 1
13 2
13 3
13 4
13 5
13 6
13 8
13 10
13 11
13 12
13 14
13 16
13 20
13 21
13 22
13 24
13 27
13 32
13 35
13 36
13 37
13 39
13 40
13 41
13 43
13 44
13 49
13 52
13 53
13 54
13 60
13 64
13 66
13 70
13 71
13 75
13 83
13 84
13 94
13 98
13 100
13 102
13 108
13 110
13 111
13 112
13 116
13 126
13 133
13 135
13 136
13 141
13 142
14 0
14 1
14 2
14 3
14 4
14 5
14 6
14 7
14 8
14 10
14 11
14 13
14 18
14 21
14 24
14 27
14 33
14 39
14 43
14 45
14 47
14 49
14 52
14 58
14 64
14 66
14 70
14 71
14 72
14 74
14 76
14 79
14 81
14 82
14 84
14 91
14 94
14 99
14 107
14 108
14 110
14 111
14 114
14 117
14 119
14 120
14 131
14 135
14 136
14 142
14 149
15 0
15 1
15 2
15 3
15 4
15 8
15 10
15 20
15 22
15 27
15 35
15 38
15 51
15 71
15 81
15 82
15 86
15 90
15 91
15 97
15 100
15 103
15 111
15 115
15 124
15 134
15 149
16 0
16 1
16 2
16 3
16 4
16 5
16 6
16 7
16 8
16 11
16 13
16 16
16 18
16 19
16 20
16 21
16 22
16 24
16 32
16 33
16 39
16 52
16 59
16 60
16 62
16 64
16 66
16 70
16 71
16 72
16 74
16 75
16 82
16 83
16 84
16 87
16 91
16 94
16 95
16 96
16 97
16 100
16 108
16 109
16 111
16 115
16 116
16 121
16 124
16 126
16 131
16 133
16 135
16 136
16 143
16 149
17 0
17 1
17 2
17 3
17 4
17 5
17 6
17 12
17 19
17 24
17 28
17 33
17 35
17 36
17 37
17 38
17 42
17 43
17 47
17 50
17 52
17 56
17 59
17 60
17 64
17 66
17 68
17 70
17 71
17 75
17 79
17 82
17 85
17 86
17 88
17 91
17 95
17 102
17 104
17 109
17 117
17 119
17 143
17 150
18 0
18 1
18 2
18 3
18 4
18 5
18 9
18 10
18 11
18 14
18 16
18 27
18 33
18 35
18 39
18 49
18 57
18 58
18 62
18 64
18 66
18 70
18 72
18 73
18 74
18 82
18 91
18 97
18 100
18 105
18 109
18 112
18 124
18 134
18 136
19 0
19 1
19 2
19 3
19 4
19 5
19 7
19 8
19 10
19 11
19 16
19 17
19 24
19 33
19 35
19 37
19 39
19 41
19 42
19 52
19 57
19 61
19 64
19 66
19 70
19 71
19 74
19 82
19 87
19 91
19 102
19 110
19 117
19 122
19 124
19 131
19 136
19 140
19 142
20 0
20 1
20 2
20 3
20 4
20 5
20 6
20 8
20 9
20 10
20 11
20 12
20 13
20 15
20 16
20 24
20 27
20 33
20 38
20 39
20 41
20 45
20 58
20 66
20 70
20 71
20 72
20 81
20 82
20 91
20 97
20 103
20 109
20 111
20 115
21 0
21 1
21 2
21 3
21 4
21 5
21 6
21 8
21 9
21 11
21 12
21 13
21 14
21 16
21 24
21 26
21 33
21 41
21 43
21 46
21 52
21 58
21 60
21 63
21 64
21 66
21 68
21 70
21 71
21 84
21 87
21 91
21 97
21 99
21 105
21 123
22 0
22 1
22 2
22 3
22 4
22 5
22 13
22 15
22 16
22 24
22 26
22 27
22 33
22 35
22 37
22 38
22 43
22 47
22 50
22 60
22 62
22 63
22 64
22 66
22 67
22 68
22 70
22 71
22 72
22 73
22 75
22 76
22 78
22 79
22 81
22 82
22 86
22 89
22 91
22 95
22 96
22 100
22 101
22 107
22 109
22 110
22 112
22 115
22 121
22 127
22 130
22 138
22 144
23 0
24 0
24 1
24 2
24 3
24 4
24 5
24 6
24 7
24 8
24 10
24 11
24 12
24 13
24 14
24 16
24 17
24 19
24 20
24 21
24 22
24 24
24 26
24 27
24 28
24 29
24 30
24 31
24 32
24 33
24 34
24 35
24 36
24 37
24 38
24 40
24 43
24 45
24 46
24 47
24 49
24 50
24 51
24 54
24 56
24 58
24 59
24 60
24 62
24 63
24 64
24 65
24 66
24 68
24 69
24 70
24 71
24 72
24 75
24 76
24 79
24 81
24 82
24 85
24 86
24 90
24 91
24 93
24 96
24 97
24 100
24 102
24 103
24 104
24 105
24 106
24 109
24 110
24 111
24 112
24 115
24 117
24 119
24 120
24 121
24 122
24 124
24 129
24 134
24 136
24 137
24 138
24 145
24 149
25 0
25 1
25 2
25 122
26 0
26 1
26 2
26 3
26 4
26 5
26 6
26 21
26 22
26 24
26 26
26 27
26 30
26 32
26 33
26 36
26 37
26 43
26 46
26 48
26 49
26 56
26 64
26 66
26 68
26 70
26 72
26 74
26 76
26 78
26 79
26 81
26 82
26 85
26 86
26 90
26 92
26 93
26 96
26 100
26 102
26 105
26 106
26 122
26 146
27 0
27 1
27 2
27 3
27 4
27 5
27 6
27 7
27 8
27 10
27 12
27 13
27 14
27 15
27 18
27 20
27 22
27 24
27 26
27 27
27 30
27 32
27 33
27 35
27 36
27 37
27 38
27 39
27 41
27 42
27 43
27 45
27 46
27 47
27 48
27 49
27 50
27 51
27 52
27 60
27 61
27 62
27 64
27 66
27 67
27 68
27 69
27 70
27 71
27 73
27 75
27 76
27 78
27 79
27 81
27 82
27 86
27 87
27 89
27 90
27 91
27 93
27 95
27 96
27 97
27 98
27 100
27 102
27 104
27 105
27 109
27 110
27 112
27 115
27 119
27 122
27 124
27 125
27 128
27 136
27 143
27 145
27 147
27 149
28 0
28 1
28 2
28 3
28 5
28 6
28 7
28 12
28 17
28 24
28 33
28 35
28 37
28 38
28 40
28 42
28 47
28 49
28 54
28 59
28 64
28 66
28 68
28 70
28 80
28 82
28 85
28 104
28 109
28 111
28 115
28 138
29 0
29 1
29 2
29 3
29 4
29 5
29 24
29 30
29 33
29 35
29 36
29 45
29 46
29 56
29 59
29 60
29 72
29 81
29 82
29 85
29 86
29 96
29 98
29 104
29 105
29 106
29 118
29 143
30 0
30 1
30 2
30 3
30 4
30 10
30 24
30 26
30 27
30 29
30 33
30 39
30 49
30 55
30 62
30 64
30 66
30 70
30 71
30 72
30 75
30 79
30 83
30 102
30 119
31 0
31 1
31 2
31 3
31 5
31 24
31 33
31 38
31 55
31 60
31 64
31 70
31 80
31 85
31 86
31 91
31 104
31 109
31 121
31 145
32 0
32 1
32 2
32 3
32 4
32 6
32 10
32 11
32 12
32 13
32 16
32 24
32 26
32 27
32 35
32 39
32 43
32 49
32 58
32 70
32 75
32 76
32 77
32 85
32 111
32 115
32 119
32 121
32 124
32 135
33 0
33 1
33 2
33 3
33 4
33 5
33 6
33 11
33 12
33 14
33 16
33 17
33 18
33 19
33 20
33 21
33 22
33 24
33 26
33 27
33 28
33 29
33 30
33 31
33 33
33 35
33 36
33 37
33 38
33 39
33 41
33 42
33 43
33 46
33 47
33 48
33 49
33 50
33 51
33 54
33 55
33 56
33 57
33 58
33 59
33 60
33 62
33 63
33 64
33 66
33 67
33 68
33 69
33 70
33 71
33 72
33 73
33 74
33 75
33 76
33 78
33 79
33 81
33 82
33 85
33 86
33 90
33 91
33 96
33 97
33 100
33 102
33 103
33 104
33 105
33 106
33 109
33 110
33 113
33 114
33 115
33 119
33 121
33 122
33 130
33 134
33 136
33 138
33 139
33 141
33 147
33 148
34 0
34 1
34 2
34 4
34 24
34 35
34 36
34 50
34 68
34 70
34 102
35 0
35 1
35 2
35 3
35 4
35 5
35 6
35 7
35 8
35 9
35 10
35 11
35 12
35 13
35 15
35 17
35 18
35 19
35 22
35 24
35 27
35 28
35 29
35 32
35 33
35 34
35 35
35 36
35 37
35 38
35 39
35 40
35 42
35 43
35 44
35 46
35 47
35 48
35 49
35 50
35 52
35 53
35 54
35 55
35 56
35 58
35 59
35 60
35 62
35 64
35 66
35 68
35 69
35 70
35 71
35 72
35 75
35 77
35 79
35 81
35 82
35 84
35 85
35 86
35 88
35 90
35 91
35 94
35 95
35 96
35 98
35 99
35 100
35 102
35 103
35 104
35 105
35 106
35 109
35 110
35 111
35 112
35 115
35 121
35 122
35 124
35 128
35 131
35 136
35 137
35 141
35 142
35 144
36 0
36 1
36 2
36 3
36 4
36 5
36 9
36 10
36 13
36 17
36 24
36 26
36 27
36 29
36 33
36 34
36 35
36 37
36 38
36 43
36 51
36 54
36 62
36 64
36 70
36 75
36 77
36 79
36 82
36 86
36 88
36 90
36 91
36 92
36 96
36 100
36 104
36 119
36 139
37 0
37 1
37 2
37 3
37 4
37 5
37 6
37 8
37 10
37 11
37 12
37 13
37 17
37 19
37 22
37 24
37 26
37 27
37 28
37 33
37 35
37 36
37 37
37 38
37 39
37 40
37 43
37 45
37 47
37 49
37 52
37 56
37 60
37 66
37 68
37 70
37 75
37 76
37 79
37 80
37 82
37 83
37 85
37 86
37 88
37 90
37 92
37 93
37 96
37 98
37 100
37 102
37 104
37 105
37 109
37 110
37 111
37 112
37 115
37 116
37 117
37 119
37 121
37 124
37 125
37 136
37 137
37 141
37 150
38 0
38 1
38 2
38 3
38 4
38 5
38 6
38 7
38 12
38 15
38 17
38 20
38 22
38 24
38 27
38 28
38 31
38 33
38 35
38 36
38 37
38 38
38 47
38 50
38 55
38 60
38 62
38 64
38 65
38 70
38 72
38 73
38 79
38 82
38 86
38 96
38 109
38 115
38 138
38 139
38 144
39 0
39 1
39 2
39 3
39 4
39 5
39 6
39 7
39 8
39 9
39 10
39 11
39 12
39 13
39 14
39 16
39 18
39 19
39 20
39 27
39 30
39 32
39 33
39 35
39 37
39 39
39 45
39 49
39 52
39 58
39 60
39 66
39 70
39 72
39 74
39 75
39 76
39 81
39 82
39 84
39 90
39 94
39 97
39 98
39 100
39 103
39 105
39 108
39 109
39 110
39 114
39 115
39 116
39 121
39 124
39 125
39 127
39 133
39 140
39 148
40 0
40 1
40 2
40 3
40 4
40 5
40 13
40 24
40 28
40 35
40 37
40 42
40 43
40 44
40 47
40 49
40 50
40 59
40 64
40 66
40 68
40 70
40 71
40 75
40 79
40 82
40 86
40 105
40 109
40 115
40 121
40 131
40 139
41 0
41 1
41 2
41 3
41 4
41 5
41 7
41 8
41 9
41 12
41 13
41 19
41 20
41 21
41 27
41 33
41 60
41 64
41 70
41 74
41 75
41 87
41 112
41 117
41 122
41 124
41 125
41 126
41 131
41 136
41 138
42 0
42 1
42 2
42 3
42 4
42 5
42 17
42 19
42 27
42 28
42 33
42 35
42 40
42 46
42 60
42 62
42 68
42 72
42 73
42 88
42 93
42 96
42 105
42 109
42 110
42 122
42 123
43 0
43 1
43 2
43 3
43 4
43 5
43 6
43 7
43 8
43 9
43 11
43 12
43 13
43 14
43 17
43 21
43 22
43 24
43 26
43 27
43 32
43 33
43 35
43 36
43 37
43 40
43 49
43 50
43 52
43 55
43 56
43 59
43 60
43 62
43 64
43 66
43 68
43 69
43 70
43 71
43 75
43 76
43 77
43 78
43 81
43 82
43 90
43 95
43 98
43 99
43 102
43 104
43 107
43 110
43 112
43 115
43 118
43 135
43 145
43 149
44 0
44 1
44 2
44 3
44 5
44 12
44 13
44 35
44 40
44 47
44 70
44 82
44 102
44 121
45 0
45 1
45 2
45 3
45 4
45 5
45 6
45 8
45 9
45 11
45 14
45 20
45 24
45 27
45 29
45 37
45 39
45 45
45 51
45 53
45 56
45 60
45 64
45 71
45 72
45 74
45 75
45 81
45 82
45 83
45 94
45 101
45 114
45 122
45 124
45 126
45 127
45 133
45 134
45 136
46 0
46 1
46 2
46 3
46 4
46 5
46 6
46 21
46 24
46 26
46 27
46 29
46 33
46 35
46 42
46 49
46 60
46 66
46 68
46 70
46 74
46 75
46 86
46 88
46 90
46 91
46 92
46 95
46 105
46 121
47 0
47 1
47 2
47 3
47 4
47 6
47 7
47 14
47 17
47 22
47 24
47 27
47 28
47 33
47 35
47 37
47 38
47 40
47 44
47 49
47 50
47 62
47 64
47 65
47 66
47 70
47 71
47 74
47 76
47 79
47 82
47 91
47 102
47 105
47 108
47 111
47 115
47 128
47 133
47 141
47 144
47 145
47 147
48 0
48 1
48 2
48 3
48 10
48 11
48 26
48 27
48 33
48 35
48 64
48 68
48 70
48 100
48 105
48 109
48 113
49 0
49 1
49 2
49 3
49 4
49 5
49 6
49 7
49 12
49 13
49 14
49 18
49 24
49 26
49 27
49 28
49 30
49 32
49 33
49 35
49 37
49 39
49 40
49 43
49 46
49 47
49 50
49 52
49 54
49 60
49 62
49 66
49 68
49 69
49 70
49 71
49 72
49 73
49 75
49 76
49 77
49 78
49 81
49 82
49 86
49 100
49 105
49 107
49 110
49 111
49 112
49 117
49 119
49 121
49 122
49 124
49 125
49 127
49 134
49 136
49 143
49 150
50 0
50 1
50 2
50 3
50 4
50 5
50 6
50 12
50 17
50 22
50 24
50 27
50 33
50 34
50 35
50 38
50 40
50 43
50 47
50 49
50 58
50 64
50 66
50 68
50 70
50 71
50 72
50 75
50 95
50 96
50 109
50 115
50 124
50 144
51 0
51 1
51 2
51 3
51 4
51 5
51 8
51 15
51 24
51 27
51 33
51 36
51 45
51 55
51 57
51 62
51 64
51 70
51 71
51 72
51 75
51 90
51 91
51 97
51 105
51 110
51 115
51 124
51 136
52 0
52 1
52 2
52 3
52 4
52 5
52 6
52 7
52 8
52 11
52 13
52 14
52 16
52 17
52 19
52 21
52 27
52 35
52 37
52 39
52 43
52 49
52 58
52 64
52 70
52 73
52 82
52 86
52 104
52 105
52 126
52 133
52 135
52 136
52 140
52 141
53 0
53 1
53 2
53 3
53 4
53 5
53 7
53 8
53 13
53 35
53 45
53 58
53 64
53 66
53 70
53 71
53 82
53 84
53 100
53 105
53 116
53 133
54 0
54 1
54 2
54 3
54 4
54 6
54 7
54 9
54 13
54 24
54 28
54 33
54 35
54 36
54 49
54 54
54 60
54 64
54 66
54 70
54 71
54 77
54 79
54 86
54 88
54 98
54 100
54 104
54 105
54 109
54 121
54 138
55 0
55 1
55 2
55 3
55 4
55 30
55 31
55 33
55 35
55 38
55 43
55 51
55 60
55 64
55 70
55 73
55 92
55 104
55 138
55 150
56 0
56 1
56 2
56 3
56 4
56 6
56 17
56 24
56 26
56 29
56 33
56 35
56 37
56 43
56 45
56 60
56 64
56 68
56 70
56 72
56 75
56 82
56 85
56 86
56 88
56 96
56 102
56 104
56 105
57 0
57 1
57 2
57 3
57 4
57 5
57 7
57 9
57 18
57 19
57 33
57 51
57 60
57 64
57 66
57 70
57 73
57 85
57 91
57 100
57 104
57 115
58 0
58 1
58 2
58 3
58 4
58 5
58 9
58 10
58 11
58 14
58 18
58 20
58 21
58 24
58 32
58 33
58 35
58 39
58 50
58 52
58 53
58 64
58 70
58 72
58 74
58 75
58 81
58 82
58 97
58 100
58 108
58 109
58 116
58 118
58 123
58 136
58 148
59 0
59 1
59 2
59 3
59 4
59 5
59 16
59 17
59 24
59 28
59 29
59 33
59 35
59 40
59 43
59 68
59 70
59 71
59 72
59 81
59 86
59 95
59 103
59 114
59 122
60 0
60 1
60 2
60 3
60 4
60 5
60 6
60 8
60 9
60 10
60 11
60 12
60 13
60 16
60 17
60 21
60 22
60 24
60 27
60 29
60 31
60 33
60 35
60 37
60 38
60 39
60 41
60 42
60 43
60 45
60 46
60 49
60 54
60 55
60 56
60 57
60 60
60 64
60 65
60 66
60 68
60 70
60 71
60 72
60 73
60 74
60 75
60 77
60 78
60 79
60 83
60 84
60 85
60 86
60 89
60 94
60 95
60 98
60 99
60 100
60 102
60 103
60 104
60 105
60 109
60 110
60 112
60 115
60 117
60 119
60 121
60 122
60 128
60 129
60 133
60 138
60 143
60 149
61 0
61 1
61 2
61 3
61 4
61 6
61 12
61 19
61 27
61 73
62 0
62 1
62 2
62 3
62 4
62 7
62 12
62 16
62 18
62 22
62 24
62 27
62 30
62 33
62 35
62 36
62 38
62 42
62 43
62 47
62 49
62 51
62 64
62 66
62 68
62 70
62 71
62 75
62 76
62 77
62 79
62 82
62 86
62 91
62 95
62 96
62 98
62 100
62 104
62 109
62 123
62 134
62 149
63 0
63 1
63 2
63 3
63 21
63 22
63 24
63 33
63 64
63 73
63 83
63 128
63 146
64 0
64 1
64 2
64 3
64 4
64 5
64 6
64 7
64 8
64 10
64 12
64 13
64 14
64 16
64 17
64 18
64 19
64 21
64 22
64 24
64 26
64 27
64 28
64 30
64 31
64 33
64 35
64 36
64 38
64 40
64 41
64 43
64 45
64 47
64 48
64 50
64 51
64 52
64 53
64 54
64 55
64 56
64 57
64 58
64 60
64 62
64 63
64 64
64 65
64 66
64 70
64 71
64 72
64 73
64 74
64 75
64 77
64 79
64 81
64 82
64 84
64 85
64 86
64 87
64 88
64 89
64 90
64 91
64 96
64 100
64 102
64 105
64 107
64 110
64 112
64 115
64 118
64 119
64 121
64 122
64 124
64 130
64 131
64 146
65 0
65 1
65 2
65 3
65 24
65 38
65 47
65 60
65 64
65 65
65 66
65 79
65 86
65 100
65 104
65 110
65 122
66 0
66 1
66 2
66 3
66 4
66 5
66 6
66 8
66 9
66 10
66 12
66 13
66 14
66 16
66 17
66 18
66 19
66 20
66 21
66 22
66 24
66 26
66 27
66 28
66 30
66 33
66 35
66 37
66 39
66 40
66 43
66 46
66 47
66 49
66 50
66 53
66 54
66 57
66 60
66 62
66 64
66 65
66 66
66 68
66 70
66 71
66 72
66 73
66 75
66 79
66 81
66 82
66 85
66 86
66 87
66 88
66 90
66 91
66 92
66 93
66 94
66 97
66 100
66 104
66 106
66 107
66 109
66 110
66 111
66 112
66 115
66 116
66 117
66 122
66 124
66 126
66 127
66 129
66 136
66 142
66 144
66 148
66 149
67 0
67 1
67 2
67 3
67 22
67 27
67 33
67 72
67 73
67 79
67 86
67 109
67 126
68 0
68 1
68 2
68 3
68 4
68 5
68 6
68 8
68 9
68 10
68 12
68 17
68 21
68 22
68 24
68 26
68 27
68 28
68 33
68 34
68 35
68 37
68 40
68 42
68 43
68 46
68 48
68 49
68 50
68 56
68 59
68 60
68 62
68 66
68 68
68 70
68 75
68 77
68 78
68 79
68 85
68 86
68 88
68 94
68 100
68 104
68 105
68 109
68 111
68 115
68 119
68 122
68 124
68 137
68 145
69 0
69 1
69 2
69 3
69 4
69 24
69 27
69 33
69 35
69 43
69 49
69 70
69 75
69 77
69 79
69 91
69 101
69 109
69 112
69 135
70 0
70 1
70 2
70 3
70 4
70 5
70 6
70 9
70 10
70 11
70 12
70 13
70 14
70 16
70 17
70 18
70 19
70 20
70 21
70 22
70 24
70 26
70 27
70 28
70 30
70 31
70 32
70 33
70 34
70 35
70 36
70 37
70 38
70 39
70 40
70 41
70 43
70 44
70 46
70 47
70 48
70 49
70 50
70 51
70 52
70 53
70 54
70 55
70 56
70 57
70 58
70 59
70 60
70 62
70 64
70 66
70 68
70 69
70 70
70 71
70 72
70 73
70 74
70 75
70 76
70 77
70 79
70 81
70 82
70 83
70 84
70 85
70 86
70 87
70 88
70 89
70 90
70 91
70 93
70 96
70 98
70 99
70 100
70 102
70 103
70 104
70 105
70 106
70 109
70 111
70 112
70 114
70 115
70 118
70 119
70 120
70 121
70 122
70 124
70 125
70 129
70 130
70 131
70 134
70 135
70 136
70 137
70 138
70 140
70 141
70 144
70 145
70 147
71 0
71 1
71 2
71 3
71 4
71 5
71 6
71 7
71 9
71 11
71 12
71 13
71 14
71 15
71 16
71 17
71 19
71 20
71 21
71 22
71 24
71 27
71 30
71 33
71 35
71 40
71 43
71 45
71 47
71 49
71 50
71 51
71 53
71 54
71 59
71 60
71 62
71 64
71 66
71 70
71 71
71 72
71 73
71 78
71 82
71 83
71 86
71 87
71 90
71 91
71 92
71 95
71 99
71 100
71 102
71 104
71 105
71 109
71 112
71 123
71 124
71 128
71 133
71 134
71 135
71 139
71 140
71 143
71 149
72 0
72 1
72 2
72 3
72 4
72 5
72 6
72 9
72 11
72 14
72 16
72 18
72 20
72 22
72 24
72 26
72 29
72 30
72 33
72 35
72 38
72 39
72 42
72 45
72 49
72 50
72 51
72 56
72 58
72 59
72 60
72 64
72 66
72 67
72 70
72 71
72 74
72 76
72 82
72 83
72 84
72 85
72 86
72 89
72 91
72 93
72 98
72 99
72 104
72 109
72 111
72 112
72 115
72 121
72 123
72 131
72 140
73 0
73 1
73 2
73 3
73 6
73 11
73 12
73 18
73 22
73 27
73 33
73 38
73 42
73 49
73 52
73 55
73 57
73 60
73 61
73 63
73 64
73 66
73 67
73 70
73 71
73 73
73 75
73 79
73 80
73 81
73 86
73 89
73 90
73 96
73 115
73 117
73 124
73 137
73 145
74 0
74 1
74 2
74 3
74 4
74 5
74 8
74 10
74 11
74 12
74 14
74 16
74 18
74 19
74 26
74 33
74 39
74 41
74 45
74 46
74 47
74 58
74 60
74 64
74 70
74 72
74 79
74 82
74 84
74 90
74 93
74 94
74 98
74 100
74 119
74 122
74 133
74 135
75 0
75 1
75 2
75 3
75 4
75 5
75 6
75 8
75 10
75 11
75 12
75 13
75 16
75 17
75 22
75 24
75 27
75 30
75 32
75 33
75 35
75 36
75 37
75 39
75 40
75 41
75 43
75 45
75 46
75 49
75 50
75 51
75 56
75 58
75 60
75 62
75 64
75 66
75 68
75 69
75 70
75 73
75 75
75 76
75 77
75 79
75 81
75 82
75 84
75 85
75 86
75 88
75 89
75 91
75 97
75 98
75 100
75 102
75 104
75 108
75 112
75 114
75 115
75 117
75 118
75 119
75 120
75 124
75 126
75 130
75 131
75 136
75 145
76 0
76 1
76 2
76 6
76 8
76 10
76 14
76 22
76 24
76 26
76 27
76 32
76 33
76 37
76 39
76 43
76 47
76 49
76 62
76 70
76 72
76 75
76 78
76 86
76 100
76 105
76 112
76 115
76 128
76 144
76 146
77 0
77 1
77 2
77 3
77 4
77 6
77 12
77 32
77 35
77 36
77 43
77 49
77 54
77 60
77 62
77 64
77 68
77 69
77 70
77 75
77 86
77 100
77 101
77 109
77 150
78 0
78 1
78 2
78 3
78 4
78 11
78 12
78 22
78 26
78 27
78 33
78 43
78 49
78 60
78 68
78 71
78 76
78 86
78 90
78 104
78 110
78 124
78 128
78 129
78 136
78 138
78 150
79 0
79 1
79 2
79 3
79 4
79 5
79 6
79 7
79 10
79 11
79 12
79 14
79 17
79 22
79 24
79 26
79 27
79 30
79 33
79 35
79 36
79 37
79 38
79 40
79 47
79 54
79 60
79 62
79 64
79 65
79 66
79 67
79 68
79 69
79 70
79 73
79 74
79 75
79 79
79 80
79 81
79 82
79 84
79 85
79 86
79 87
79 89
79 91
79 96
79 100
79 103
79 104
79 105
79 109
79 111
79 112
79 115
79 118
79 119
79 129
79 137
79 141
79 142
79 149
80 0
80 1
80 2
80 4
80 28
80 31
80 37
80 73
80 79
80 104
80 150
81 0
81 1
81 2
81 3
81 4
81 5
81 6
81 8
81 10
81 14
81 15
81 20
81 22
81 24
81 26
81 27
81 29
81 33
81 35
81 39
81 43
81 45
81 49
81 58
81 59
81 64
81 66
81 70
81 73
81 75
81 79
81 81
81 82
81 86
81 89
81 90
81 99
81 100
81 105
81 109
81 115
81 117
81 120
81 124
81 133
81 137
82 0
82 1
82 2
82 3
82 4
82 5
82 6
82 8
82 9
82 11
82 12
82 14
82 15
82 16
82 17
82 18
82 19
82 20
82 22
82 24
82 26
82 27
82 28
82 29
82 33
82 35
82 36
82 37
82 38
82 39
82 40
82 43
82 44
82 45
82 47
82 49
82 52
82 53
82 56
82 58
82 62
82 64
82 66
82 70
82 71
82 72
82 74
82 75
82 79
82 81
82 82
82 84
82 85
82 86
82 90
82 91
82 92
82 93
82 98
82 100
82 102
82 104
82 105
82 107
82 108
82 109
82 111
82 115
82 116
82 118
82 119
82 120
82 122
82 124
82 131
82 133
82 134
82 136
82 140
82 141
83 0
83 1
83 2
83 3
83 4
83 13
83 16
83 30
83 37
83 45
83 60
83 63
83 70
83 71
83 72
83 100
83 101
83 110
83 112
83 124
83 127
83 149
84 0
84 1
84 2
84 3
84 4
84 6
84 7
84 11
84 13
84 14
84 16
84 21
84 35
84 39
84 53
84 60
84 64
84 70
84 72
84 74
84 75
84 79
84 82
84 87
84 94
84 101
84 105
84 121
84 122
84 125
84 141
85 0
85 1
85 2
85 3
85 4
85 5
85 6
85 11
85 17
85 24
85 26
85 28
85 29
85 31
85 32
85 33
85 35
85 37
85 56
85 57
85 60
85 64
85 66
85 68
85 70
85 72
85 75
85 79
85 82
85 90
85 100
85 102
85 105
85 109
85 120
85 124
86 0
86 1
86 2
86 3
86 4
86 5
86 7
86 8
86 11
86 12
86 15
86 17
86 22
86 24
86 26
86 27
86 29
86 31
86 33
86 35
86 36
86 37
86 38
86 40
86 46
86 49
86 52
86 54
86 56
86 59
86 60
86 62
86 64
86 65
86 66
86 67
86 68
86 70
86 71
86 72
86 73
86 75
86 76
86 77
86 78
86 79
86 81
86 82
86 86
86 88
86 91
86 93
86 95
86 96
86 100
86 102
86 103
86 104
86 105
86 106
86 109
86 110
86 111
86 112
86 114
86 115
86 121
86 122
86 125
86 127
86 128
86 139
86 141
86 145
86 146
86 149
87 0
87 1
87 2
87 3
87 4
87 6
87 10
87 16
87 19
87 21
87 27
87 41
87 64
87 66
87 70
87 71
87 79
87 84
87 102
87 117
87 124
87 142
88 0
88 1
88 2
88 3
88 4
88 17
88 35
88 36
88 37
88 42
88 46
88 54
88 56
88 64
88 66
88 68
88 70
88 75
88 86
88 103
89 0
89 1
89 2
89 3
89 4
89 5
89 22
89 27
89 60
89 64
89 70
89 72
89 73
89 75
89 79
89 81
89 89
89 101
89 105
89 132
89 135
90 0
90 1
90 2
90 3
90 4
90 5
90 6
90 10
90 11
90 15
90 24
90 26
90 27
90 33
90 35
90 36
90 37
90 39
90 43
90 46
90 51
90 64
90 66
90 70
90 71
90 73
90 74
90 78
90 81
90 82
90 85
90 93
90 97
90 104
90 111
90 121
90 126
90 136
91 0
91 1
91 2
91 3
91 4
91 5
91 6
91 8
91 10
91 11
91 14
91 15
91 16
91 17
91 18
91 19
91 20
91 21
91 22
91 24
91 27
91 31
91 33
91 35
91 36
91 46
91 47
91 51
91 57
91 62
91 64
91 66
91 69
91 70
91 71
91 72
91 75
91 79
91 82
91 86
91 91
91 97
91 98
91 104
91 115
91 122
91 131
91 133
91 143
92 0
92 1
92 2
92 3
92 6
92 8
92 10
92 26
92 36
92 37
92 46
92 55
92 66
92 71
92 82
92 105
93 0
93 1
93 2
93 3
93 4
93 5
93 24
93 26
93 27
93 37
93 42
93 66
93 70
93 72
93 74
93 82
93 86
93 90
93 99
93 109
93 110
93 111
93 124
94 0
94 1
94 2
94 3
94 4
94 5
94 6
94 8
94 9
94 11
94 13
94 14
94 16
94 35
94 39
94 45
94 60
94 66
94 68
94 74
94 84
94 100
95 0
95 1
95 2
95 3
95 4
95 16
95 17
95 22
95 27
95 35
95 43
95 46
95 50
95 59
95 60
95 62
95 71
95 86
96 0
96 1
96 2
96 3
96 4
96 9
96 10
96 16
96 22
96 24
96 26
96 27
96 29
96 33
96 35
96 36
96 37
96 38
96 42
96 50
96 56
96 62
96 64
96 70
96 73
96 79
96 86
96 103
96 111
96 115
97 0
97 1
97 2
97 3
97 4
97 5
97 6
97 8
97 9
97 10
97 11
97 12
97 15
97 16
97 18
97 20
97 21
97 24
97 27
97 33
97 39
97 51
97 58
97 66
97 75
97 90
97 91
97 98
97 102
97 133
97 134
98 0
98 1
98 2
98 3
98 4
98 8
98 9
98 13
98 27
98 29
98 35
98 37
98 39
98 43
98 54
98 60
98 62
98 70
98 72
98 74
98 75
98 82
98 91
98 97
98 100
98 119
98 149
99 0
99 1
99 2
99 3
99 4
99 9
99 10
99 14
99 21
99 35
99 43
99 60
99 70
99 71
99 72
99 81
99 93
99 100
99 102
99 105
99 110
99 115
99 139
100 0
100 1
100 2
100 3
100 4
100 5
100 6
100 7
100 8
100 9
100 10
100 12
100 13
100 15
100 16
100 18
100 22
100 24
100 26
100 27
100 33
100 35
100 36
100 37
100 39
100 48
100 49
100 53
100 54
100 57
100 58
100 60
100 62
100 64
100 65
100 66
100 68
100 70
100 71
100 74
100 75
100 76
100 77
100 79
100 81
100 82
100 83
100 85
100 86
100 94
100 98
100 99
100 103
100 104
100 105
100 107
100 108
100 109
100 115
100 119
100 124
100 125
100 128
100 133
100 136
100 138
100 142
100 149
101 0
101 1
101 2
101 3
101 22
101 45
101 69
101 77
101 83
101 84
101 89
101 106
101 127
102 0
102 1
102 2
102 3
102 4
102 5
102 10
102 12
102 13
102 17
102 19
102 24
102 26
102 27
102 30
102 33
102 34
102 35
102 37
102 43
102 44
102 47
102 56
102 60
102 64
102 70
102 71
102 75
102 82
102 85
102 86
102 87
102 97
102 99
102 104
102 109
102 112
102 115
102 121
102 122
102 125
102 128
102 133
102 135
103 0
103 1
103 2
103 3
103 4
103 6
103 8
103 15
103 20
103 24
103 33
103 35
103 39
103 59
103 60
103 70
103 79
103 86
103 88
103 96
103 100
103 103
103 105
103 106
103 110
103 117
103 118
103 121
103 126
104 0
104 1
104 2
104 3
104 4
104 5
104 6
104 11
104 12
104 17
104 24
104 27
104 28
104 29
104 31
104 33
104 35
104 36
104 37
104 43
104 52
104 54
104 55
104 56
104 57
104 60
104 62
104 65
104 66
104 68
104 70
104 71
104 72
104 75
104 78
104 79
104 80
104 82
104 86
104 90
104 91
104 100
104 102
104 111
104 118
104 121
104 122
104 123
104 128
105 0
105 1
105 2
105 3
105 4
105 6
105 8
105 10
105 18
105 21
105 24
105 26
105 27
105 29
105 33
105 35
105 37
105 39
105 40
105 42
105 46
105 47
105 48
105 49
105 51
105 52
105 53
105 54
105 56
105 60
105 64
105 68
105 70
105 71
105 76
105 79
105 81
105 82
105 84
105 85
105 86
105 89
105 92
105 99
105 100
105 103
105 105
105 108
105 109
105 110
105 114
105 115
105 121
105 122
105 127
105 130
105 134
105 138
106 0
106 1
106 2
106 3
106 4
106 6
106 24
106 26
106 29
106 33
106 35
106 66
106 70
106 86
106 101
106 103
106 109
106 110
106 145
106 150
107 0
107 1
107 2
107 3
107 5
107 9
107 10
107 11
107 14
107 22
107 43
107 49
107 64
107 66
107 82
107 100
107 112
107 117
108 0
108 1
108 2
108 3
108 4
108 7
108 10
108 13
108 14
108 16
108 39
108 47
108 58
108 75
108 82
108 100
108 105
108 114
108 124
108 131
108 138
109 0
109 1
109 2
109 3
109 4
109 5
109 7
109 10
109 11
109 12
109 16
109 17
109 18
109 20
109 22
109 24
109 27
109 28
109 31
109 33
109 35
109 37
109 38
109 39
109 40
109 42
109 48
109 50
109 54
109 58
109 60
109 62
109 66
109 67
109 68
109 69
109 70
109 71
109 72
109 77
109 79
109 81
109 82
109 85
109 86
109 93
109 100
109 102
109 105
109 106
109 110
109 111
109 115
109 118
109 123
109 124
109 125
109 128
109 133
109 134
109 138
109 144
109 149
110 0
110 1
110 2
110 3
110 4
110 5
110 8
110 10
110 11
110 13
110 14
110 19
110 22
110 24
110 27
110 33
110 35
110 37
110 39
110 42
110 43
110 49
110 51
110 60
110 64
110 65
110 66
110 78
110 83
110 86
110 93
110 99
110 103
110 105
110 106
110 109
110 119
110 123
110 124
110 140
110 149
111 0
111 1
111 2
111 3
111 4
111 7
111 9
111 12
111 13
111 14
111 15
111 16
111 20
111 24
111 28
111 32
111 35
111 37
111 47
111 49
111 66
111 68
111 70
111 72
111 79
111 82
111 86
111 90
111 93
111 96
111 104
111 109
111 115
111 127
111 136
111 138
111 140
112 0
112 1
112 2
112 3
112 4
112 6
112 8
112 13
112 18
112 22
112 24
112 27
112 35
112 37
112 41
112 43
112 49
112 60
112 64
112 66
112 69
112 70
112 71
112 72
112 75
112 76
112 79
112 83
112 86
112 102
112 107
112 113
112 122
112 136
113 0
113 1
113 2
113 33
113 48
113 112
114 0
114 1
114 2
114 3
114 4
114 7
114 10
114 11
114 14
114 33
114 39
114 45
114 59
114 70
114 75
114 86
114 105
114 108
114 121
114 134
114 138
115 0
115 1
115 2
115 3
115 4
115 5
115 6
115 8
115 12
115 15
115 16
115 20
115 22
115 24
115 27
115 28
115 32
115 33
115 35
115 37
115 38
115 39
115 40
115 43
115 47
115 50
115 51
115 57
115 60
115 64
115 66
115 68
115 70
115 72
115 73
115 75
115 76
115 79
115 81
115 82
115 86
115 91
115 96
115 99
115 100
115 102
115 105
115 109
115 111
115 118
115 121
115 126
115 128
115 137
116 0
116 1
116 2
116 3
116 11
116 13
116 16
116 37
116 39
116 53
116 58
116 66
116 82
116 124
116 136
117 0
117 1
117 2
117 3
117 4
117 5
117 10
117 11
117 14
117 17
117 19
117 24
117 37
117 41
117 49
117 60
117 66
117 73
117 75
117 81
117 87
117 103
117 107
117 122
118 0
118 1
118 2
118 3
118 5
118 29
118 43
118 58
118 64
118 70
118 75
118 79
118 82
118 103
118 104
118 109
118 115
118 118
118 124
118 138
118 143
119 0
119 1
119 2
119 3
119 4
119 5
119 6
119 8
119 9
119 10
119 14
119 17
119 24
119 27
119 30
119 32
119 33
119 36
119 37
119 49
119 60
119 64
119 68
119 70
119 74
119 75
119 79
119 82
119 98
119 100
119 110
119 150
120 0
120 1
120 2
120 14
120 24
120 70
120 75
120 81
120 82
120 85
120 144
121 0
121 1
121 2
121 3
121 4
121 6
121 7
121 8
121 10
121 11
121 16
121 22
121 24
121 31
121 32
121 33
121 35
121 37
121 39
121 40
121 44
121 46
121 49
121 54
121 60
121 64
121 70
121 72
121 84
121 86
121 90
121 102
121 103
121 104
121 105
121 114
121 115
121 136
122 0
122 1
122 2
122 3
122 4
122 5
122 7
122 8
122 10
122 19
122 24
122 25
122 26
122 27
122 33
122 35
122 41
122 42
122 45
122 49
122 59
122 60
122 64
122 65
122 66
122 68
122 70
122 74
122 82
122 84
122 86
122 91
122 102
122 104
122 105
122 112
122 117
122 124
122 136
123 0
123 1
123 2
123 3
123 4
123 5
123 12
123 21
123 42
123 58
123 62
123 71
123 72
123 104
123 109
123 110
123 149
124 0
124 1
124 2
124 3
124 4
124 5
124 6
124 8
124 10
124 12
124 15
124 16
124 18
124 19
124 24
124 27
124 32
124 35
124 37
124 39
124 41
124 45
124 49
124 50
124 51
124 64
124 66
124 68
124 70
124 71
124 73
124 75
124 78
124 81
124 82
124 83
124 85
124 87
124 93
124 100
124 108
124 109
124 110
124 116
124 118
124 122
124 134
124 136
124 141
125 0
125 1
125 2
125 3
125 4
125 5
125 11
125 27
125 37
125 39
125 41
125 49
125 70
125 84
125 86
125 100
125 102
125 109
125 125
125 136
125 142
126 0
126 1
126 2
126 3
126 4
126 7
126 8
126 13
126 16
126 41
126 45
126 52
126 66
126 67
126 75
126 90
126 103
126 115
126 128
126 142
127 0
127 1
127 2
127 3
127 5
127 8
127 22
127 39
127 45
127 49
127 66
127 83
127 86
127 101
127 105
127 111
127 131
127 133
128 0
128 1
128 2
128 3
128 4
128 12
128 27
128 35
128 47
128 60
128 63
128 71
128 76
128 78
128 86
128 100
128 102
128 104
128 109
128 115
128 126
128 149
129 0
129 1
129 2
129 3
129 4
129 24
129 60
129 66
129 70
129 78
129 79
130 0
130 1
130 2
130 3
130 4
130 22
130 33
130 64
130 70
130 75
130 105
130 135
131 0
131 1
131 2
131 3
131 4
131 5
131 14
131 16
131 19
131 35
131 40
131 41
131 64
131 70
131 72
131 75
131 82
131 91
131 108
131 127
131 132
131 136
131 142
132 0
132 1
132 2
132 3
132 4
132 8
132 11
132 89
132 131
133 0
133 1
133 2
133 3
133 4
133 5
133 9
133 11
133 13
133 16
133 39
133 45
133 47
133 52
133 53
133 60
133 71
133 74
133 81
133 82
133 91
133 97
133 100
133 102
133 109
133 127
133 140
134 0
134 1
134 2
134 3
134 4
134 5
134 6
134 8
134 9
134 10
134 12
134 15
134 18
134 24
134 33
134 45
134 49
134 62
134 70
134 71
134 82
134 97
134 105
134 109
134 114
134 124
134 149
135 0
135 1
135 2
135 3
135 12
135 13
135 14
135 16
135 32
135 43
135 52
135 69
135 70
135 71
135 74
135 89
135 102
135 130
135 149
136 0
136 1
136 2
136 3
136 4
136 8
136 9
136 11
136 13
136 14
136 16
136 18
136 19
136 24
136 27
136 33
136 35
136 37
136 41
136 45
136 49
136 51
136 52
136 58
136 66
136 70
136 75
136 78
136 82
136 90
136 100
136 111
136 112
136 116
136 121
136 122
136 124
136 125
136 131
136 136
136 138
136 140
136 142
136 143
137 0
137 1
137 2
137 3
137 5
137 6
137 24
137 35
137 37
137 68
137 70
137 73
137 79
137 81
137 115
138 0
138 1
138 2
138 3
138 4
138 9
138 10
138 11
138 12
138 22
138 24
138 28
138 33
138 38
138 41
138 54
138 55
138 60
138 70
138 78
138 100
138 105
138 108
138 109
138 111
138 114
138 118
138 136
139 0
139 1
139 2
139 3
139 4
139 33
139 36
139 38
139 40
139 71
139 86
139 99
140 0
140 1
140 2
140 3
140 4
140 6
140 8
140 9
140 19
140 39
140 52
140 70
140 71
140 72
140 82
140 110
140 111
140 133
140 136
141 0
141 1
141 2
141 3
141 6
141 13
141 33
141 35
141 37
141 47
141 52
141 70
141 79
141 82
141 84
141 86
141 124
141 149
142 0
142 1
142 2
142 3
142 4
142 5
142 6
142 8
142 13
142 14
142 19
142 35
142 66
142 79
142 87
142 100
142 125
142 126
142 131
142 136
143 0
143 1
143 2
143 3
143 4
143 5
143 6
143 9
143 16
143 17
143 27
143 29
143 49
143 60
143 71
143 91
143 118
143 136
144 0
144 1
144 2
144 3
144 12
144 22
144 35
144 38
144 47
144 50
144 66
144 70
144 76
144 109
144 120
145 0
145 1
145 2
145 3
145 4
145 5
145 24
145 27
145 31
145 43
145 47
145 68
145 70
145 73
145 75
145 86
145 106
146 0
146 1
146 2
146 26
146 63
146 64
146 76
146 86
147 0
147 1
147 2
147 9
147 27
147 33
147 47
147 70
148 0
148 1
148 33
148 39
148 58
148 66
149 0
149 1
149 2
149 3
149 4
149 5
149 7
149 8
149 10
149 11
149 14
149 15
149 16
149 24
149 27
149 43
149 60
149 62
149 66
149 71
149 79
149 83
149 86
149 98
149 100
149 109
149 110
149 123
149 128
149 134
149 135
149 141
149 149
150 0
150 1
150 2
150 3
150 4
150 12
150 17
150 37
150 49
150 55
150 77
150 78
150 80
150 106
150 119
