0 6259
1 4706
1 5825
2 2904
2 4401
3 1723
3 2007
3 3365
3 3572
4 1216
4 1217
4 1249
4 1328
4 4772
5 1257
5 1284
5 1285
5 1286
5 1723
5 3718
6 1132
6 1239
6 1477
6 1497
6 1518
6 1698
6 2293
7 630
7 761
7 793
7 1045
7 1531
7 1622
7 1623
7 1624
8 526
8 644
8 670
8 685
8 1054
8 1667
8 1668
8 1669
8 1670
9 191
9 255
9 801
9 847
9 948
9 1314
9 1661
9 1683
9 1737
9 1750
10 558
10 588
10 976
10 1545
10 1805
10 1815
10 1816
10 1817
10 1818
10 1819
10 1820
11 330
11 443
11 509
11 606
11 769
11 1205
11 1239
11 1614
11 1830
11 1831
11 1832
11 1833
12 200
12 214
12 290
12 307
12 399
12 421
12 507
12 900
12 902
12 1851
12 1852
12 1853
12 1854
13 218
13 321
13 332
13 824
13 902
13 946
13 962
13 1440
13 1550
13 1852
13 1886
13 1887
13 1888
13 1889
14 82
14 192
14 200
14 201
14 307
14 313
14 377
14 527
14 1026
14 1145
14 1363
14 1770
14 1891
14 1893
14 1894
15 88
15 150
15 199
15 354
15 490
15 512
15 551
15 591
15 1156
15 1233
15 1239
15 1266
15 1351
15 1901
15 1902
15 1903
16 172
16 192
16 212
16 304
16 393
16 1140
16 1144
16 1228
16 1560
16 1911
16 1912
16 1913
16 1914
16 1915
16 1916
16 1917
16 1918
17 51
17 54
17 59
17 64
17 77
17 82
17 124
17 311
17 646
17 801
17 901
17 1146
17 1372
17 1857
17 1921
17 1922
17 1923
17 1924
18 65
18 73
18 79
18 87
18 171
18 199
18 578
18 700
18 824
18 884
18 926
18 994
18 1220
18 1707
18 1925
18 1926
18 1927
18 1928
18 1929
19 71
19 78
19 79
19 87
19 125
19 254
19 333
19 351
19 415
19 419
19 443
19 555
19 995
19 1356
19 1445
19 1930
19 1931
19 1932
19 1933
19 1934
20 80
20 181
20 300
20 400
20 403
20 416
20 511
20 698
20 987
20 1178
20 1325
20 1423
20 1457
20 1629
20 1935
20 1936
20 1937
20 1938
20 1939
20 2801
20 3489
21 37
21 39
21 64
21 70
21 77
21 154
21 170
21 311
21 648
21 664
21 1125
21 1206
21 1461
21 1626
21 1855
21 1940
21 1941
21 1942
21 1943
21 1944
21 1945
21 1946
22 27
22 43
22 52
22 125
22 133
22 159
22 211
22 215
22 216
22 259
22 318
22 415
22 659
22 900
22 1022
22 1187
22 1420
22 1893
22 1947
22 1948
22 1949
22 1950
22 1951
23 33
23 45
23 52
23 82
23 216
23 300
23 342
23 395
23 400
23 435
23 672
23 691
23 810
23 839
23 1221
23 1315
23 1363
23 1409
23 1561
23 1952
23 1953
23 1954
23 1955
23 1956
24 39
24 78
24 85
24 88
24 153
24 196
24 236
24 392
24 531
24 585
24 652
24 712
24 833
24 1127
24 1206
24 1350
24 1358
24 1496
24 1691
24 1957
24 1958
24 1959
24 1960
24 1961
24 2591
25 54
25 59
25 71
25 170
25 381
25 595
25 682
25 801
25 978
25 1116
25 1146
25 1400
25 1579
25 1671
25 1748
25 1962
25 1963
25 1964
25 1965
25 1966
25 1967
25 1968
25 1969
25 1970
25 1971
25 2291
26 52
26 155
26 160
26 169
26 209
26 277
26 367
26 486
26 588
26 602
26 681
26 694
26 866
26 873
26 874
26 920
26 928
26 976
26 1026
26 1151
26 1590
26 1665
26 1897
26 1972
26 1973
26 1974
26 1975
27 22
27 51
27 110
27 180
27 314
27 331
27 629
27 631
27 640
27 670
27 695
27 780
27 1068
27 1169
27 1303
27 1323
27 1502
27 1643
27 1681
27 1847
27 1903
27 1976
27 1977
27 1978
27 1979
27 1980
27 1981
27 1982
28 50
28 53
28 69
28 81
28 87
28 133
28 168
28 196
28 226
28 299
28 301
28 403
28 414
28 415
28 432
28 468
28 874
28 925
28 958
28 973
28 1022
28 1321
28 1365
28 1709
28 1835
28 1983
28 1984
28 1985
28 1986
29 59
29 71
29 77
29 78
29 85
29 194
29 202
29 255
29 302
29 333
29 381
29 392
29 422
29 511
29 589
29 691
29 695
29 712
29 943
29 1392
29 1732
29 1857
29 1908
29 1909
29 1959
29 1987
29 1988
29 1989
29 1990
29 1991
30 88
30 123
30 149
30 208
30 213
30 324
30 359
30 363
30 491
30 564
30 605
30 631
30 684
30 690
30 866
30 897
30 984
30 1221
30 1362
30 1490
30 1572
30 1992
30 1993
30 1994
30 1995
30 1996
30 1997
30 1998
30 1999
30 2000
30 2001
31 33
31 80
31 126
31 193
31 213
31 299
31 367
31 412
31 432
31 630
31 679
31 862
31 872
31 874
31 990
31 1184
31 1954
31 1993
31 2002
31 2003
31 2004
31 2005
31 2006
31 2007
31 2008
31 2009
31 2010
31 2011
31 2012
31 2032
31 2428
31 2813
32 212
32 227
32 238
32 277
32 393
32 658
32 770
32 869
32 1119
32 1182
32 1221
32 1341
32 1385
32 1425
32 1640
32 1744
32 1746
32 1783
32 2013
32 2014
32 2015
32 2016
32 2017
32 2018
32 2019
32 2020
32 2021
32 2022
32 2023
32 2024
32 2025
32 2026
32 3647
33 23
33 31
33 80
33 149
33 156
33 184
33 187
33 367
33 379
33 436
33 455
33 521
33 583
33 590
33 630
33 671
33 920
33 984
33 1151
33 1276
33 1321
33 1426
33 1469
33 1541
33 1545
33 1977
33 2009
33 2027
33 2028
33 2029
33 2030
33 2031
33 2032
33 2548
34 35
34 75
34 88
34 154
34 185
34 196
34 354
34 585
34 664
34 683
34 949
34 981
34 1167
34 1404
34 1406
34 1421
34 1461
34 1557
34 1752
34 1800
34 1902
34 2033
34 2034
34 2035
34 2036
34 2037
34 2038
34 2039
34 2040
34 2041
34 2042
34 2043
34 2044
34 2045
34 2046
35 34
35 47
35 48
35 64
35 69
35 71
35 75
35 82
35 203
35 205
35 262
35 287
35 295
35 299
35 302
35 313
35 350
35 652
35 978
35 1069
35 1122
35 1172
35 1192
35 1201
35 1231
35 1556
35 1837
35 1923
35 2046
35 2047
35 2048
35 2049
35 2050
35 2051
35 2524
35 2704
36 55
36 56
36 57
36 59
36 77
36 83
36 154
36 168
36 185
36 293
36 331
36 381
36 548
36 664
36 676
36 776
36 794
36 833
36 895
36 983
36 1087
36 1167
36 1206
36 1256
36 1311
36 1395
36 1477
36 1518
36 1672
36 1752
36 2052
36 2053
36 2054
36 2055
36 2056
36 2057
36 2058
37 21
37 41
37 43
37 47
37 75
37 77
37 78
37 79
37 85
37 153
37 294
37 327
37 349
37 525
37 589
37 646
37 664
37 901
37 949
37 981
37 1135
37 1213
37 1227
37 1332
37 1514
37 1527
37 1704
37 1777
37 1962
37 1971
37 1991
37 2059
37 2060
37 2061
37 2062
37 2063
37 2064
37 2065
38 43
38 44
38 47
38 59
38 65
38 71
38 78
38 79
38 85
38 154
38 165
38 175
38 236
38 295
38 298
38 306
38 313
38 334
38 526
38 607
38 646
38 702
38 739
38 794
38 1005
38 1187
38 1192
38 1337
38 1592
38 2066
38 2067
38 2068
38 2069
38 2070
38 2071
38 2072
38 2073
38 2296
38 2935
39 21
39 24
39 47
39 51
39 59
39 60
39 67
39 70
39 74
39 78
39 154
39 167
39 175
39 196
39 311
39 349
39 419
39 648
39 662
39 664
39 712
39 810
39 884
39 1127
39 1202
39 1300
39 1358
39 1461
39 1880
39 2074
39 2075
39 2076
39 2077
39 2078
39 2079
39 2080
39 2081
39 2082
39 2261
39 2449
40 66
40 69
40 77
40 194
40 211
40 292
40 392
40 514
40 641
40 659
40 665
40 721
40 839
40 1060
40 1119
40 1233
40 1358
40 1458
40 1470
40 1523
40 1802
40 1967
40 2016
40 2020
40 2083
40 2084
40 2085
40 2086
40 2087
40 2088
40 2089
40 2090
40 2091
40 2092
40 2093
40 2094
40 2095
40 2096
40 2720
40 3261
40 3684
41 37
41 60
41 65
41 73
41 75
41 82
41 86
41 216
41 330
41 392
41 403
41 409
41 423
41 512
41 526
41 537
41 590
41 702
41 802
41 975
41 1207
41 1227
41 1377
41 1504
41 1635
41 1685
41 1701
41 1764
41 1930
41 1946
41 2097
41 2098
41 2099
41 2100
41 2101
41 2102
41 2103
41 2104
41 2105
41 2106
41 2107
41 2899
42 62
42 101
42 168
42 173
42 203
42 212
42 330
42 352
42 653
42 759
42 835
42 893
42 998
42 1134
42 1154
42 1222
42 1231
42 1308
42 1334
42 1345
42 1615
42 1616
42 1709
42 1842
42 1946
42 2108
42 2109
42 2110
42 2111
42 2112
42 2113
42 2114
42 2115
42 2116
42 2117
42 2118
42 2119
42 2120
42 3496
42 3759
42 3774
42 4109
42 5170
43 22
43 37
43 38
43 54
43 56
43 57
43 64
43 69
43 70
43 71
43 72
43 75
43 78
43 79
43 82
43 85
43 165
43 170
43 194
43 200
43 201
43 203
43 216
43 268
43 401
43 511
43 555
43 700
43 991
43 1143
43 1304
43 1337
43 1461
43 1704
43 1751
43 2082
43 2121
43 2122
43 2123
43 2124
43 2125
43 2126
43 2127
43 2128
44 38
44 57
44 73
44 82
44 85
44 167
44 203
44 214
44 240
44 290
44 315
44 330
44 366
44 585
44 644
44 723
44 801
44 851
44 868
44 900
44 985
44 1069
44 1395
44 1886
44 1887
44 1909
44 1988
44 2068
44 2129
44 2130
44 2131
44 2132
44 2133
44 2134
44 2135
44 2136
44 2137
44 2138
44 2139
44 2140
44 2141
44 2142
44 2340
44 2939
44 3780
45 23
45 49
45 109
45 181
45 273
45 279
45 305
45 335
45 367
45 380
45 384
45 410
45 436
45 512
45 629
45 693
45 718
45 761
45 818
45 829
45 874
45 960
45 973
45 1026
45 1052
45 1583
45 1779
45 1993
45 2092
45 2143
45 2144
45 2145
45 2146
45 2147
45 2148
45 2149
45 2150
45 2151
45 2152
45 2153
45 2154
45 2155
45 2156
45 2840
45 3370
45 5494
46 139
46 169
46 193
46 209
46 219
46 235
46 248
46 259
46 273
46 380
46 409
46 501
46 522
46 631
46 672
46 681
46 836
46 898
46 932
46 935
46 977
46 984
46 1111
46 1320
46 1363
46 1484
46 1546
46 1621
46 1870
46 2011
46 2106
46 2157
46 2158
46 2159
46 2160
46 2161
46 2162
46 2163
46 2164
46 2165
46 2166
46 2167
46 2168
46 2169
46 2260
46 2872
46 2903
47 35
47 37
47 38
47 39
47 56
47 67
47 78
47 85
47 94
47 154
47 167
47 180
47 314
47 321
47 478
47 511
47 664
47 702
47 761
47 767
47 775
47 982
47 1122
47 1146
47 1213
47 1311
47 1332
47 1440
47 1589
47 1774
47 1858
47 1881
47 1920
47 1970
47 1988
47 2062
47 2065
47 2106
47 2170
47 2171
47 2172
47 2173
47 2174
47 2175
47 2176
47 2177
47 2178
47 5090
48 35
48 71
48 73
48 124
48 141
48 205
48 236
48 289
48 331
48 403
48 526
48 664
48 676
48 700
48 766
48 802
48 900
48 902
48 925
48 975
48 1022
48 1076
48 1128
48 1202
48 1395
48 1515
48 1680
48 1775
48 1902
48 1934
48 1942
48 2179
48 2180
48 2181
48 2182
48 2183
48 2184
48 2185
48 2186
48 2187
48 2188
48 2189
48 2190
48 2191
48 2425
48 2460
48 6278
48 6549
49 45
49 52
49 126
49 149
49 174
49 189
49 197
49 225
49 310
49 322
49 324
49 659
49 707
49 841
49 1069
49 1096
49 1140
49 1191
49 1289
49 1385
49 1476
49 1509
49 1602
49 1763
49 1797
49 1872
49 1913
49 2192
49 2193
49 2194
49 2195
49 2196
49 2197
49 2198
49 2199
49 2200
49 2201
49 2202
49 2203
49 2204
49 2205
49 2206
49 2207
49 2610
49 2848
49 3187
49 3838
50 28
50 51
50 69
50 71
50 72
50 74
50 81
50 83
50 86
50 114
50 115
50 224
50 304
50 306
50 405
50 513
50 541
50 551
50 675
50 721
50 801
50 921
50 996
50 1005
50 1122
50 1167
50 1206
50 1461
50 1577
50 1592
50 1755
50 1760
50 1794
50 2035
50 2208
50 2209
50 2210
50 2211
50 2212
50 2213
50 2214
50 2215
50 2216
50 2217
50 2218
50 2226
50 2489
50 2876
50 3294
50 4979
50 5123
51 17
51 27
51 39
51 50
51 59
51 66
51 94
51 153
51 204
51 205
51 289
51 357
51 548
51 706
51 767
51 801
51 854
51 1122
51 1178
51 1202
51 1213
51 1227
51 1300
51 1351
51 1556
51 1576
51 1697
51 1777
51 1921
51 1934
51 1970
51 2033
51 2122
51 2186
51 2219
51 2220
51 2221
51 2222
51 2223
51 2224
51 2225
51 2226
51 2227
51 2228
51 2229
51 2230
51 2297
51 2579
51 2693
51 3114
51 3409
51 5178
52 22
52 23
52 26
52 49
52 80
52 149
52 156
52 159
52 162
52 169
52 183
52 193
52 307
52 356
52 455
52 492
52 590
52 660
52 691
52 693
52 810
52 819
52 855
52 862
52 867
52 899
52 976
52 979
52 1151
52 1276
52 1696
52 1927
52 2231
52 2232
52 2233
52 2234
52 2235
52 2236
52 2237
52 2238
52 2239
52 2240
52 2241
52 2242
52 2243
52 2244
52 2281
52 2729
52 3081
52 3617
52 4119
52 4823
52 4924
53 28
53 63
53 64
53 117
53 155
53 157
53 197
53 211
53 219
53 233
53 273
53 308
53 322
53 593
53 788
53 810
53 816
53 915
53 935
53 956
53 1082
53 1131
53 1355
53 1762
53 1780
53 1866
53 2116
53 2184
53 2245
53 2246
53 2247
53 2248
53 2249
53 2250
53 2251
53 2252
53 2253
53 2254
53 2255
53 2256
53 2257
53 2258
53 2259
53 2260
53 2350
53 2398
53 2573
53 2837
53 3095
53 3340
53 3519
53 5728
53 5761
53 5798
54 17
54 25
54 43
54 58
54 59
54 67
54 74
54 77
54 138
54 141
54 204
54 216
54 217
54 305
54 316
54 702
54 942
54 943
54 982
54 1311
54 1314
54 1400
54 1485
54 1524
54 1681
54 1683
54 1687
54 1732
54 1755
54 1851
54 1868
54 1888
54 2106
54 2123
54 2126
54 2261
54 2262
54 2263
54 2264
54 2265
54 2266
54 2267
54 2268
54 2269
54 2270
54 2271
54 2272
54 2273
54 2274
54 2307
54 2550
54 2584
54 2728
54 2753
54 2799
55 36
55 56
55 60
55 64
55 67
55 74
55 79
55 81
55 82
55 83
55 85
55 86
55 87
55 123
55 124
55 138
55 180
55 262
55 321
55 333
55 334
55 415
55 483
55 512
55 538
55 564
55 630
55 667
55 698
55 700
55 702
55 736
55 739
55 987
55 1127
55 1143
55 1203
55 1362
55 1365
55 1461
55 1557
55 1751
55 1903
55 2059
55 2275
55 2276
55 2277
55 2278
55 2279
55 2280
55 2281
55 2282
55 2283
55 2559
55 2888
55 2910
56 36
56 43
56 47
56 55
56 56
56 70
56 71
56 75
56 84
56 86
56 123
56 167
56 170
56 193
56 256
56 350
56 392
56 421
56 469
56 700
56 807
56 863
56 892
56 1275
56 1304
56 1377
56 1614
56 1618
56 1747
56 1927
56 1930
56 1937
56 1946
56 1966
56 2036
56 2094
56 2099
56 2100
56 2124
56 2125
56 2284
56 2285
56 2286
56 2287
56 2288
56 2289
56 2290
56 2291
56 2292
56 2293
56 2294
56 2295
56 2514
56 2587
56 2743
56 4615
56 4669
57 36
57 43
57 44
57 75
57 82
57 85
57 118
57 167
57 171
57 185
57 196
57 224
57 295
57 595
57 676
57 901
57 968
57 1044
57 1090
57 1143
57 1311
57 1350
57 1440
57 1518
57 1527
57 1652
57 1749
57 1752
57 1794
57 1855
57 1923
57 2055
57 2057
57 2065
57 2097
57 2122
57 2174
57 2212
57 2225
57 2296
57 2297
57 2298
57 2299
57 2300
57 2301
57 2302
57 2303
57 2304
57 2305
57 2306
57 2307
57 2414
57 2796
57 3539
57 3540
57 5468
57 5857
58 54
58 72
58 81
58 84
58 140
58 142
58 143
58 185
58 216
58 218
58 364
58 417
58 479
58 495
58 528
58 646
58 649
58 696
58 711
58 723
58 799
58 871
58 1191
58 1306
58 1370
58 1371
58 1518
58 1676
58 1702
58 1712
58 2022
58 2308
58 2309
58 2310
58 2311
58 2312
58 2313
58 2314
58 2315
58 2316
58 2317
58 2318
58 2319
58 2320
58 2321
58 2322
58 2323
58 2324
58 2325
58 2326
58 2327
58 2328
58 2329
58 2735
58 2764
58 2824
58 4272
58 4642
59 17
59 25
59 29
59 36
59 38
59 39
59 51
59 54
59 67
59 70
59 71
59 75
59 77
59 79
59 85
59 86
59 102
59 108
59 175
59 190
59 191
59 194
59 196
59 381
59 401
59 459
59 510
59 548
59 582
59 594
59 607
59 639
59 646
59 662
59 702
59 719
59 775
59 821
59 895
59 982
59 1040
59 1122
59 1146
59 1185
59 1192
59 1213
59 1527
59 1577
59 1732
59 1737
59 1908
59 1988
59 2037
59 2330
59 2331
59 2332
59 2333
59 2334
59 2335
59 2336
60 39
60 41
60 55
60 65
60 74
60 75
60 78
60 87
60 110
60 123
60 124
60 141
60 170
60 176
60 205
60 212
60 216
60 281
60 377
60 393
60 411
60 513
60 664
60 701
60 760
60 774
60 965
60 993
60 1081
60 1201
60 1233
60 1266
60 1421
60 1513
60 1590
60 1629
60 1668
60 1718
60 1800
60 1830
60 2080
60 2107
60 2290
60 2292
60 2337
60 2338
60 2339
60 2340
60 2341
60 2342
60 2343
60 2344
60 2345
60 2346
60 2347
60 2348
60 2349
60 2350
60 2351
60 3013
61 61
61 88
61 212
61 351
61 381
61 551
61 591
61 592
61 595
61 598
61 648
61 695
61 733
61 834
61 1043
61 1076
61 1212
61 1239
61 1297
61 1334
61 1356
61 1373
61 1393
61 1406
61 1442
61 1444
61 1486
61 1645
61 1672
61 1673
61 1736
61 1751
61 1775
61 1828
61 2179
61 2188
61 2352
61 2353
61 2354
61 2355
61 2356
61 2357
61 2358
61 2359
61 2360
61 2361
61 2362
61 2363
61 2364
61 2365
61 2366
61 2367
61 2368
61 2369
61 2370
61 2371
61 2372
61 2373
61 2669
61 2731
61 2902
61 3039
62 42
62 116
62 148
62 149
62 186
62 192
62 195
62 215
62 300
62 304
62 408
62 491
62 508
62 621
62 647
62 661
62 714
62 718
62 773
62 782
62 813
62 872
62 891
62 904
62 924
62 1014
62 1030
62 1072
62 1147
62 1274
62 1323
62 1488
62 1674
62 2022
62 2187
62 2374
62 2375
62 2376
62 2377
62 2378
62 2379
62 2380
62 2381
62 2382
62 2383
62 2384
62 2385
62 2386
62 2387
62 2388
62 2919
62 3240
62 3528
62 3788
62 3903
62 4010
62 4543
62 5378
62 6699
62 6709
63 53
63 80
63 149
63 189
63 259
63 282
63 288
63 322
63 335
63 342
63 345
63 374
63 383
63 384
63 412
63 536
63 559
63 611
63 667
63 678
63 691
63 717
63 759
63 786
63 793
63 847
63 924
63 929
63 972
63 1072
63 1148
63 1221
63 1374
63 1394
63 1409
63 1484
63 1490
63 1519
63 1559
63 1586
63 1598
63 1602
63 1713
63 1770
63 1778
63 1783
63 2339
63 2389
63 2390
63 2391
63 2392
63 2393
63 2394
63 2395
63 2396
63 2397
63 2398
63 2399
63 2400
63 2401
63 2402
63 2403
63 3412
63 4303
63 5485
64 17
64 21
64 35
64 43
64 53
64 55
64 67
64 70
64 71
64 73
64 74
64 77
64 82
64 108
64 124
64 196
64 203
64 211
64 288
64 294
64 308
64 339
64 461
64 589
64 607
64 652
64 774
64 810
64 927
64 981
64 995
64 1053
64 1068
64 1076
64 1300
64 1681
64 1942
64 1945
64 1946
64 1949
64 1979
64 2010
64 2042
64 2090
64 2125
64 2142
64 2190
64 2225
64 2286
64 2368
64 2404
64 2405
64 2406
64 2407
64 2408
64 2409
64 2410
64 2411
64 2412
64 2413
64 2414
64 2415
64 2416
64 2417
64 2418
64 2769
64 3583
65 18
65 38
65 41
65 60
65 67
65 86
65 87
65 94
65 124
65 125
65 168
65 170
65 176
65 189
65 212
65 215
65 289
65 303
65 316
65 339
65 352
65 434
65 478
65 553
65 806
65 854
65 901
65 1076
65 1081
65 1127
65 1336
65 1459
65 1614
65 1615
65 1628
65 1832
65 1873
65 1900
65 1927
65 1942
65 2101
65 2134
65 2141
65 2368
65 2418
65 2419
65 2420
65 2421
65 2422
65 2423
65 2424
65 2425
65 2426
65 2427
65 2428
65 2429
65 2430
65 2431
65 2432
65 2433
65 2434
65 2435
65 2436
65 2437
65 2438
65 3773
65 3842
65 4286
65 5134
66 40
66 51
66 77
66 78
66 88
66 170
66 194
66 202
66 203
66 255
66 296
66 313
66 339
66 381
66 392
66 399
66 421
66 511
66 587
66 589
66 712
66 719
66 760
66 781
66 801
66 803
66 943
66 949
66 1037
66 1090
66 1127
66 1392
66 1527
66 1681
66 1683
66 1700
66 1732
66 1735
66 1748
66 1849
66 1908
66 1919
66 1921
66 1989
66 2042
66 2069
66 2091
66 2123
66 2286
66 2333
66 2439
66 2440
66 2441
66 2442
66 2443
66 2444
66 2445
66 2446
66 2447
66 2448
66 2449
66 2450
66 2451
66 2452
66 2453
66 2454
66 2455
66 2456
66 2942
66 5543
67 39
67 47
67 54
67 55
67 59
67 64
67 65
67 70
67 71
67 74
67 77
67 87
67 125
67 153
67 254
67 294
67 295
67 302
67 311
67 392
67 415
67 537
67 589
67 594
67 648
67 749
67 901
67 982
67 1005
67 1040
67 1107
67 1122
67 1146
67 1207
67 1220
67 1312
67 1406
67 1681
67 1734
67 1758
67 1847
67 1932
67 1934
67 1949
67 2063
67 2097
67 2140
67 2178
67 2186
67 2191
67 2229
67 2266
67 2296
67 2354
67 2360
67 2457
67 2458
67 2459
67 2460
67 2461
67 2462
67 2463
67 2464
67 2465
67 2466
67 2467
67 2468
67 2469
67 2506
67 2614
67 2800
68 79
68 80
68 101
68 121
68 122
68 129
68 164
68 211
68 263
68 281
68 312
68 328
68 338
68 360
68 374
68 405
68 416
68 532
68 619
68 704
68 782
68 813
68 836
68 844
68 880
68 932
68 961
68 964
68 1090
68 1140
68 1233
68 1261
68 1276
68 1362
68 1453
68 1502
68 1635
68 1646
68 1724
68 1729
68 1734
68 1862
68 1913
68 2061
68 2095
68 2159
68 2339
68 2394
68 2470
68 2471
68 2472
68 2473
68 2474
68 2475
68 2476
68 2477
68 2478
68 2479
68 2480
68 2481
68 2482
68 2483
68 2675
68 3122
68 4041
68 4172
68 4954
68 5199
68 5280
68 5331
68 6482
69 28
69 35
69 40
69 43
69 50
69 72
69 81
69 83
69 102
69 123
69 154
69 167
69 201
69 216
69 240
69 287
69 318
69 405
69 551
69 665
69 706
69 721
69 802
69 807
69 901
69 919
69 1167
69 1173
69 1209
69 1311
69 1349
69 1365
69 1400
69 1426
69 1518
69 1589
69 1691
69 1846
69 1909
69 1932
69 1962
69 2039
69 2055
69 2105
69 2125
69 2218
69 2234
69 2297
69 2373
69 2484
69 2485
69 2486
69 2487
69 2488
69 2489
69 2490
69 2491
69 2492
69 2493
69 2494
69 2495
69 2496
69 2497
69 2498
69 2499
69 2500
69 2501
69 2502
69 2503
69 3390
69 4486
69 4625
69 5709
70 21
70 39
70 43
70 56
70 59
70 64
70 67
70 71
70 77
70 108
70 170
70 205
70 225
70 296
70 306
70 339
70 514
70 640
70 652
70 662
70 676
70 712
70 932
70 943
70 1021
70 1065
70 1125
70 1143
70 1215
70 1234
70 1450
70 1456
70 1461
70 1468
70 1562
70 1691
70 1777
70 1908
70 1940
70 1943
70 1945
70 2045
70 2047
70 2123
70 2183
70 2286
70 2309
70 2351
70 2498
70 2504
70 2505
70 2506
70 2507
70 2508
70 2509
70 2510
70 2511
70 2512
70 2513
70 2514
70 2515
70 2516
70 2517
70 2518
70 2519
70 2520
70 2566
70 2577
70 2619
70 2630
70 2905
70 2916
70 3289
71 19
71 25
71 29
71 35
71 38
71 43
71 48
71 50
71 56
71 59
71 64
71 67
71 70
71 75
71 87
71 167
71 185
71 254
71 275
71 331
71 334
71 339
71 495
71 555
71 585
71 595
71 647
71 695
71 706
71 774
71 807
71 877
71 901
71 905
71 925
71 1005
71 1011
71 1039
71 1040
71 1172
71 1202
71 1365
71 1459
71 1461
71 1485
71 1613
71 1726
71 1727
71 1934
71 1942
71 1959
71 1970
71 2074
71 2183
71 2188
71 2226
71 2301
71 2355
71 2373
71 2406
71 2412
71 2414
71 2432
71 2495
71 2521
71 2522
71 2523
71 2524
71 2525
71 2526
71 2527
71 2528
71 2529
71 2530
71 2531
71 5131
72 43
72 50
72 58
72 69
72 81
72 84
72 86
72 88
72 176
72 180
72 185
72 216
72 224
72 240
72 254
72 255
72 275
72 287
72 302
72 350
72 366
72 420
72 451
72 459
72 514
72 551
72 664
72 706
72 721
72 742
72 905
72 940
72 1029
72 1042
72 1167
72 1204
72 1233
72 1277
72 1280
72 1291
72 1302
72 1446
72 1496
72 1518
72 1655
72 1876
72 1902
72 1919
72 1960
72 2044
72 2080
72 2121
72 2126
72 2216
72 2285
72 2297
72 2352
72 2361
72 2415
72 2486
72 2493
72 2500
72 2501
72 2532
72 2533
72 2534
72 2535
72 2536
72 2537
72 2538
72 2539
72 2540
72 2541
72 2542
72 2714
72 3287
72 3520
72 3971
72 5560
73 18
73 41
73 44
73 48
73 64
73 75
73 81
73 120
73 123
73 215
73 263
73 281
73 282
73 290
73 300
73 315
73 316
73 338
73 339
73 352
73 358
73 413
73 434
73 608
73 662
73 793
73 925
73 975
73 1245
73 1350
73 1361
73 1415
73 1441
73 1469
73 1473
73 1496
73 1583
73 1615
73 1635
73 1777
73 1823
73 1827
73 1849
73 1887
73 1938
73 1979
73 2061
73 2097
73 2132
73 2133
73 2135
73 2260
73 2286
73 2339
73 2368
73 2419
73 2466
73 2543
73 2544
73 2545
73 2546
73 2547
73 2548
73 2549
73 2550
73 2551
73 2552
73 2553
73 2554
73 2555
73 2556
73 2557
73 2558
73 2578
73 2648
73 2654
73 3483
73 3498
73 4958
73 5550
74 39
74 50
74 54
74 55
74 60
74 64
74 67
74 77
74 81
74 82
74 86
74 102
74 124
74 125
74 170
74 171
74 175
74 196
74 200
74 274
74 289
74 295
74 339
74 366
74 415
74 489
74 652
74 662
74 716
74 1068
74 1069
74 1081
74 1143
74 1238
74 1254
74 1389
74 1395
74 1461
74 1527
74 1583
74 1719
74 1856
74 1938
74 1943
74 1946
74 1970
74 2066
74 2097
74 2121
74 2123
74 2225
74 2291
74 2352
74 2406
74 2559
74 2560
74 2561
74 2562
74 2563
74 2564
74 2565
74 2566
74 2567
74 2568
74 2569
74 2570
74 2571
74 2572
74 2573
74 2574
74 2575
74 2576
74 2577
74 2578
74 2579
74 2619
74 3378
74 4368
74 4755
75 34
75 35
75 37
75 41
75 43
75 56
75 57
75 59
75 60
75 71
75 73
75 82
75 83
75 103
75 108
75 170
75 240
75 254
75 306
75 334
75 403
75 415
75 511
75 526
75 607
75 647
75 664
75 676
75 775
75 795
75 900
75 948
75 949
75 1005
75 1122
75 1280
75 1372
75 1400
75 1440
75 1514
75 1548
75 1681
75 1700
75 1855
75 1970
75 2037
75 2089
75 2097
75 2121
75 2175
75 2220
75 2227
75 2347
75 2373
75 2457
75 2464
75 2469
75 2519
75 2530
75 2539
75 2558
75 2576
75 2580
75 2581
75 2582
75 2583
75 2584
75 2585
75 2586
75 2587
75 2588
75 2589
75 2590
75 2591
75 2592
75 2593
75 2594
75 2595
75 2624
75 2786
75 2933
76 80
76 85
76 100
76 122
76 166
76 188
76 195
76 211
76 214
76 249
76 308
76 374
76 403
76 411
76 430
76 461
76 490
76 512
76 626
76 635
76 648
76 669
76 698
76 756
76 810
76 813
76 871
76 932
76 984
76 1004
76 1009
76 1059
76 1141
76 1158
76 1219
76 1233
76 1380
76 1457
76 1569
76 1591
76 1695
76 1778
76 1779
76 1829
76 1836
76 1952
76 1967
76 2059
76 2142
76 2159
76 2345
76 2596
76 2597
76 2598
76 2599
76 2600
76 2601
76 2602
76 2603
76 2604
76 2605
76 2606
76 2607
76 2608
76 2609
76 2610
76 2611
76 2612
76 2613
76 3270
76 3597
76 3657
76 3662
76 3741
76 3758
76 5004
76 5133
76 5234
76 5637
76 6639
77 17
77 21
77 29
77 36
77 37
77 40
77 54
77 59
77 64
77 66
77 67
77 70
77 74
77 79
77 81
77 83
77 86
77 88
77 114
77 167
77 171
77 185
77 205
77 225
77 333
77 339
77 416
77 421
77 483
77 489
77 511
77 589
77 595
77 607
77 662
77 665
77 695
77 712
77 776
77 801
77 1006
77 1037
77 1122
77 1167
77 1187
77 1201
77 1214
77 1450
77 1461
77 1557
77 1577
77 1681
77 1733
77 1737
77 1792
77 1851
77 1855
77 1988
77 2037
77 2047
77 2082
77 2091
77 2123
77 2336
77 2404
77 2405
77 2406
77 2408
77 2419
77 2458
77 2498
77 2541
77 2572
77 2614
77 2615
77 2616
77 2617
77 2618
77 2619
77 2620
77 2621
77 2622
77 2623
77 2624
77 2685
77 4287
78 19
78 24
78 29
78 37
78 38
78 39
78 43
78 47
78 60
78 66
78 85
78 86
78 87
78 153
78 296
78 311
78 313
78 321
78 327
78 381
78 415
78 421
78 511
78 548
78 585
78 587
78 595
78 649
78 676
78 854
78 975
78 1037
78 1039
78 1122
78 1202
78 1256
78 1308
78 1361
78 1377
78 1392
78 1400
78 1513
78 1584
78 1609
78 1671
78 1725
78 1732
78 1747
78 1754
78 1837
78 1857
78 1909
78 1921
78 1962
78 2035
78 2074
78 2097
78 2175
78 2227
78 2231
78 2261
78 2406
78 2408
78 2508
78 2565
78 2625
78 2626
78 2627
78 2628
78 2629
78 2630
78 2631
78 2632
78 2633
78 2634
78 2635
78 2636
78 2637
78 2638
78 2639
78 2640
78 2748
78 2749
78 2816
78 2867
78 3680
78 5020
79 18
79 19
79 37
79 38
79 43
79 55
79 59
79 68
79 77
79 82
79 85
79 87
79 124
79 133
79 153
79 176
79 180
79 188
79 196
79 205
79 212
79 282
79 311
79 502
79 531
79 585
79 648
79 652
79 657
79 706
79 711
79 774
79 779
79 834
79 877
79 925
79 927
79 981
79 984
79 1037
79 1128
79 1143
79 1167
79 1236
79 1244
79 1277
79 1311
79 1350
79 1369
79 1475
79 1556
79 1582
79 1592
79 1672
79 1758
79 1946
79 2285
79 2297
79 2352
79 2355
79 2422
79 2432
79 2454
79 2458
79 2508
79 2518
79 2525
79 2537
79 2571
79 2617
79 2632
79 2641
79 2642
79 2643
79 2644
79 2645
79 2646
79 2647
79 2648
79 2649
79 2650
79 2651
79 2652
79 2653
79 2654
79 2655
79 2691
79 3168
79 3590
80 20
80 31
80 33
80 52
80 63
80 68
80 76
80 82
80 85
80 133
80 183
80 187
80 193
80 195
80 198
80 210
80 235
80 249
80 272
80 273
80 281
80 283
80 305
80 321
80 356
80 367
80 371
80 374
80 382
80 384
80 391
80 398
80 410
80 414
80 416
80 435
80 444
80 530
80 562
80 593
80 599
80 604
80 630
80 678
80 788
80 833
80 863
80 864
80 892
80 897
80 929
80 969
80 982
80 1009
80 1018
80 1026
80 1079
80 1096
80 1144
80 1149
80 1153
80 1225
80 1240
80 1276
80 1325
80 1496
80 1547
80 1811
80 1927
80 2029
80 2032
80 2106
80 2165
80 2475
80 2591
80 2656
80 2657
80 2658
80 2659
80 2660
80 2661
80 2662
80 2663
80 2664
80 2665
80 2666
80 2834
80 4381
80 5450
81 28
81 50
81 55
81 58
81 69
81 72
81 73
81 74
81 77
81 83
81 84
81 86
81 87
81 110
81 123
81 170
81 196
81 201
81 204
81 213
81 226
81 236
81 275
81 289
81 334
81 413
81 468
81 555
81 664
81 711
81 799
81 883
81 905
81 1012
81 1021
81 1022
81 1023
81 1143
81 1145
81 1214
81 1245
81 1280
81 1282
81 1323
81 1347
81 1357
81 1365
81 1404
81 1424
81 1487
81 1558
81 1630
81 1641
81 1718
81 1729
81 1792
81 1823
81 1846
81 1942
81 1946
81 2089
81 2090
81 2095
81 2183
81 2290
81 2300
81 2418
81 2425
81 2427
81 2490
81 2537
81 2553
81 2667
81 2668
81 2669
81 2670
81 2671
81 2672
81 2673
81 2674
81 2675
81 2676
81 2677
81 2678
81 2679
81 2722
81 2761
81 2770
81 2881
81 5076
82 14
82 17
82 23
82 35
82 41
82 43
82 44
82 55
82 57
82 64
82 74
82 75
82 79
82 80
82 85
82 87
82 115
82 129
82 196
82 203
82 212
82 234
82 281
82 294
82 295
82 306
82 307
82 316
82 334
82 421
82 436
82 530
82 563
82 647
82 672
82 702
82 760
82 900
82 1068
82 1076
82 1144
82 1202
82 1280
82 1308
82 1313
82 1316
82 1362
82 1395
82 1400
82 1420
82 1496
82 1699
82 1727
82 1777
82 1793
82 1991
82 2010
82 2076
82 2137
82 2261
82 2291
82 2296
82 2301
82 2340
82 2409
82 2411
82 2530
82 2556
82 2680
82 2681
82 2682
82 2683
82 2684
82 2685
82 2686
82 2687
82 2688
82 2689
82 2690
82 2691
82 2692
82 2693
82 2694
82 2695
82 2869
82 2936
82 3613
82 3932
82 4818
82 5246
82 5318
83 36
83 50
83 55
83 69
83 75
83 77
83 81
83 123
83 140
83 203
83 208
83 282
83 314
83 331
83 334
83 414
83 423
83 483
83 495
83 511
83 520
83 555
83 649
83 659
83 712
83 721
83 802
83 807
83 833
83 880
83 884
83 905
83 921
83 925
83 978
83 993
83 996
83 1005
83 1181
83 1203
83 1215
83 1241
83 1258
83 1282
83 1312
83 1319
83 1477
83 1518
83 1589
83 1605
83 1614
83 1673
83 1694
83 1718
83 1791
83 1798
83 1799
83 1879
83 1928
83 1946
83 2057
83 2100
83 2103
83 2124
83 2138
83 2160
83 2189
83 2230
83 2286
83 2322
83 2360
83 2379
83 2411
83 2432
83 2628
83 2688
83 2696
83 2697
83 2698
83 2699
83 2700
83 2701
83 2702
83 2703
83 2704
83 2705
83 2706
83 2707
83 2708
83 2709
83 2710
83 2711
83 2909
83 4198
83 4398
83 5574
83 5887
84 56
84 58
84 72
84 81
84 101
84 118
84 136
84 176
84 180
84 182
84 208
84 218
84 226
84 263
84 289
84 298
84 318
84 331
84 373
84 398
84 403
84 468
84 472
84 591
84 649
84 664
84 665
84 702
84 721
84 733
84 770
84 774
84 799
84 970
84 997
84 1023
84 1059
84 1141
84 1202
84 1233
84 1266
84 1319
84 1321
84 1349
84 1424
84 1487
84 1521
84 1589
84 1593
84 1614
84 1640
84 1646
84 1677
84 1755
84 1780
84 1814
84 1828
84 1831
84 1847
84 1873
84 1875
84 1888
84 1906
84 1998
84 2080
84 2088
84 2124
84 2187
84 2321
84 2322
84 2323
84 2407
84 2489
84 2558
84 2712
84 2713
84 2714
84 2715
84 2716
84 2717
84 2718
84 2719
84 2720
84 2721
84 2722
84 2723
84 2724
84 2725
84 2726
84 2727
84 2728
84 2729
84 2730
84 2731
84 2732
84 2733
84 2734
84 2735
84 2736
84 2907
84 3261
84 3268
84 3427
84 3819
84 4037
84 4343
84 4857
84 4880
84 5842
85 24
85 29
85 37
85 38
85 43
85 44
85 47
85 55
85 57
85 59
85 76
85 78
85 79
85 80
85 82
85 138
85 153
85 170
85 180
85 202
85 204
85 208
85 216
85 255
85 306
85 321
85 332
85 339
85 522
85 564
85 585
85 604
85 645
85 702
85 736
85 740
85 807
85 823
85 907
85 921
85 925
85 942
85 993
85 1005
85 1069
85 1122
85 1127
85 1213
85 1280
85 1313
85 1395
85 1416
85 1461
85 1514
85 1524
85 1527
85 1548
85 1568
85 1594
85 1609
85 1625
85 1698
85 1719
85 1843
85 1881
85 1903
85 1940
85 1944
85 1970
85 1988
85 1991
85 2045
85 2062
85 2068
85 2073
85 2097
85 2225
85 2228
85 2285
85 2408
85 2418
85 2462
85 2490
85 2520
85 2561
85 2619
85 2627
85 2640
85 2641
85 2737
85 2738
85 2739
85 2740
85 2741
85 2742
85 2743
85 2744
85 2745
85 2746
85 2747
85 2748
85 2749
85 2750
85 2751
85 2752
85 2753
85 2854
85 3050
85 3851
85 4052
85 4624
85 5823
85 6187
85 6326
85 6499
86 41
86 50
86 55
86 56
86 59
86 65
86 72
86 74
86 77
86 78
86 81
86 123
86 146
86 170
86 180
86 185
86 201
86 205
86 254
86 260
86 275
86 333
86 334
86 339
86 357
86 420
86 460
86 483
86 551
86 555
86 657
86 664
86 665
86 676
86 760
86 799
86 802
86 821
86 830
86 831
86 844
86 905
86 979
86 996
86 1023
86 1042
86 1043
86 1207
86 1214
86 1282
86 1302
86 1310
86 1356
86 1365
86 1372
86 1396
86 1487
86 1511
86 1514
86 1518
86 1535
86 1558
86 1608
86 1612
86 1614
86 1629
86 1647
86 1677
86 1690
86 1729
86 1734
86 1793
86 1802
86 1815
86 1823
86 1831
86 1849
86 1946
86 1964
86 1976
86 1998
86 2051
86 2073
86 2095
86 2134
86 2160
86 2185
86 2213
86 2218
86 2234
86 2287
86 2321
86 2331
86 2338
86 2368
86 2411
86 2427
86 2434
86 2518
86 2552
86 2553
86 2555
86 2668
86 2729
86 2754
86 2755
86 2756
86 2757
86 2758
86 2759
86 2760
86 2761
86 2762
86 2763
86 2764
86 2765
86 2766
86 2767
86 2768
86 2769
86 2770
86 2771
86 2772
86 2938
86 3273
86 3479
86 3671
86 3825
86 3898
86 4154
86 4599
86 5713
87 18
87 19
87 28
87 55
87 60
87 65
87 67
87 71
87 78
87 79
87 81
87 82
87 123
87 125
87 153
87 179
87 180
87 224
87 227
87 242
87 281
87 298
87 334
87 357
87 389
87 391
87 411
87 437
87 459
87 479
87 537
87 553
87 587
87 623
87 639
87 664
87 676
87 774
87 794
87 799
87 849
87 871
87 901
87 932
87 943
87 949
87 1011
87 1012
87 1021
87 1068
87 1090
87 1156
87 1172
87 1236
87 1277
87 1311
87 1333
87 1334
87 1365
87 1369
87 1393
87 1424
87 1457
87 1459
87 1523
87 1548
87 1556
87 1557
87 1615
87 1627
87 1681
87 1700
87 1728
87 1752
87 1830
87 1832
87 1892
87 1901
87 1903
87 1923
87 1931
87 1946
87 2034
87 2038
87 2039
87 2042
87 2060
87 2066
87 2069
87 2073
87 2141
87 2179
87 2180
87 2216
87 2219
87 2227
87 2265
87 2266
87 2348
87 2353
87 2365
87 2373
87 2385
87 2405
87 2407
87 2410
87 2418
87 2419
87 2434
87 2445
87 2449
87 2463
87 2505
87 2518
87 2527
87 2531
87 2587
87 2589
87 2617
87 2620
87 2654
87 2667
87 2669
87 2749
87 2773
87 2774
87 2775
87 2776
87 2777
87 2778
87 2779
87 2780
87 2781
87 2782
87 2783
87 2784
87 2785
87 2786
87 2787
87 2788
87 2789
87 2790
87 2791
87 2792
87 2793
87 2794
87 2795
87 2796
87 2797
87 2798
87 2799
87 2800
87 2801
87 2802
87 2829
87 2830
87 2852
87 2884
87 2894
87 2912
87 2925
87 3267
87 3300
87 3345
87 3485
87 3790
87 3821
87 4288
87 5244
87 5536
87 5552
87 5841
88 15
88 24
88 30
88 34
88 61
88 66
88 72
88 77
88 90
88 100
88 108
88 114
88 126
88 144
88 155
88 159
88 160
88 171
88 176
88 188
88 194
88 197
88 224
88 229
88 232
88 233
88 242
88 252
88 260
88 262
88 277
88 282
88 283
88 287
88 289
88 292
88 293
88 301
88 314
88 315
88 318
88 327
88 331
88 332
88 333
88 350
88 354
88 356
88 357
88 359
88 366
88 372
88 383
88 388
88 402
88 409
88 416
88 419
88 431
88 437
88 467
88 483
88 502
88 513
88 526
88 528
88 531
88 548
88 549
88 552
88 558
88 566
88 577
88 595
88 596
88 604
88 605
88 608
88 611
88 614
88 633
88 637
88 648
88 652
88 662
88 665
88 666
88 679
88 685
88 695
88 696
88 700
88 710
88 732
88 744
88 755
88 759
88 766
88 767
88 775
88 778
88 786
88 796
88 799
88 830
88 841
88 842
88 847
88 851
88 861
88 895
88 902
88 907
88 929
88 949
88 960
88 968
88 994
88 998
88 1017
88 1026
88 1029
88 1035
88 1037
88 1057
88 1065
88 1069
88 1075
88 1076
88 1089
88 1091
88 1093
88 1095
88 1102
88 1106
88 1111
88 1121
88 1126
88 1156
88 1173
88 1179
88 1183
88 1189
88 1202
88 1207
88 1213
88 1229
88 1238
88 1252
88 1256
88 1268
88 1287
88 1293
88 1297
88 1304
88 1305
88 1310
88 1311
88 1312
88 1313
88 1320
88 1328
88 1332
88 1333
88 1334
88 1343
88 1349
88 1357
88 1359
88 1361
88 1369
88 1371
88 1372
88 1376
88 1379
88 1397
88 1400
88 1406
88 1415
88 1418
88 1424
88 1428
88 1455
88 1471
88 1479
88 1481
88 1485
88 1502
88 1520
88 1524
88 1536
88 1556
88 1561
88 1562
88 1567
88 1568
88 1574
88 1575
88 1577
88 1586
88 1597
88 1600
88 1609
88 1612
88 1620
88 1624
88 1625
88 1642
88 1659
88 1660
88 1671
88 1672
88 1674
88 1678
88 1683
88 1690
88 1693
88 1695
88 1716
88 1725
88 1731
88 1732
88 1733
88 1743
88 1755
88 1758
88 1759
88 1787
88 1788
88 1817
88 1823
88 1844
88 1848
88 1849
88 1850
88 1852
88 1857
88 1860
88 1865
88 1881
88 1884
88 1888
88 1889
88 1892
88 1895
88 1898
88 1901
88 1904
88 1908
88 1919
88 1922
88 1923
88 1930
88 1932
88 1935
88 1936
88 1937
88 1938
88 1944
88 1951
88 1957
88 1958
88 1961
88 1976
88 1978
88 1982
88 1986
88 1989
88 1992
88 1996
88 1997
88 2013
88 2018
88 2026
88 2032
88 2036
88 2042
88 2056
88 2059
88 2060
88 2069
88 2073
88 2074
88 2078
88 2081
88 2092
88 2105
88 2109
88 2123
88 2125
88 2130
88 2131
88 2133
88 2137
88 2139
88 2141
88 2150
88 2164
88 2168
88 2169
88 2172
88 2178
88 2180
88 2184
88 2185
88 2199
88 2200
88 2210
88 2211
88 2213
88 2216
88 2229
88 2235
88 2242
88 2247
88 2252
88 2259
88 2261
88 2266
88 2267
88 2276
88 2283
88 2294
88 2295
88 2297
88 2304
88 2312
88 2316
88 2317
88 2319
88 2322
88 2335
88 2337
88 2340
88 2351
88 2360
88 2373
88 2385
88 2390
88 2408
88 2415
88 2416
88 2418
88 2421
88 2423
88 2427
88 2434
88 2437
88 2440
88 2441
88 2442
88 2449
88 2464
88 2484
88 2494
88 2497
88 2505
88 2512
88 2517
88 2518
88 2519
88 2521
88 2526
88 2527
88 2531
88 2538
88 2541
88 2553
88 2554
88 2555
88 2556
88 2557
88 2565
88 2567
88 2572
88 2582
88 2595
88 2603
88 2614
88 2620
88 2623
88 2627
88 2631
88 2640
88 2650
88 2679
88 2685
88 2692
88 2694
88 2697
88 2698
88 2703
88 2711
88 2714
88 2716
88 2731
88 2733
88 2736
88 2746
88 2747
88 2751
88 2765
88 2766
88 2780
88 2786
88 2790
88 2796
88 2797
88 2803
88 2804
88 2805
88 2806
88 2807
88 2808
88 2809
88 2810
88 2811
88 2812
88 2813
88 2814
88 2815
88 2816
88 2817
88 2818
88 2819
88 2820
88 2821
88 2822
88 2823
88 2824
88 2825
88 2826
88 2827
88 2828
88 2829
88 2830
88 2831
88 2832
88 2833
88 2834
88 2835
88 2836
88 2837
88 2838
88 2839
88 2840
88 2841
88 2842
88 2843
88 2844
88 2845
88 2846
88 2847
88 2848
88 2849
88 2850
88 2851
88 2852
88 2853
88 2854
88 2855
88 2856
88 2857
88 2858
88 2859
88 2860
88 2861
88 2862
88 2863
88 2864
88 2865
88 2866
88 2867
88 2868
88 2869
88 2870
88 2871
88 2872
88 2873
88 2874
88 2875
88 2876
88 2877
88 2878
88 2879
88 2880
88 2881
88 2882
88 2883
88 2884
88 2885
88 2886
88 2887
88 2888
88 2889
88 2890
88 2891
88 2892
88 2893
88 2894
88 2895
88 2896
88 2897
88 2898
88 2899
88 2900
88 2901
88 2902
88 2903
88 2904
88 2905
88 2906
88 2907
88 2908
88 2909
88 2910
88 2911
88 2912
88 2913
88 2914
88 2915
88 2916
88 2917
88 2918
88 2919
88 2920
88 2921
88 2922
88 2923
88 2924
88 2925
88 2926
88 2927
88 2928
88 2929
88 2930
88 2931
88 2932
88 2933
88 2934
88 2935
88 2936
88 2937
88 2938
88 2939
88 2940
88 2941
88 2942
88 2953
88 2973
88 2999
88 3007
88 3015
88 3022
88 3036
88 3057
88 3063
88 3083
88 3086
88 3096
88 3099
88 3116
88 3132
88 3147
88 3156
88 3157
88 3164
88 3165
88 3171
88 3191
88 3193
88 3195
88 3202
88 3207
88 3209
88 3220
88 3221
88 3224
88 3252
88 3260
88 3280
88 3281
88 3282
88 3292
88 3297
88 3301
88 3306
88 3327
88 3341
88 3344
88 3399
88 3423
88 3434
88 3437
88 3449
88 3458
88 3462
88 3468
88 3474
88 3481
88 3484
88 3489
88 3492
88 3497
88 3506
88 3508
88 3514
88 3521
88 3525
88 3545
88 3554
88 3556
88 3560
88 3563
88 3569
88 3576
88 3579
88 3580
88 3584
88 3585
88 3586
88 3594
88 3628
88 3631
88 3633
88 3637
88 3645
88 3650
88 3665
88 3666
88 3673
88 3677
88 3683
88 3689
88 3691
88 3697
88 3717
88 3721
88 3726
88 3753
88 3764
88 3772
88 3778
88 3787
88 3796
88 3811
88 3826
88 3833
88 3836
88 3841
88 3849
88 3853
88 3865
88 3866
88 3879
88 3887
88 3920
88 3928
88 3936
88 3938
88 3946
88 3981
88 3987
88 3995
88 3998
88 4009
88 4016
88 4029
88 4032
88 4033
88 4047
88 4049
88 4063
88 4075
88 4079
88 4081
88 4085
88 4087
88 4094
88 4096
88 4102
88 4103
88 4114
88 4128
88 4136
88 4142
88 4147
88 4152
88 4155
88 4175
88 4206
88 4214
88 4219
88 4220
88 4221
88 4237
88 4246
88 4249
88 4259
88 4261
88 4263
88 4284
88 4295
88 4297
88 4300
88 4312
88 4320
88 4334
88 4335
88 4356
88 4362
88 4385
88 4394
88 4421
88 4436
88 4440
88 4455
88 4456
88 4458
88 4466
88 4469
88 4472
88 4475
88 4477
88 4495
88 4529
88 4542
88 4548
88 4552
88 4553
88 4562
88 4589
88 4591
88 4595
88 4596
88 4632
88 4638
88 4643
88 4644
88 4655
88 4661
88 4662
88 4666
88 4702
88 4717
88 4719
88 4721
88 4730
88 4741
88 4746
88 4757
88 4764
88 4770
88 4776
88 4779
88 4791
88 4826
88 4833
88 4842
88 4847
88 4852
88 4853
88 4888
88 4894
88 4910
88 4912
88 4937
88 4947
88 4960
88 4962
88 4967
88 4969
88 4977
88 4997
88 5003
88 5008
88 5018
88 5030
88 5040
88 5050
88 5059
88 5063
88 5080
88 5092
88 5101
88 5117
88 5127
88 5129
88 5130
88 5151
88 5154
88 5183
88 5187
88 5192
88 5196
88 5197
88 5200
88 5208
88 5218
88 5230
88 5236
88 5248
88 5250
88 5260
88 5269
88 5278
88 5291
88 5298
88 5300
88 5301
88 5312
88 5323
88 5345
88 5350
88 5362
88 5370
88 5403
88 5420
88 5422
88 5423
88 5432
88 5433
88 5445
88 5459
88 5478
88 5480
88 5481
88 5515
88 5520
88 5535
88 5563
88 5568
88 5571
88 5593
88 5594
88 5601
88 5612
88 5627
88 5631
88 5645
88 5672
88 5686
88 5702
88 5710
88 5715
88 5730
88 5738
88 5744
88 5747
88 5750
88 5753
88 5754
88 5764
88 5769
88 5770
88 5783
88 5789
88 5795
88 5799
88 5806
88 5807
88 5812
88 5819
88 5821
88 5823
88 5824
88 5831
88 5854
88 5873
88 5874
88 5884
88 5890
88 5894
88 5902
88 5907
88 5909
88 5915
88 5916
88 5926
88 5991
88 6005
88 6007
88 6012
88 6025
88 6026
88 6052
88 6064
88 6066
88 6070
88 6074
88 6079
88 6100
88 6104
88 6106
88 6109
88 6112
88 6122
88 6127
88 6129
88 6140
88 6163
88 6180
88 6182
88 6196
88 6204
88 6218
88 6219
88 6221
88 6229
88 6238
88 6241
88 6245
88 6247
88 6257
88 6266
88 6270
88 6276
88 6279
88 6281
88 6288
88 6299
88 6306
88 6323
88 6328
88 6329
88 6336
88 6340
88 6366
88 6374
88 6378
88 6380
88 6407
88 6412
88 6428
88 6434
88 6435
88 6462
88 6463
88 6470
88 6472
88 6478
88 6480
88 6489
88 6496
88 6499
88 6507
88 6508
88 6510
88 6515
88 6545
88 6560
88 6569
88 6575
88 6579
88 6581
88 6585
88 6587
88 6602
88 6605
88 6611
88 6612
88 6627
88 6649
88 6650
88 6655
88 6691
88 6710
88 6732
88 6736
88 6738
88 6748
88 6752
88 6761
88 6765
88 6767
88 6779
88 6788
88 6795
88 6807
88 6809
88 6820
88 6884
88 6899
89 1687
89 2263
89 2554
89 2954
89 6628
90 88
90 90
90 2957
90 2958
91 2959
91 2960
91 2961
92 1351
92 1396
92 1677
92 6643
93 2972
93 2973
93 6919
94 47
94 51
94 65
94 165
94 260
94 313
94 316
94 581
94 639
94 706
94 1037
94 1087
94 1173
94 1180
94 1660
94 1661
94 1662
94 1663
94 1671
94 2068
94 2623
94 2750
94 2790
94 2975
94 2976
95 598
95 608
95 743
95 767
95 927
95 1968
95 6689
96 714
96 782
96 854
96 1106
96 2613
96 6659
97 200
97 2985
97 2986
97 2987
97 2988
98 149
98 228
98 488
98 686
98 759
98 819
98 2990
98 6647
99 932
99 1117
99 1807
99 1882
99 2991
99 2992
99 2993
100 76
100 88
100 103
100 116
100 203
100 413
100 700
100 712
100 978
100 1589
100 2994
101 42
101 68
101 84
101 382
101 410
101 691
101 873
101 1822
101 2995
101 2996
102 59
102 69
102 74
102 114
102 167
102 175
102 236
102 274
102 285
102 294
102 366
102 419
102 489
102 513
102 589
102 664
102 665
102 721
102 1065
102 1068
102 1209
102 1314
102 1524
102 1773
102 1854
102 1942
102 2123
102 2173
102 2410
102 2412
102 2541
102 2614
102 2651
102 2933
102 2997
102 2998
102 2999
102 3000
102 3001
102 3002
102 3003
102 3004
103 75
103 100
103 338
103 371
103 409
103 483
103 549
103 605
103 755
103 900
103 927
103 981
103 1006
103 1054
103 1097
103 1172
103 1551
103 1930
103 2103
103 2532
103 2751
103 2772
103 3005
103 3006
103 3007
103 3008
103 3009
103 3010
103 3011
103 3012
103 3013
103 3014
103 3015
103 3016
103 3017
103 3018
103 4105
103 4854
103 5544
103 5688
103 5759
104 2979
104 3030
104 6636
105 214
105 3032
106 127
106 303
106 384
106 449
106 560
106 671
106 1108
106 1114
106 1184
106 1240
106 1409
106 1534
106 3033
106 3034
107 152
107 176
107 437
107 952
107 1360
107 1558
107 1821
107 2044
107 2453
107 3035
107 3036
107 3037
107 3038
108 59
108 64
108 70
108 75
108 88
108 182
108 314
108 652
108 895
108 939
108 1029
108 1202
108 1356
108 1395
108 1440
108 1527
108 2405
108 2521
108 2733
108 2827
108 3039
108 3040
108 3041
109 45
109 183
109 208
109 305
109 382
109 670
109 705
109 865
109 878
109 882
109 1083
109 1121
109 1225
109 1379
109 1674
109 1780
109 2957
109 3042
109 3043
109 3044
109 3045
109 3046
110 27
110 60
110 81
110 165
110 306
110 502
110 592
110 743
110 780
110 900
110 1209
110 1266
110 1515
110 1625
110 1698
110 2040
110 3047
110 3048
110 3049
110 3050
110 3051
111 928
111 1117
111 1189
111 1811
111 3055
111 6743
112 435
112 2793
112 3056
112 3057
112 3058
113 670
113 2968
113 3059
113 3060
114 50
114 77
114 88
114 102
114 167
114 296
114 399
114 419
114 441
114 489
114 490
114 608
114 652
114 664
114 675
114 830
114 949
114 982
114 1357
114 1584
114 1734
114 1777
114 1903
114 1989
114 2047
114 2055
114 2137
114 2140
114 2405
114 2493
114 2505
114 2858
114 2933
114 2998
114 3061
114 3062
114 3063
114 3064
114 3065
114 3066
114 3067
114 3068
114 3069
114 3070
114 3071
114 5127
115 50
115 82
115 190
115 211
115 582
115 665
115 736
115 921
115 995
115 1042
115 1223
115 1618
115 1676
115 1841
115 2345
115 3072
115 3073
115 3074
116 62
116 100
116 181
116 371
116 403
116 413
116 592
116 904
116 1330
116 1395
116 2394
116 2429
116 3075
116 3076
116 3077
116 3078
116 5655
117 53
117 161
117 231
117 241
117 325
117 355
117 388
117 435
117 611
117 673
117 684
117 772
117 1028
117 3079
117 3080
117 3081
118 57
118 84
118 185
118 201
118 224
118 405
118 520
118 548
118 676
118 779
118 1577
118 1794
118 1966
118 2581
118 3082
118 3083
119 193
119 538
119 562
119 564
119 620
119 1482
119 1634
119 1954
119 2954
119 3084
119 3085
119 3086
119 3087
119 3088
119 3811
120 73
120 140
120 212
120 216
120 281
120 341
120 411
120 657
120 684
120 743
120 902
120 930
120 1053
120 1224
120 1415
120 1593
120 1931
120 1985
120 2160
120 2191
120 2263
120 2368
120 2923
120 3089
120 3090
120 3091
120 3092
121 68
121 122
121 149
121 172
121 211
121 273
121 374
121 377
121 416
121 593
121 669
121 920
121 931
121 980
121 1096
121 2106
121 2240
121 2713
121 2885
121 3093
121 3094
121 3095
121 3096
121 3097
121 3098
121 3099
122 68
122 76
122 121
122 178
122 186
122 213
122 360
122 383
122 402
122 442
122 449
122 565
122 667
122 673
122 678
122 703
122 820
122 918
122 931
122 941
122 957
122 1007
122 1030
122 1224
122 1315
122 1324
122 1361
122 1475
122 1540
122 1640
122 1678
122 1703
122 1724
122 1729
122 1862
122 2145
122 2154
122 2473
122 3100
122 3101
122 3102
122 3103
122 3104
122 3105
122 3106
122 3107
122 3108
122 4041
123 30
123 55
123 56
123 60
123 69
123 73
123 81
123 83
123 86
123 87
123 133
123 170
123 179
123 215
123 288
123 301
123 305
123 334
123 358
123 378
123 417
123 648
123 700
123 724
123 984
123 993
123 1031
123 1144
123 1146
123 1156
123 1158
123 1220
123 1393
123 1424
123 1581
123 1667
123 1876
123 1988
123 2112
123 2191
123 2667
123 3109
123 3110
123 3111
123 3112
123 3113
123 3114
124 17
124 48
124 55
124 60
124 64
124 65
124 74
124 79
124 176
124 212
124 216
124 288
124 289
124 308
124 334
124 489
124 711
124 1158
124 1415
124 1425
124 1514
124 1728
124 1838
124 1902
124 2134
124 2141
124 2190
124 2368
124 2419
124 2434
124 2553
124 2567
124 3115
124 3116
124 3117
124 3118
124 3119
124 3120
124 3121
124 3122
124 3410
124 3417
124 3487
124 3581
124 4306
124 4326
125 19
125 22
125 65
125 67
125 74
125 87
125 154
125 201
125 203
125 294
125 314
125 315
125 526
125 676
125 711
125 795
125 900
125 1043
125 1112
125 1395
125 1672
125 1673
125 1930
125 2100
125 2223
125 2490
125 2539
125 2689
125 2699
125 2798
125 3123
125 3124
126 31
126 49
126 88
126 171
126 207
126 412
126 429
126 611
126 621
126 634
126 678
126 759
126 941
126 1083
126 1154
126 1534
126 1639
126 1645
126 1779
126 1994
126 2797
126 3057
126 3125
126 3126
126 3127
126 3128
126 3129
126 3130
126 3131
126 3132
126 3133
127 106
127 146
127 148
127 658
127 736
127 759
127 821
127 891
127 1013
127 1166
127 1225
127 1255
127 1463
127 1632
127 2270
127 2481
127 3134
127 3135
127 3136
127 3137
127 3138
127 3139
127 3140
127 3141
127 3142
127 3177
127 3239
127 3264
127 4302
128 321
128 705
128 790
128 814
128 833
128 1061
128 1395
128 1434
128 6660
129 68
129 82
129 189
129 530
129 1843
129 2083
129 3146
129 3147
130 450
130 588
130 610
130 717
130 1510
130 3148
130 3149
131 806
131 969
131 1287
131 3150
131 3151
131 3152
132 3162
132 6675
133 22
133 28
133 79
133 80
133 123
133 183
133 338
133 357
133 384
133 414
133 423
133 629
133 635
133 659
133 702
133 711
133 1018
133 1022
133 1090
133 1144
133 1151
133 1215
133 1306
133 1361
133 1459
133 1516
133 1871
133 2124
133 2201
133 2628
133 2699
133 2723
133 2778
133 3163
133 3164
133 3165
133 3166
133 3167
133 3168
133 3169
133 3170
133 3171
133 3172
133 3173
134 139
134 169
134 182
134 207
134 213
134 338
134 681
134 714
134 820
134 891
134 966
134 973
134 998
134 1090
134 1106
134 1184
134 1354
134 1560
134 1638
134 1802
134 2207
134 3174
134 3175
134 3176
134 3177
134 3178
134 3179
134 3180
134 3181
134 3182
134 3183
134 3184
134 3185
134 3186
134 3187
134 4068
134 4800
134 5169
134 5209
134 5281
134 5510
134 6125
134 6677
135 176
135 197
135 238
135 714
135 839
135 1072
135 1117
135 1316
135 1730
135 1764
135 3188
135 3189
136 84
136 411
136 927
136 1349
136 1828
136 1883
136 2353
136 2663
136 2729
136 3190
136 3191
137 168
137 389
137 545
137 598
137 1075
137 2368
137 3192
137 3193
137 3194
137 3195
138 54
138 55
138 85
138 206
138 367
138 404
138 491
138 538
138 605
138 672
138 980
138 1159
138 1785
138 1811
138 3196
138 3197
138 3198
139 46
139 134
139 146
139 208
139 239
139 679
139 696
139 836
139 2379
139 2965
139 3020
139 3199
139 3200
139 3201
139 3202
139 3203
140 58
140 83
140 120
140 640
140 649
140 712
140 946
140 1031
140 1168
140 1175
140 1605
140 2100
140 3204
141 48
141 54
141 60
141 720
141 788
141 1090
141 2102
141 2434
141 3062
141 3205
141 3206
141 3207
142 58
142 671
142 766
142 796
142 816
142 1588
142 3208
142 3209
142 3210
142 3211
142 3212
143 58
143 711
143 723
143 871
143 881
143 925
143 1895
143 3043
143 3213
143 3214
144 88
144 324
144 411
144 599
144 1180
144 1797
144 2114
144 3215
144 3216
145 303
145 871
145 1188
145 3217
145 3218
145 3219
145 3220
145 3221
146 86
146 127
146 139
146 201
146 229
146 336
146 364
146 384
146 552
146 625
146 674
146 813
146 1075
146 1132
146 1338
146 1540
146 1549
146 1602
146 1651
146 1676
146 1721
146 1765
146 3133
146 3222
146 3223
146 3224
146 3225
146 3226
146 3227
147 187
147 371
147 388
147 414
147 436
147 677
147 864
147 1195
147 1218
147 1460
147 1484
147 1792
147 1867
147 2009
147 2834
147 2929
147 3160
147 3228
147 3229
147 3230
147 3231
147 3232
147 3233
147 3234
147 3235
147 3236
147 3386
147 5032
148 62
148 127
148 213
148 378
148 508
148 621
148 647
148 714
148 773
148 887
148 888
148 1290
148 1591
148 1703
148 1859
148 2155
148 2376
148 2381
148 2382
148 3237
148 3238
148 3239
148 3240
148 3241
148 3242
148 3243
148 3244
149 30
149 33
149 49
149 52
149 62
149 63
149 98
149 121
149 162
149 173
149 177
149 207
149 228
149 248
149 408
149 412
149 492
149 631
149 668
149 671
149 693
149 808
149 882
149 915
149 1147
149 1153
149 1275
149 1377
149 1383
149 1545
149 1575
149 1693
149 1730
149 1768
149 1778
149 1796
149 1886
149 1972
149 2012
149 2347
149 2379
149 2479
149 3104
149 3245
149 3246
149 3247
149 3248
149 3249
149 3250
149 3251
149 3252
149 3253
150 15
150 216
150 512
150 763
150 998
150 1059
150 1236
150 1299
150 1442
150 1445
150 1593
150 1753
150 1827
150 1872
150 1874
150 1883
150 2230
150 2309
150 2318
150 2346
150 2347
150 2589
150 2749
150 2776
150 3203
150 3254
150 3255
150 3256
150 3257
150 3258
150 3259
150 3260
150 3261
150 3262
150 3263
150 3264
150 3265
150 3266
150 3267
150 3268
150 3269
150 3270
150 3271
150 3272
150 3273
150 3493
150 4366
150 4786
150 5499
150 6372
150 6561
151 192
151 280
151 533
151 545
151 661
151 714
151 734
151 829
151 888
151 1119
151 1138
151 1182
151 1619
151 1744
151 3274
151 3275
151 3276
151 3277
151 3278
151 4886
152 107
152 437
152 733
152 839
152 1458
152 1660
152 1821
152 2044
152 2095
152 2453
152 3038
152 3279
152 3280
152 3281
152 3282
152 3283
152 3284
152 5770
152 6005
153 24
153 37
153 51
153 67
153 78
153 79
153 85
153 87
153 191
153 202
153 204
153 321
153 327
153 594
153 901
153 949
153 983
153 1029
153 1037
153 1256
153 1380
153 1392
153 1556
153 1578
153 1661
153 1662
153 1681
153 1698
153 1772
153 1773
153 1776
153 1793
153 1837
153 1920
153 2043
153 2078
153 2175
153 2177
153 2226
153 2330
153 2408
153 2450
153 2454
153 2456
153 2629
153 2813
153 2880
153 3285
153 3286
153 3287
153 3288
153 3289
153 3290
153 3291
153 3292
153 3293
153 4363
154 21
154 34
154 36
154 38
154 39
154 47
154 69
154 125
154 165
154 170
154 191
154 196
154 289
154 333
154 405
154 421
154 648
154 721
154 794
154 925
154 981
154 1062
154 1127
154 1213
154 1373
154 1461
154 1577
154 1592
154 1734
154 1794
154 1873
154 1902
154 1908
154 2034
154 2047
154 2082
154 2131
154 2331
154 2531
154 2541
154 2650
154 2697
154 2800
154 3286
154 3294
154 3295
154 3296
154 3297
154 3298
154 3299
154 3300
154 3301
154 3302
154 3303
154 3304
154 4121
155 26
155 53
155 88
155 169
155 211
155 305
155 374
155 455
155 469
155 552
155 647
155 724
155 808
155 819
155 873
155 964
155 1090
155 1120
155 1158
155 1228
155 1258
155 1321
155 1324
155 1560
155 1650
155 1729
155 1750
155 1974
155 1998
155 2239
155 2662
155 3020
155 3180
155 3305
155 3306
155 3307
155 3308
155 3309
155 3310
155 3311
155 3312
155 3313
155 3314
155 3315
155 3316
155 3317
155 3318
155 3686
155 3729
155 3830
155 4633
155 4814
155 5342
155 5851
155 6578
156 33
156 52
156 158
156 256
156 259
156 261
156 283
156 374
156 404
156 449
156 671
156 672
156 681
156 693
156 856
156 873
156 894
156 1079
156 1153
156 1279
156 1522
156 1599
156 2548
156 3247
156 3319
156 3320
156 3321
156 3322
157 53
157 157
157 196
157 201
157 254
157 315
157 334
157 526
157 1172
157 1672
157 2080
157 2286
157 2410
157 3323
157 3324
158 156
158 208
158 410
158 656
158 660
158 1052
158 1120
158 1488
158 2157
158 2628
158 3325
158 3326
158 3327
158 3328
159 22
159 52
159 88
159 211
159 248
159 308
159 324
159 373
159 377
159 416
159 562
159 593
159 659
159 673
159 957
159 1305
159 1307
159 1383
159 1878
159 1893
159 3329
159 3330
159 3331
159 3332
159 3333
159 3334
159 3335
159 3336
159 3337
159 3338
159 3339
159 3340
159 3341
159 4145
160 26
160 88
160 228
160 237
160 317
160 404
160 432
160 435
160 450
160 612
160 618
160 707
160 872
160 906
160 915
160 984
160 1147
160 1276
160 1394
160 1484
160 1490
160 1761
160 1770
160 2154
160 3342
160 3343
160 3344
160 3345
160 3346
160 3347
160 3348
160 3349
160 3350
160 5825
161 117
161 184
161 304
161 345
161 367
161 373
161 533
161 597
161 647
161 733
161 734
161 841
161 869
161 921
161 924
161 941
161 1147
161 1171
161 1521
161 1639
161 1650
161 1744
161 2025
161 2055
161 2488
161 3351
161 3352
161 3353
161 3354
161 3355
161 3356
161 3357
161 5043
162 52
162 149
162 412
162 414
162 660
162 681
162 811
162 827
162 855
162 891
162 938
162 1060
162 1275
162 1466
162 1863
162 2086
162 2244
162 2394
162 2974
162 2984
162 3020
162 3140
162 3178
162 3180
162 3358
162 3359
162 3360
162 3361
162 3362
162 3363
162 3364
162 3365
163 288
163 360
163 410
163 412
163 611
163 671
163 679
163 734
163 806
163 1098
163 1467
163 1476
163 1703
163 1822
163 1939
163 2479
163 2990
163 3249
163 3366
164 68
164 173
164 243
164 288
164 878
164 1047
164 1307
164 1761
164 1927
164 2793
164 3292
164 3367
164 3368
164 3369
164 3370
164 3371
164 3372
164 6211
165 38
165 43
165 94
165 110
165 154
165 170
165 216
165 287
165 306
165 313
165 314
165 321
165 511
165 519
165 595
165 607
165 981
165 995
165 1043
165 1282
165 1395
165 1681
165 1944
165 2292
165 2718
165 2980
165 3040
165 3373
165 3374
165 3375
165 3376
165 3377
165 3378
166 76
166 278
166 348
166 393
166 416
166 484
166 562
166 806
166 855
166 1090
166 1231
166 1355
166 1371
166 1394
166 1413
166 1537
166 1649
166 1739
166 1840
166 3110
166 3379
166 3380
166 3381
166 3382
166 3383
166 3384
166 3385
166 3386
166 3387
166 3388
166 3400
166 4023
167 39
167 44
167 47
167 56
167 57
167 69
167 71
167 77
167 102
167 114
167 168
167 175
167 185
167 191
167 254
167 330
167 513
167 526
167 582
167 607
167 676
167 702
167 740
167 900
167 907
167 962
167 1012
167 1022
167 1243
167 1380
167 1518
167 1692
167 1887
167 1968
167 2067
167 2124
167 2140
167 2296
167 2346
167 2737
167 3065
167 3389
167 3390
167 3391
168 28
168 36
168 42
168 65
168 137
168 167
168 189
168 215
168 292
168 299
168 301
168 321
168 545
168 641
168 646
168 700
168 778
168 862
168 869
168 871
168 901
168 921
168 971
168 984
168 1086
168 1132
168 1141
168 1331
168 1396
168 1458
168 1483
168 1839
168 2632
168 2974
168 3194
168 3392
168 3393
168 3394
168 3395
169 26
169 46
169 52
169 134
169 155
169 174
169 186
169 187
169 193
169 272
169 563
169 588
169 681
169 935
169 976
169 1003
169 1161
169 1195
169 1196
169 1345
169 1471
169 1526
169 1636
169 1638
169 1974
169 2823
169 3158
169 3159
169 3396
169 3397
169 3398
169 3399
169 3400
169 3401
169 3402
169 3403
169 4340
170 21
170 25
170 43
170 56
170 60
170 65
170 66
170 70
170 74
170 75
170 81
170 85
170 86
170 123
170 154
170 165
170 171
170 306
170 393
170 490
170 595
170 616
170 639
170 647
170 700
170 801
170 844
170 912
170 927
170 993
170 1012
170 1043
170 1112
170 1164
170 1355
170 1434
170 1462
170 1523
170 1556
170 1626
170 1676
170 1700
170 1752
170 1855
170 1908
170 1930
170 1934
170 1943
170 2095
170 2123
170 2125
170 2175
170 2186
170 2218
170 2295
170 2300
170 2421
170 2425
170 2426
170 2504
170 2688
170 2746
170 2839
170 2898
170 3269
170 3404
170 3405
170 3406
170 3407
170 3408
170 3409
170 3410
170 3411
170 3412
170 3413
170 3414
170 3447
170 3515
170 6137
171 18
171 57
171 74
171 77
171 88
171 126
171 170
171 179
171 254
171 313
171 334
171 409
171 555
171 900
171 925
171 1039
171 1081
171 1167
171 1337
171 1903
171 1933
171 2130
171 2190
171 2262
171 2418
171 2422
171 2504
171 2541
171 2569
171 2619
171 2677
171 2764
171 2950
171 3415
171 3416
171 3417
171 3418
171 3419
171 3420
171 3421
172 16
172 121
172 174
172 217
172 226
172 263
172 334
172 342
172 400
172 420
172 458
172 665
172 690
172 822
172 1010
172 1084
172 1119
172 1153
172 1164
172 1575
172 1599
172 1803
172 1893
172 2119
172 2193
172 2394
172 3140
172 3276
172 3422
172 3423
172 3424
172 3425
172 3426
172 3427
172 3428
172 3429
172 3430
172 3750
173 42
173 149
173 164
173 207
173 431
173 486
173 564
173 782
173 810
173 885
173 987
173 1009
173 1089
173 1203
173 1225
173 1540
173 1688
173 1709
173 2235
173 2947
173 3431
174 49
174 169
174 172
174 263
174 303
174 336
174 442
174 864
174 1009
174 1483
174 1564
174 2862
174 3432
174 3433
174 3434
174 3435
174 3436
174 3437
174 3438
174 4176
175 38
175 39
175 59
175 74
175 102
175 167
175 191
175 281
175 306
175 421
175 652
175 760
175 1006
175 1135
175 1207
175 1266
175 1323
175 1449
175 1488
175 1615
175 1652
175 1692
175 1830
175 1855
175 1927
175 2036
175 2073
175 2082
175 2121
175 2123
175 2335
175 2362
175 2418
175 2421
175 2504
175 2746
175 2748
175 2784
175 2800
175 2908
175 2998
175 3327
175 3439
175 3440
175 3441
175 3442
175 3443
175 3444
175 3445
175 3446
175 3447
175 3448
175 3449
175 4360
175 5364
176 60
176 65
176 72
176 79
176 84
176 88
176 107
176 124
176 135
176 281
176 334
176 598
176 721
176 1201
176 1685
176 1764
176 2352
176 2539
176 3450
176 3451
176 3452
176 3453
177 149
177 259
177 301
177 647
177 660
177 806
177 808
177 812
177 1220
177 1413
177 2118
177 2605
177 3180
177 3246
177 3454
177 3455
177 3456
177 3457
177 3458
177 3459
177 3460
178 122
178 725
178 1465
178 2113
178 2928
178 2993
178 3461
178 3462
178 3463
178 3464
178 3465
178 3466
178 3467
178 3468
178 3469
178 3470
178 3471
178 4827
178 5590
179 87
179 123
179 171
179 203
179 214
179 216
179 260
179 281
179 315
179 351
179 352
179 478
179 831
179 839
179 892
179 902
179 921
179 998
179 1053
179 1068
179 1090
179 1172
179 1191
179 1306
179 1316
179 1420
179 1473
179 1501
179 1589
179 1670
179 1672
179 1845
179 1929
179 2099
179 2132
179 2179
179 2185
179 2271
179 2419
179 2490
179 2553
179 2556
179 2558
179 2589
179 2686
179 2923
179 3072
179 3323
179 3472
179 3473
179 3474
179 3475
179 3476
179 3477
179 3478
179 3479
179 3480
179 3481
179 3482
179 3483
179 3484
179 3485
179 3486
179 3487
179 4840
179 5000
180 27
180 47
180 55
180 72
180 79
180 84
180 85
180 86
180 87
180 196
180 236
180 272
180 287
180 346
180 413
180 483
180 585
180 608
180 667
180 695
180 794
180 811
180 871
180 1020
180 1584
180 1682
180 1697
180 1900
180 1976
180 1980
180 1982
180 2177
180 2379
180 2580
180 2668
180 2781
180 2820
180 3488
180 3489
180 3490
180 3491
180 3492
180 3493
180 3494
180 3495
180 3496
180 5801
181 20
181 45
181 116
181 182
181 197
181 237
181 298
181 307
181 342
181 395
181 413
181 414
181 455
181 540
181 612
181 630
181 698
181 707
181 733
181 811
181 818
181 984
181 1196
181 1325
181 1739
181 1927
181 2012
181 2207
181 2331
181 2673
181 2874
181 2963
181 3497
181 3498
181 3499
181 3500
181 3501
181 3502
181 3503
181 3504
181 3505
181 3506
181 3507
181 3508
182 84
182 108
182 134
182 181
182 288
182 330
182 342
182 343
182 360
182 473
182 508
182 599
182 690
182 749
182 770
182 924
182 933
182 957
182 1102
182 1164
182 1196
182 1316
182 1425
182 1471
182 1521
182 1599
182 1666
182 2017
182 2095
182 2116
182 2609
182 3102
182 3158
182 3167
182 3278
182 3509
182 3510
182 3511
182 3512
182 3513
182 3514
182 3515
182 3516
182 3517
182 3518
182 3519
182 3520
182 3521
182 3522
182 3523
182 3912
182 4013
182 4100
182 4118
182 4325
182 4824
182 5079
182 5227
182 5729
183 52
183 80
183 109
183 133
183 201
183 305
183 380
183 415
183 455
183 486
183 530
183 658
183 864
183 1097
183 1822
183 1927
183 3030
183 3524
183 3525
183 3526
183 3527
183 3528
183 3529
183 3530
184 33
184 161
184 193
184 355
184 432
184 717
184 808
184 918
184 973
184 1105
184 1362
184 1371
184 1430
184 1585
184 2882
184 3127
184 3531
184 3532
184 3533
184 3534
184 3535
184 3536
184 6002
185 34
185 36
185 57
185 58
185 71
185 72
185 77
185 86
185 118
185 167
185 201
185 214
185 224
185 520
185 619
185 648
185 676
185 719
185 940
185 948
185 968
185 1044
185 1081
185 1241
185 1291
185 1304
185 1350
185 1400
185 1440
185 1483
185 1496
185 1625
185 1726
185 1738
185 1748
185 1794
185 1909
185 1962
185 1964
185 2261
185 2297
185 2304
185 2305
185 2306
185 2322
185 2486
185 2566
185 2796
185 3391
185 3537
185 3538
185 3539
185 3540
185 3541
185 3542
185 3672
185 5857
186 62
186 122
186 169
186 256
186 272
186 374
186 386
186 408
186 436
186 717
186 819
186 969
186 1276
186 1635
186 1739
186 1746
186 1768
186 1770
186 1980
186 2481
186 2823
186 2897
186 3350
186 3543
186 3544
186 3545
186 3546
186 3547
186 3548
186 3549
187 33
187 80
187 147
187 169
187 197
187 259
187 279
187 436
187 964
187 973
187 980
187 1151
187 1276
187 1686
187 1996
187 2155
187 2160
187 2234
187 2240
187 2507
187 3170
187 3318
187 3326
187 3374
187 3550
187 3551
187 3552
187 3553
187 3554
188 76
188 79
188 88
188 189
188 216
188 318
188 376
188 629
188 790
188 877
188 907
188 1323
188 1373
188 1699
188 2435
188 2534
188 2771
188 2817
188 3414
188 3467
188 3555
188 3556
188 3557
188 3558
188 3559
188 3560
188 3561
188 3562
189 49
189 63
189 65
189 129
189 168
189 188
189 192
189 238
189 259
189 384
189 400
189 435
189 503
189 508
189 520
189 524
189 527
189 529
189 580
189 592
189 647
189 668
189 679
189 688
189 742
189 874
189 924
189 938
189 963
189 1072
189 1119
189 1140
189 1338
189 1404
189 1422
189 1499
189 1614
189 1925
189 2022
189 2113
189 2275
189 2341
189 2778
189 3067
189 3093
189 3227
189 3356
189 3421
189 3536
189 3563
189 3564
189 3565
189 3566
189 3567
189 3568
189 3569
189 3570
189 3571
189 3572
189 4995
190 59
190 115
190 285
190 301
190 582
190 712
190 744
190 778
190 803
190 850
190 919
190 1209
190 1474
190 1673
190 1776
190 1860
190 1938
190 1962
190 2044
190 2217
190 2305
190 2446
190 2496
190 2509
190 2555
190 2905
190 3193
190 3573
190 3574
190 3575
190 3576
190 3577
190 3578
190 3579
190 3580
190 3581
190 3582
190 3583
190 3584
190 3585
190 3586
190 3587
190 3674
190 4551
190 4663
190 4717
190 4787
190 5224
190 5597
191 9
191 59
191 153
191 154
191 167
191 175
191 196
191 201
191 315
191 331
191 676
191 802
191 895
191 927
191 981
191 1167
191 1207
191 1577
191 1855
191 1946
191 1990
191 2075
191 2133
191 2418
191 2492
191 2546
191 2852
191 2908
191 3003
191 3065
191 3295
191 3300
191 3444
191 3587
191 3588
191 3589
191 3590
191 3591
191 3592
191 3593
191 3594
192 14
192 16
192 62
192 151
192 189
192 317
192 442
192 492
192 518
192 536
192 583
192 630
192 647
192 690
192 742
192 773
192 819
192 924
192 1009
192 1088
192 1147
192 1290
192 1301
192 1399
192 1430
192 1490
192 1651
192 1711
192 1713
192 3060
192 3595
192 3596
192 3597
192 3598
192 3599
192 3600
192 3601
192 4936
192 5443
193 31
193 46
193 52
193 56
193 80
193 119
193 169
193 184
193 195
193 209
193 256
193 297
193 307
193 353
193 367
193 395
193 410
193 461
193 485
193 491
193 518
193 579
193 602
193 618
193 630
193 661
193 663
193 669
193 672
193 685
193 689
193 718
193 865
193 935
193 1061
193 1121
193 1153
193 1165
193 1203
193 1292
193 1316
193 1533
193 1540
193 1544
193 1599
193 1679
193 1702
193 1703
193 1738
193 1745
193 2187
193 2234
193 2241
193 2859
193 2979
193 3042
193 3212
193 3217
193 3602
193 3603
193 3604
193 3605
193 3606
193 3607
193 3608
193 3609
193 3610
193 3611
193 5573
193 5618
194 29
194 40
194 43
194 59
194 66
194 88
194 201
194 203
194 205
194 240
194 242
194 254
194 262
194 289
194 301
194 552
194 646
194 647
194 905
194 921
194 948
194 984
194 1192
194 1243
194 1336
194 1356
194 1373
194 1547
194 1666
194 1727
194 1831
194 1942
194 1957
194 1959
194 1989
194 1991
194 2065
194 2230
194 2278
194 2414
194 2418
194 2446
194 2511
194 3612
194 3613
194 3614
194 3615
194 3616
194 3617
194 3618
194 3619
194 3620
194 3621
194 3914
195 62
195 76
195 80
195 193
195 237
195 301
195 304
195 432
195 536
195 560
195 563
195 564
195 670
195 694
195 871
195 874
195 891
195 936
195 1251
195 1261
195 1290
195 1366
195 1603
195 1640
195 1695
195 1738
195 1911
195 2026
195 2255
195 2726
195 2823
195 2974
195 3355
195 3380
195 3519
195 3525
195 3622
195 3623
195 3624
195 3625
195 3626
195 3627
195 3628
195 3629
195 3630
195 3631
195 3632
195 3633
195 3634
195 4256
195 4698
195 5608
195 5741
196 24
196 28
196 34
196 39
196 57
196 59
196 64
196 74
196 79
196 81
196 82
196 154
196 157
196 180
196 191
196 254
196 366
196 392
196 419
196 478
196 502
196 662
196 676
196 779
196 805
196 807
196 895
196 991
196 993
196 995
196 1127
196 1227
196 1364
196 1448
196 1477
196 1514
196 1523
196 1672
196 1673
196 1752
196 1758
196 1849
196 1946
196 1958
196 1988
196 2042
196 2071
196 2133
196 2519
196 3286
196 3635
196 3636
196 3637
196 3638
196 5225
197 49
197 53
197 88
197 135
197 181
197 187
197 211
197 215
197 235
197 263
197 308
197 388
197 480
197 489
197 525
197 626
197 635
197 647
197 658
197 659
197 683
197 733
197 777
197 782
197 786
197 871
197 1047
197 1191
197 1345
197 1549
197 1573
197 1641
197 2025
197 2193
197 2234
197 2270
197 2339
197 2874
197 3060
197 3084
197 3217
197 3363
197 3639
197 3640
197 3641
197 3642
197 3643
197 3644
197 3645
197 3646
197 3647
197 3648
197 3649
197 3650
198 80
198 398
198 612
198 634
198 756
198 920
198 1151
198 1796
198 1910
198 1951
198 2171
198 2388
198 2961
198 3166
198 3185
198 3501
198 3551
198 3622
198 3651
198 3652
198 3653
198 3654
198 3655
198 3656
198 3657
198 4039
199 15
199 18
199 291
199 309
199 391
199 918
199 1340
199 1388
199 1665
199 1864
199 1893
199 2237
199 2282
199 2371
199 2517
199 2929
199 3379
199 3658
199 3659
199 3660
199 3661
199 3662
199 3663
199 3664
199 4099
200 12
200 14
200 43
200 74
200 97
200 203
200 205
200 216
200 281
200 290
200 313
200 315
200 377
200 419
200 489
200 526
200 597
200 675
200 831
200 952
200 1097
200 1513
200 1708
200 1827
200 1848
200 1985
200 2450
200 2553
200 2686
200 2885
200 3446
200 3474
200 3665
200 3666
200 3667
201 14
201 43
201 69
201 81
201 86
201 118
201 125
201 146
201 157
201 183
201 185
201 191
201 194
201 204
201 210
201 240
201 299
201 300
201 316
201 366
201 581
201 650
201 676
201 711
201 823
201 921
201 991
201 996
201 1012
201 1040
201 1135
201 1192
201 1222
201 1239
201 1241
201 1347
201 1558
201 1578
201 1579
201 1724
201 1726
201 1748
201 1965
201 1991
201 2125
201 2199
201 2213
201 2450
201 2451
201 2526
201 2880
201 3078
201 3083
201 3348
201 3413
201 3503
201 3621
201 3668
201 3669
201 3670
201 3671
201 3672
202 29
202 66
202 85
202 153
202 203
202 242
202 305
202 349
202 366
202 399
202 415
202 421
202 585
202 594
202 595
202 664
202 702
202 775
202 830
202 942
202 943
202 1213
202 1314
202 1392
202 1400
202 1415
202 1524
202 1671
202 1676
202 1725
202 1732
202 1793
202 1989
202 2068
202 2134
202 2140
202 2220
202 2261
202 2307
202 2450
202 2566
202 2627
202 2781
202 2796
202 2998
202 3048
202 3441
202 3673
202 3674
202 3675
202 3676
202 3677
202 3678
202 3679
202 3680
202 3681
202 3682
202 3683
202 5101
203 35
203 42
203 43
203 44
203 64
203 66
203 82
203 83
203 100
203 125
203 179
203 194
203 200
203 202
203 212
203 216
203 240
203 262
203 263
203 295
203 321
203 357
203 403
203 413
203 419
203 422
203 555
203 687
203 695
203 700
203 743
203 774
203 801
203 883
203 925
203 926
203 979
203 995
203 1135
203 1144
203 1149
203 1172
203 1231
203 1263
203 1290
203 1298
203 1306
203 1308
203 1316
203 1500
203 1501
203 1841
203 1948
203 2050
203 2099
203 2140
203 2165
203 2190
203 2283
203 2336
203 2337
203 2641
203 2668
203 2827
203 2933
203 2982
203 3072
203 3162
203 3482
203 3684
203 3685
203 3686
203 3687
203 3688
203 3689
203 4840
204 51
204 54
204 81
204 85
204 153
204 201
204 313
204 415
204 571
204 650
204 665
204 675
204 779
204 821
204 942
204 1133
204 1178
204 1244
204 1278
204 1314
204 1337
204 1578
204 1854
204 1903
204 1988
204 2189
204 2532
204 2738
204 2760
204 3072
204 3638
204 3690
204 3691
204 3692
204 3693
204 3694
204 5545
205 35
205 48
205 51
205 60
205 70
205 77
205 79
205 86
205 194
205 200
205 235
205 254
205 419
205 676
205 746
205 831
205 872
205 900
205 905
205 916
205 1135
205 1172
205 1415
205 1609
205 1934
205 1946
205 2067
205 2406
205 2660
205 2827
205 3695
206 138
206 210
206 232
206 379
206 445
206 455
206 543
206 672
206 694
206 697
206 718
206 892
206 932
206 1479
206 1500
206 1688
206 1877
206 2040
206 2157
206 2317
206 2721
206 3180
206 3358
206 3365
206 3552
206 3696
206 3697
206 3698
206 3733
206 4476
207 126
207 134
207 149
207 173
207 356
207 499
207 647
207 673
207 681
207 1188
207 1200
207 1824
207 2009
207 2257
207 2356
207 3027
207 3132
207 3142
207 3623
207 3699
207 3700
207 3701
207 3702
207 3703
207 3704
207 3705
207 3706
207 4046
208 30
208 83
208 84
208 85
208 109
208 139
208 158
208 218
208 225
208 343
208 364
208 373
208 402
208 413
208 484
208 550
208 626
208 630
208 676
208 749
208 765
208 860
208 882
208 923
208 943
208 984
208 1122
208 1337
208 1399
208 1460
208 1549
208 1574
208 1635
208 1694
208 1805
208 1896
208 1999
208 2323
208 2859
208 3221
208 3226
208 3397
208 3463
208 3652
208 3700
208 3707
208 3708
208 3709
208 3710
208 3711
208 3712
208 3713
208 3714
208 3715
208 3716
208 3717
208 3718
208 3719
208 3720
208 3721
208 3722
208 3751
208 4301
208 4448
208 5640
208 5852
209 26
209 46
209 193
209 214
209 272
209 297
209 307
209 338
209 408
209 411
209 431
209 547
209 604
209 865
209 873
209 1050
209 1053
209 1080
209 1082
209 1111
209 1139
209 1498
209 1590
209 1650
209 1679
209 1694
209 1703
209 2167
209 2248
209 2479
209 2903
209 3141
209 3606
209 3723
209 3724
209 3725
209 3726
209 4216
210 80
210 201
210 206
210 305
210 385
210 445
210 476
210 517
210 536
210 543
210 697
210 797
210 900
210 920
210 1079
210 1102
210 1585
210 1648
210 2148
210 2165
210 2664
210 2874
210 3318
210 3727
210 3728
210 3729
210 3730
210 3731
210 3732
210 3733
210 3734
210 3735
210 3889
210 4480
210 4956
210 5504
210 5707
211 22
211 40
211 53
211 64
211 68
211 76
211 115
211 121
211 155
211 159
211 197
211 273
211 288
211 374
211 382
211 412
211 508
211 585
211 605
211 608
211 659
211 669
211 691
211 703
211 742
211 811
211 839
211 893
211 973
211 984
211 1026
211 1036
211 1082
211 1190
211 1197
211 1224
211 1226
211 1410
211 1455
211 1467
211 1659
211 1779
211 1859
211 2029
211 2048
211 2148
211 2151
211 2152
211 2243
211 2468
211 2483
211 2603
211 3093
211 3185
211 3387
211 3687
211 3700
211 3736
211 3737
211 3738
211 3739
211 3740
211 3741
211 3742
211 3743
211 3744
211 3745
211 3746
211 3747
211 3748
211 3749
211 3750
211 3751
211 3949
211 4322
211 4620
211 5726
212 16
212 32
212 42
212 60
212 61
212 65
212 79
212 82
212 120
212 124
212 203
212 217
212 227
212 281
212 441
212 448
212 478
212 581
212 640
212 867
212 925
212 994
212 1011
212 1033
212 1069
212 1093
212 1222
212 1345
212 1402
212 1515
212 1666
212 1734
212 2026
212 2736
212 2759
212 2975
212 3121
212 3195
212 3216
212 3232
212 3619
212 3752
212 3753
212 3754
212 3755
212 3756
212 3757
212 3758
212 3759
212 3760
212 4961
213 30
213 31
213 81
213 122
213 134
213 148
213 297
213 324
213 371
213 394
213 432
213 460
213 631
213 669
213 672
213 681
213 694
213 716
213 818
213 935
213 1013
213 1014
213 1153
213 1389
213 1489
213 1543
213 1560
213 1621
213 1664
213 1867
213 1896
213 2197
213 2257
213 2259
213 2398
213 2479
213 3130
213 3517
213 3546
213 3661
213 3761
213 3762
213 3763
213 3764
213 3765
213 3766
213 3767
213 3768
213 6437
214 12
214 44
214 76
214 105
214 179
214 185
214 209
214 236
214 290
214 299
214 357
214 361
214 380
214 382
214 430
214 441
214 507
214 604
214 616
214 617
214 740
214 760
214 902
214 925
214 1053
214 1113
214 1448
214 1496
214 1501
214 1568
214 1850
214 1852
214 1867
214 1889
214 1926
214 1932
214 1948
214 2137
214 2139
214 2985
214 3478
214 3484
214 3487
214 3665
214 3758
214 3769
214 3770
214 3771
214 3772
214 3773
214 3774
214 3775
214 3776
214 3777
214 3778
214 3779
214 3780
214 3781
214 3782
214 3783
214 3784
214 4743
214 5684
214 6500
215 22
215 62
215 65
215 73
215 123
215 168
215 197
215 215
215 275
215 358
215 473
215 613
215 649
215 659
215 694
215 698
215 782
215 812
215 854
215 893
215 924
215 1090
215 1156
215 1166
215 1221
215 1223
215 1245
215 1255
215 1301
215 1427
215 1473
215 1606
215 1681
215 1832
215 2093
215 2328
215 2353
215 2365
215 2471
215 2507
215 2537
215 2668
215 2858
215 2898
215 3020
215 3166
215 3240
215 3503
215 3785
215 3786
215 3787
215 3788
215 3789
215 3790
215 3791
215 3792
215 3793
215 3794
215 3795
215 5869
215 5961
215 6045
215 6131
216 22
216 23
216 41
216 43
216 54
216 58
216 60
216 69
216 72
216 85
216 120
216 124
216 150
216 165
216 179
216 188
216 200
216 203
216 262
216 321
216 330
216 334
216 339
216 357
216 358
216 434
216 458
216 640
216 657
216 711
216 902
216 1031
216 1549
216 1708
216 2004
216 2198
216 2272
216 2641
216 2718
216 2931
216 3114
216 3315
216 3439
216 3681
216 3796
216 3797
216 3798
216 3799
216 3800
216 3801
216 3802
216 5586
217 54
217 172
217 212
217 227
217 263
217 530
217 545
217 670
217 1010
217 1084
217 1144
217 1316
217 1463
217 1761
217 3453
217 3803
217 3804
217 3805
218 13
218 58
218 84
218 208
218 409
218 469
218 497
218 908
218 1191
218 2310
218 2322
218 2328
218 3756
218 3806
218 3807
218 3808
218 3809
218 3827
219 46
219 53
219 284
219 626
219 710
219 800
219 2004
219 2260
219 2312
219 2606
219 3017
219 3224
219 3328
219 3810
219 3811
219 3812
219 3813
219 5397
220 3831
220 3832
220 6565
221 3837
221 3838
221 6758
222 2288
222 2396
222 3339
222 4467
223 1363
223 1534
223 4234
223 6809
224 50
224 57
224 72
224 87
224 88
224 118
224 185
224 595
224 1011
224 1577
224 1772
224 2131
224 2493
224 2533
224 2607
224 3854
224 3855
225 49
225 70
225 77
225 208
225 313
225 421
225 594
225 781
225 940
225 1086
225 1732
225 2055
225 2424
225 2442
225 2618
225 3856
225 4170
226 28
226 81
226 84
226 172
226 288
226 342
226 541
226 598
226 848
226 2096
226 2979
226 3857
226 3858
226 3859
226 3860
226 4981
226 5486
227 32
227 87
227 212
227 217
227 282
227 288
227 814
227 1048
227 1059
227 1377
227 1380
227 1477
227 1657
227 1868
227 2023
227 2394
227 2868
227 3483
227 3861
228 98
228 149
228 160
228 279
228 759
228 967
228 1142
228 1537
228 1859
228 2092
228 2828
228 3178
228 3862
228 3863
228 3864
228 3865
228 3866
228 3867
228 3868
229 88
229 146
229 305
229 339
229 556
229 562
229 607
229 615
229 766
229 920
229 1088
229 1131
229 1484
229 1645
229 1867
229 3869
229 3870
229 3871
230 276
230 324
230 386
230 773
230 1184
230 1196
230 1295
230 3160
230 3872
231 117
231 388
231 418
231 508
231 1088
231 3873
231 3874
231 3875
231 4517
232 88
232 206
232 1347
232 3042
232 3726
232 3876
232 3877
232 3878
232 3879
233 53
233 88
233 256
233 528
233 545
233 686
233 885
233 1225
233 1240
233 1383
233 2048
233 3330
233 3568
233 3880
233 3881
234 82
234 254
234 433
234 687
234 1068
234 2345
234 2353
234 2955
234 3792
234 3818
234 3882
234 3883
234 3884
234 3885
234 3886
235 46
235 80
235 197
235 205
235 272
235 356
235 461
235 612
235 677
235 798
235 864
235 906
235 1187
235 1251
235 1543
235 1598
235 1715
235 1972
235 3157
235 3180
235 3887
235 3888
235 3889
235 3890
235 3891
236 24
236 38
236 48
236 81
236 102
236 180
236 214
236 290
236 415
236 478
236 507
236 526
236 653
236 788
236 902
236 907
236 1053
236 1948
236 2337
236 2885
236 3665
236 3892
236 3893
236 3894
236 5265
237 160
237 181
237 195
237 340
237 426
237 552
237 885
237 1426
237 1541
237 1623
237 1724
237 1802
237 1994
237 2031
237 2156
237 2403
237 3346
237 3508
237 3895
237 3896
237 3897
237 4305
237 4637
237 4789
237 5007
238 32
238 135
238 189
238 304
238 377
238 413
238 488
238 533
238 686
238 885
238 1072
238 1147
238 1240
238 1316
238 1543
238 1639
238 2025
238 2118
238 2388
238 3702
238 3898
238 3899
238 3900
238 3901
238 3902
238 3903
238 4183
239 139
239 261
239 1370
239 1813
239 3622
239 3904
239 3905
239 3906
239 5722
239 5921
240 44
240 69
240 72
240 75
240 194
240 201
240 203
240 366
240 557
240 722
240 955
240 1550
240 1968
240 2502
240 3154
240 3907
241 117
241 297
241 754
241 856
241 879
241 1184
241 1711
241 1713
241 1715
241 1716
241 1744
241 3908
241 3909
241 3910
241 3911
241 3912
242 87
242 88
242 194
242 202
242 1529
242 1989
242 2069
242 2444
242 3296
242 3913
242 3914
243 164
243 583
243 711
243 791
243 979
243 1095
243 1199
243 2224
243 3863
243 3915
243 6177
244 420
244 599
244 1345
244 1532
244 1541
244 3916
245 587
245 1754
245 2941
245 3917
245 3918
245 6543
246 3947
246 6779
247 247
247 3951
248 46
248 149
248 159
248 593
248 739
248 761
248 808
248 1263
248 1274
248 1439
248 1600
248 2233
248 3329
248 3339
248 3952
249 76
249 80
249 338
249 348
249 384
249 455
249 604
249 612
249 1433
249 1534
249 1768
249 3953
249 3954
249 3955
249 4034
250 1473
250 3956
250 3957
250 3958
250 3959
250 3960
250 3961
251 251
251 642
251 690
251 1745
251 3962
251 3963
251 3964
252 88
252 1484
252 3344
252 3965
252 3966
252 4547
252 5901
253 281
253 614
253 946
253 1113
253 1320
253 1667
253 1785
253 2606
253 3967
253 3968
254 19
254 67
254 71
254 72
254 75
254 86
254 157
254 167
254 171
254 194
254 196
254 205
254 234
254 392
254 589
254 695
254 807
254 851
254 877
254 900
254 926
254 975
254 1022
254 1043
254 1137
254 1172
254 1180
254 1202
254 1441
254 1555
254 1556
254 1589
254 1726
254 1754
254 1847
254 2228
254 2371
254 2407
254 2532
254 2595
254 2878
254 3126
254 3969
254 3970
254 3971
255 9
255 29
255 66
255 72
255 85
255 302
255 313
255 510
255 711
255 839
255 842
255 1037
255 1146
255 1173
255 1241
255 1436
255 1578
255 1591
255 1644
255 1662
255 1732
255 1733
255 1735
255 1754
255 1837
255 2046
255 2121
255 2332
255 2452
255 2509
255 2542
255 2582
255 2623
255 2760
255 2932
255 3674
255 3972
255 3973
255 3974
255 3975
255 3976
255 3977
255 4922
255 5522
255 6096
256 56
256 156
256 186
256 193
256 233
256 261
256 273
256 550
256 597
256 630
256 656
256 718
256 796
256 822
256 871
256 894
256 977
256 986
256 1008
256 1014
256 1347
256 1520
256 1899
256 2009
256 2030
256 2252
256 3178
256 3235
256 3239
256 3320
256 3344
256 3610
256 3687
256 3978
256 3979
256 3980
256 3981
256 3982
256 3983
256 3984
256 4345
256 4471
256 5121
256 5185
256 5267
257 298
257 576
257 911
257 1215
257 1711
257 1713
257 2228
257 3985
258 497
258 626
258 862
258 1896
258 3316
258 3986
258 3987
258 3988
259 22
259 46
259 63
259 156
259 177
259 187
259 189
259 436
259 684
259 698
259 1151
259 1441
259 1468
259 1546
259 1780
259 1835
259 2390
259 2435
259 2571
259 3170
259 3459
259 3588
259 3989
259 3990
259 3991
259 3992
259 3993
259 3994
260 86
260 88
260 94
260 179
260 315
260 331
260 332
260 664
260 740
260 834
260 930
260 1023
260 1033
260 1151
260 1245
260 1856
260 2097
260 2160
260 2185
260 2277
260 2418
260 2425
260 2537
260 2689
260 3995
260 3996
260 3997
260 3998
261 156
261 239
261 256
261 291
261 394
261 476
261 679
261 872
261 928
261 1014
261 1089
261 1322
261 1701
261 1703
261 1716
261 1745
261 1995
261 3235
261 3547
261 3999
261 4000
261 4001
261 4002
261 4003
261 4004
261 4005
261 4530
261 5760
262 35
262 55
262 88
262 194
262 203
262 216
262 314
262 315
262 321
262 520
262 676
262 760
262 774
262 948
262 993
262 1212
262 1246
262 1427
262 1592
262 1653
262 1682
262 1748
262 1755
262 1900
262 1946
262 2133
262 2275
262 2411
262 2451
262 2543
262 2632
262 2668
262 2788
262 3897
262 4006
262 4007
262 4008
262 4009
263 68
263 73
263 84
263 172
263 174
263 197
263 203
263 217
263 342
263 427
263 458
263 621
263 670
263 929
263 961
263 1009
263 1010
263 1084
263 1119
263 1158
263 1256
263 1938
263 2211
263 2598
263 2644
263 2887
263 3276
263 3453
263 3903
263 4010
263 4011
263 4012
263 4013
263 4014
263 4015
263 4016
263 4017
263 4328
264 478
264 653
264 900
264 948
264 1231
264 1255
264 4018
265 695
265 1142
265 2353
265 2427
265 3258
265 4019
265 5195
266 463
266 2022
266 2924
266 4020
266 4021
266 4022
266 6672
267 731
267 734
267 1049
267 1532
267 3910
267 4023
267 4024
267 4025
267 4026
267 4569
268 43
268 328
268 648
268 700
268 1245
268 1256
268 2099
268 4028
268 4029
268 4030
269 723
269 909
269 1550
269 4031
269 4032
270 586
270 612
270 686
270 4033
270 4034
271 325
271 3906
271 4035
271 5088
271 5374
272 80
272 169
272 180
272 186
272 209
272 235
272 272
272 278
272 355
272 379
272 402
272 545
272 586
272 604
272 658
272 766
272 987
272 1030
272 1160
272 1338
272 1671
272 1986
272 2284
272 2927
272 3011
272 3189
272 3239
272 3350
272 3439
272 3508
272 3984
272 4036
272 4037
272 4038
272 4039
272 4040
272 4041
272 4042
272 4043
272 4044
272 4045
272 4046
273 45
273 46
273 53
273 80
273 121
273 211
273 256
273 288
273 343
273 371
273 374
273 391
273 424
273 562
273 563
273 671
273 788
273 810
273 816
273 874
273 935
273 969
273 997
273 1050
273 1452
273 1492
273 1541
273 1547
273 1866
273 2380
273 2393
273 2598
273 2967
273 2996
273 3197
273 3468
273 3648
273 4047
273 4048
273 4049
273 4050
273 4051
274 74
274 102
274 315
274 334
274 513
274 662
274 682
274 795
274 995
274 1172
274 1524
274 1823
274 1946
274 2137
274 2185
274 2351
274 2406
274 2490
274 3049
274 3415
274 4052
275 71
275 72
275 81
275 86
275 215
275 299
275 405
275 644
275 665
275 799
275 1069
275 1205
275 1614
275 1752
275 2201
275 2215
275 2294
275 2364
275 4053
275 4054
275 4438
276 230
276 312
276 527
276 646
276 822
276 836
276 839
276 1002
276 1019
276 1307
276 1429
276 1467
276 1703
276 2187
276 2237
276 3425
276 4055
276 4056
276 4057
276 4058
276 4059
277 26
277 32
277 88
277 414
277 717
277 976
277 1003
277 1007
277 1463
277 1521
277 1974
277 2397
277 3622
277 3939
277 4060
277 4061
277 4062
277 4063
277 4064
277 5565
277 6730
278 166
278 272
278 336
278 356
278 400
278 412
278 554
278 625
278 847
278 893
278 941
278 964
278 1128
278 1411
278 1540
278 1587
278 1792
278 1992
278 4065
278 4066
278 4067
279 45
279 187
279 228
279 338
279 356
279 375
279 577
279 688
279 759
279 1379
279 1598
279 1686
279 1761
279 1819
279 2092
279 2168
279 2828
279 4068
279 4069
279 4070
279 4071
280 151
280 304
280 358
280 522
280 770
280 854
280 1129
280 1169
280 1210
280 1255
280 1307
280 2245
280 3681
280 4072
280 4073
280 4074
280 4075
280 4076
280 4077
280 4536
280 5603
281 60
281 68
281 73
281 80
281 82
281 87
281 120
281 175
281 176
281 179
281 200
281 212
281 253
281 290
281 297
281 352
281 357
281 377
281 394
281 468
281 478
281 665
281 685
281 779
281 788
281 807
281 1128
281 1198
281 1222
281 1263
281 1341
281 1419
281 1474
281 1931
281 1946
281 2092
281 2093
281 2142
281 2161
281 2263
281 2271
281 3481
281 3771
281 3784
281 3807
281 4078
281 4079
281 4080
281 4081
281 4082
281 4083
282 63
282 73
282 79
282 83
282 88
282 227
282 413
282 416
282 544
282 591
282 645
282 653
282 659
282 964
282 1015
282 1496
282 1629
282 1631
282 1900
282 2343
282 2544
282 3271
282 3328
282 3790
282 4083
282 4084
282 4085
282 4086
282 4087
282 4088
282 4089
282 4090
282 4958
282 5673
282 6295
283 80
283 88
283 156
283 374
283 391
283 410
283 420
283 518
283 544
283 563
283 1026
283 1099
283 1389
283 1540
283 2659
283 2979
283 3178
283 3350
283 3426
283 4080
283 4091
283 4092
283 4093
283 4094
283 4095
283 4096
283 4097
283 4098
283 4099
283 4358
283 4560
283 4988
283 5282
283 5790
283 5859
284 219
284 1614
284 1757
284 1888
284 2316
284 2323
284 2751
284 2917
284 3223
284 3328
284 3799
284 3813
284 4012
284 4100
284 4101
284 4102
285 102
285 190
285 434
285 439
285 616
285 689
285 1898
285 2139
285 3214
285 3777
285 3798
285 4103
285 4104
285 4105
285 4106
285 5681
286 356
286 367
286 788
286 953
286 1053
286 1567
286 1590
286 1667
286 2547
286 3130
286 4107
286 4108
286 4109
286 4110
286 4111
286 4178
287 35
287 69
287 72
287 88
287 165
287 180
287 313
287 351
287 607
287 849
287 1349
287 1556
287 4112
287 4113
288 63
288 64
288 123
288 124
288 163
288 164
288 182
288 211
288 226
288 227
288 273
288 291
288 303
288 377
288 398
288 412
288 416
288 512
288 855
288 864
288 865
288 885
288 941
288 966
288 1033
288 1082
288 1098
288 1124
288 1153
288 1251
288 1354
288 1489
288 1729
288 1893
288 1929
288 2168
288 2259
288 3197
288 3412
288 3519
288 3640
288 3954
288 4114
288 4115
288 4116
288 4117
288 4118
288 4119
288 4120
288 4946
288 5832
288 6212
289 48
289 51
289 65
289 74
289 81
289 84
289 88
289 124
289 154
289 194
289 334
289 695
289 871
289 926
289 994
289 1202
289 1461
289 1524
289 1556
289 1672
289 1719
289 1942
289 2125
289 2300
289 2347
289 2421
289 2460
289 2630
289 2685
289 3638
289 3777
289 4121
289 4122
289 4123
290 12
290 44
290 73
290 200
290 214
290 236
290 281
290 315
290 415
290 511
290 604
290 788
290 938
290 1027
290 1209
290 1222
290 1452
290 1492
290 1845
290 1948
290 2099
290 2135
290 2751
290 3046
290 3154
290 3478
290 3775
290 3780
290 4124
290 4125
290 4126
290 4587
290 4588
290 5530
291 199
291 261
291 288
291 317
291 364
291 420
291 435
291 620
291 656
291 670
291 671
291 673
291 836
291 1322
291 1439
291 1582
291 1586
291 1659
291 1803
291 1866
291 2164
291 2395
291 3141
291 3400
291 4127
291 4128
291 4129
291 4130
291 4131
291 4132
291 4133
291 4419
291 6040
291 6459
292 40
292 88
292 168
292 560
292 721
292 792
292 814
292 821
292 850
292 2026
292 2111
292 4028
292 4134
292 4135
293 36
293 88
293 436
293 695
293 983
293 1076
293 1404
293 1579
293 1931
293 3621
293 4136
293 4137
293 4138
293 4139
294 37
294 64
294 67
294 82
294 102
294 125
294 316
294 401
294 419
294 509
294 594
294 706
294 794
294 901
294 940
294 942
294 1043
294 1081
294 1167
294 1192
294 1256
294 1580
294 1672
294 1692
294 1734
294 1945
294 1964
294 2179
294 2295
294 2330
294 2443
294 2733
294 3000
294 3286
294 3917
294 4140
294 5751
295 35
295 38
295 57
295 67
295 74
295 82
295 203
295 422
295 1213
295 1229
295 1448
295 1592
295 1794
295 1946
295 1969
295 2125
295 2191
295 2220
295 2998
295 4141
296 66
296 70
296 78
296 114
296 399
296 607
296 830
296 988
296 1173
296 1436
296 1527
296 1732
296 1734
296 1857
296 2568
296 2623
296 3977
296 4142
296 4143
296 4144
297 193
297 209
297 213
297 241
297 281
297 374
297 394
297 521
297 865
297 931
297 1014
297 1679
297 1702
297 1703
297 2241
297 2861
297 2996
297 3197
297 3606
297 4145
297 4146
297 4147
297 4148
297 4149
298 38
298 84
298 87
298 181
298 257
298 303
298 334
298 360
298 367
298 402
298 835
298 1134
298 1233
298 1334
298 1459
298 2589
298 3469
298 3578
298 3626
298 4150
298 4151
298 4152
298 4153
298 4154
299 28
299 31
299 35
299 168
299 201
299 214
299 275
299 357
299 501
299 607
299 702
299 804
299 833
299 912
299 921
299 984
299 1365
299 1417
299 1502
299 1572
299 1579
299 1611
299 1707
299 1764
299 1784
299 1802
299 1994
299 2059
299 2632
299 2671
299 2752
299 2874
299 3954
299 4100
299 4155
299 4156
299 4157
299 4158
299 4159
299 4370
300 20
300 23
300 62
300 73
300 201
300 351
300 398
300 544
300 615
300 684
300 740
300 761
300 790
300 835
300 1128
300 1132
300 1178
300 1246
300 1377
300 1534
300 1623
300 1764
300 1770
300 1890
300 1900
300 1925
300 2259
300 3508
300 4160
300 4161
300 4162
301 28
301 88
301 123
301 168
301 177
301 190
301 194
301 195
301 377
301 406
301 582
301 863
301 996
301 1077
301 1092
301 1116
301 1603
301 1835
301 1846
301 2051
301 2446
301 3049
301 3134
301 3194
301 4161
301 4163
301 4164
301 4165
301 4166
301 4167
301 4168
302 29
302 35
302 67
302 72
302 255
302 327
302 334
302 392
302 404
302 412
302 597
302 781
302 1017
302 1122
302 1251
302 1344
302 1392
302 2175
302 2568
302 2590
302 2639
302 3296
302 3327
302 3655
302 3680
302 4169
302 4170
302 4171
303 65
303 106
303 145
303 174
303 288
303 298
303 815
303 839
303 988
303 1059
303 1073
303 1098
303 1160
303 1309
303 1696
303 2211
303 2282
303 2432
303 2729
303 3310
303 4172
303 4173
303 4174
303 4175
303 4176
303 4177
303 4197
303 4205
304 16
304 50
304 62
304 161
304 195
304 238
304 280
304 382
304 387
304 512
304 1021
304 1109
304 1424
304 1640
304 1730
304 2025
304 2399
304 3503
304 3903
304 4090
304 4178
304 4179
304 4180
304 4181
304 4182
304 4183
304 4184
304 5213
305 45
305 54
305 80
305 109
305 123
305 155
305 183
305 202
305 210
305 229
305 317
305 590
305 597
305 620
305 661
305 691
305 880
305 922
305 1007
305 1121
305 1258
305 1490
305 1813
305 2014
305 2022
305 2662
305 4185
305 4186
305 4187
305 4188
305 4189
305 4190
306 38
306 50
306 70
306 75
306 82
306 85
306 110
306 165
306 170
306 175
306 585
306 595
306 803
306 1213
306 1400
306 1556
306 1580
306 1970
306 2082
306 2331
306 2440
306 2504
306 2577
306 2619
306 2857
306 2936
306 3287
306 3820
306 4191
307 12
307 14
307 52
307 82
307 181
307 193
307 209
307 380
307 440
307 501
307 507
307 543
307 544
307 612
307 946
307 1208
307 1377
307 1378
307 1412
307 1459
307 1925
307 1954
307 1981
307 2235
307 3871
307 4192
307 4193
307 4194
307 5765
308 53
308 64
308 76
308 124
308 159
308 197
308 416
308 681
308 698
308 704
308 808
308 855
308 935
308 1124
308 1143
308 1414
308 1420
308 1686
308 1819
308 1829
308 1927
308 3173
308 3410
308 4100
308 4195
308 4196
308 4197
308 4198
308 5140
309 199
309 343
309 550
309 634
309 777
309 1796
309 1914
309 3080
309 3910
309 4199
309 4200
309 4201
310 49
310 371
310 382
310 611
310 1283
310 1383
310 1738
310 2083
310 4202
310 4203
310 4204
310 4205
311 17
311 21
311 39
311 67
311 78
311 79
311 401
311 513
311 589
311 930
311 943
311 1037
311 1837
311 1851
311 2175
311 2437
311 2443
311 2520
311 2618
311 3974
311 3976
311 4206
311 4207
312 68
312 276
312 367
312 374
312 404
312 540
312 601
312 697
312 818
312 1155
312 1648
312 1664
312 2394
312 2702
312 2965
312 3732
312 3910
312 4208
312 4209
312 4210
312 4211
312 4212
312 4568
313 14
313 35
313 38
313 66
313 78
313 94
313 165
313 171
313 200
313 204
313 225
313 255
313 287
313 399
313 423
313 664
313 775
313 781
313 793
313 800
313 981
313 1098
313 1178
313 1241
313 1337
313 1735
313 1987
313 2043
313 2172
313 2175
313 2441
313 2462
313 2781
313 2926
313 3974
313 4213
313 4214
313 4215
313 5081
314 27
314 47
314 83
314 88
314 108
314 125
314 165
314 262
314 339
314 381
314 510
314 675
314 719
314 744
314 850
314 1017
314 1129
314 1173
314 1381
314 1487
314 1524
314 1726
314 1735
314 1755
314 1776
314 1860
314 2043
314 2131
314 2459
314 2496
314 2538
314 3682
314 4216
314 4217
314 4218
314 4219
314 4220
314 4221
314 4222
315 44
315 73
315 88
315 125
315 157
315 179
315 191
315 200
315 260
315 262
315 274
315 290
315 331
315 381
315 537
315 548
315 695
315 706
315 877
315 1350
315 1514
315 1589
315 1672
315 1692
315 1827
315 1850
315 2059
315 2718
315 3154
315 3257
315 3415
315 4223
316 54
316 65
316 73
316 82
316 94
316 201
316 294
316 330
316 331
316 415
316 490
316 616
316 711
316 802
316 900
316 942
316 955
316 1127
316 1207
316 1518
316 1823
316 2343
316 2346
316 2430
316 2431
316 2434
316 2851
316 3392
316 3797
316 4224
316 4225
316 4226
317 160
317 192
317 291
317 305
317 335
317 432
317 455
317 488
317 661
317 686
317 714
317 891
317 1036
317 1059
317 1203
317 1543
317 1572
317 1573
317 1574
317 1871
317 2826
317 3252
317 3623
317 3927
317 4227
317 4228
317 4229
317 4230
317 4231
317 4441
317 5990
317 6513
318 22
318 69
318 84
318 88
318 188
318 358
318 490
318 598
318 633
318 700
318 745
318 774
318 1266
318 1357
318 1442
318 1497
318 1750
318 2288
318 2354
318 2364
318 2687
318 3414
318 3556
318 3558
318 3562
318 4164
318 4232
318 4233
318 4234
318 4276
318 4376
318 5973
319 689
319 1790
319 3832
319 4236
319 6805
320 964
320 2255
320 4237
320 4238
320 4239
321 13
321 47
321 55
321 78
321 80
321 85
321 128
321 153
321 165
321 168
321 203
321 216
321 262
321 465
321 507
321 511
321 520
321 555
321 575
321 608
321 686
321 705
321 780
321 1127
321 1135
321 1233
321 1441
321 1501
321 1531
321 1592
321 1608
321 1647
321 1718
321 1770
321 1800
321 1834
321 1868
321 2201
321 2275
321 2629
321 2684
321 2752
321 3393
321 3671
321 4054
321 4233
321 4240
321 4241
321 4242
321 4243
321 5454
322 49
322 53
322 63
322 338
322 793
322 1096
322 1439
322 1519
322 1886
322 2198
322 2970
322 3337
322 4244
323 812
323 857
323 965
323 1379
323 2012
323 2859
323 2861
323 3089
323 4128
323 4245
323 4246
323 4247
323 4248
324 30
324 49
324 144
324 159
324 213
324 230
324 382
324 400
324 450
324 529
324 554
324 630
324 668
324 761
324 810
324 818
324 899
324 979
324 1002
324 1151
324 1276
324 1389
324 1394
324 1413
324 1546
324 1686
324 1890
324 1927
324 2383
324 3127
324 3744
324 3954
324 4249
324 4250
324 4251
324 4252
325 117
325 271
325 372
325 373
325 384
325 435
325 517
325 596
325 601
325 611
325 681
325 742
325 749
325 874
325 928
325 1004
325 1061
325 1219
325 1234
325 1352
325 1499
325 1706
325 1996
325 3152
325 4060
325 4152
325 4253
325 4254
325 4255
325 4256
325 4257
325 4258
325 5308
325 5336
325 6341
325 6771
326 4259
326 6958
327 37
327 78
327 88
327 153
327 302
327 510
327 776
327 1660
327 1661
327 2638
327 3856
327 4261
328 68
328 268
328 794
328 835
328 1098
328 1334
328 1362
328 1841
328 2396
328 4156
328 4262
328 6058
329 408
329 642
329 1287
329 1394
329 2341
329 2573
329 2928
329 4263
329 4264
329 4265
329 4266
330 11
330 41
330 42
330 44
330 167
330 182
330 216
330 316
330 363
330 417
330 536
330 711
330 718
330 756
330 831
330 871
330 909
330 1095
330 1310
330 1397
330 1550
330 1615
330 1628
330 1728
330 1774
330 1846
330 2004
330 2198
330 2263
330 2267
330 2384
330 2864
330 2899
330 2985
330 3479
330 4166
330 4267
330 4268
330 4269
330 4270
330 4271
330 4272
330 4273
330 4274
330 4275
330 4277
330 4598
331 27
331 36
331 48
331 71
331 83
331 84
331 88
331 191
331 260
331 315
331 316
331 339
331 419
331 513
331 851
331 1256
331 1445
331 1751
331 1849
331 1958
331 3065
331 4276
332 13
332 85
332 88
332 260
332 352
332 685
332 792
332 1035
332 1365
332 1382
332 1910
332 3117
332 3479
332 3629
332 3807
332 3840
332 4267
332 4277
332 4278
332 4279
332 4280
332 4281
333 19
333 29
333 55
333 77
333 86
333 88
333 154
333 479
333 483
333 995
333 1202
333 1835
333 1900
333 1949
333 2275
333 2641
333 2761
333 4282
333 4283
333 4284
333 4285
333 4286
334 38
334 55
334 71
334 75
334 81
334 82
334 83
334 86
334 87
334 123
334 124
334 157
334 171
334 172
334 176
334 216
334 274
334 289
334 298
334 302
334 351
334 392
334 406
334 411
334 526
334 603
334 607
334 616
334 649
334 676
334 801
334 884
334 925
334 927
334 979
334 993
334 1151
334 1169
334 1202
334 1254
334 1312
334 1542
334 1629
334 1700
334 1747
334 1902
334 1910
334 1978
334 2035
334 2101
334 2185
334 2290
334 2419
334 2438
334 2549
334 2558
334 2698
334 2699
334 2703
334 2820
334 2864
334 2945
334 3302
334 4123
334 4197
334 4287
334 4288
334 4289
334 4290
334 4291
334 4654
335 45
335 63
335 317
335 335
335 414
335 924
335 1159
335 1389
335 2145
335 3228
335 3622
335 3911
335 4096
335 4227
335 4292
335 4293
335 4294
336 146
336 174
336 278
336 353
336 1009
336 1187
336 1191
336 1621
336 1689
336 1709
336 3700
336 3778
336 4295
336 4296
336 4297
336 4298
336 4727
337 3170
337 4301
337 6922
338 68
338 73
338 103
338 133
338 134
338 209
338 249
338 279
338 322
338 351
338 398
338 556
338 625
338 689
338 720
338 754
338 863
338 931
338 977
338 1151
338 1220
338 1279
338 1382
338 1420
338 1714
338 2201
338 2586
338 3381
338 3388
338 3483
338 3521
338 3707
338 4302
338 4303
338 4304
338 4305
338 4306
338 4307
338 4308
338 4309
338 4310
339 64
339 65
339 66
339 70
339 71
339 73
339 74
339 77
339 85
339 86
339 216
339 229
339 314
339 331
339 363
339 489
339 652
339 662
339 664
339 828
339 932
339 1557
339 1673
339 1700
339 1800
339 1814
339 1846
339 1944
339 1946
339 2123
339 2174
339 2619
339 2753
339 3355
339 3776
339 4311
339 4312
339 4313
339 4314
339 4315
339 6062
340 237
340 815
340 971
340 973
340 4316
340 4317
340 4318
341 120
341 1488
341 2952
341 2954
341 4319
341 4320
341 4321
342 23
342 63
342 172
342 181
342 182
342 226
342 263
342 342
342 419
342 458
342 611
342 621
342 839
342 1010
342 1036
342 1084
342 1158
342 1201
342 1701
342 2398
342 2606
342 3580
342 3739
342 4322
342 4323
342 4324
342 4325
342 4326
342 4327
342 4328
342 4329
342 5156
342 5580
343 182
343 208
343 273
343 309
343 527
343 684
343 741
343 832
343 1147
343 1179
343 1195
343 1368
343 1484
343 1499
343 1500
343 1572
343 1651
343 1713
343 2205
343 3909
343 4120
343 4159
343 4330
343 4331
343 4332
343 4333
343 4334
343 4335
344 373
344 414
344 524
344 660
344 777
344 809
344 843
344 876
344 1284
344 1285
344 1374
344 1471
344 1526
344 1601
344 1916
344 2972
344 3572
344 4336
344 4337
344 4338
344 4339
344 4340
344 4341
344 4342
344 4343
344 4347
344 5648
344 6141
345 63
345 161
345 391
345 420
345 431
345 435
345 601
345 663
345 668
345 681
345 742
345 1953
345 2005
345 2713
345 2967
345 3372
345 3459
345 3543
345 3687
345 3999
345 4344
345 4345
345 4346
345 4347
345 4348
345 4349
345 5309
345 6621
346 180
346 616
346 651
346 700
346 794
346 824
346 1830
346 2130
346 4350
346 4351
346 4352
347 385
347 596
347 742
347 1088
347 2917
347 4008
347 4353
347 4354
347 4355
347 4356
347 6159
348 166
348 249
348 1376
348 1638
348 3953
348 4060
348 4357
348 4358
349 37
349 39
349 202
349 712
349 3066
349 3997
349 4359
349 4360
350 35
350 56
350 72
350 88
350 803
350 940
350 1178
350 1238
350 1525
350 1660
350 1801
350 2538
350 2905
350 3291
350 3580
350 4361
350 4362
350 4363
350 4364
350 4365
351 19
351 61
351 179
351 287
351 300
351 334
351 338
351 1212
351 1423
351 1983
351 2180
351 2356
351 2531
351 2645
351 3101
351 3111
351 4366
351 4367
351 4368
351 4369
352 42
352 65
352 73
352 179
352 281
352 332
352 371
352 669
352 730
352 760
352 861
352 865
352 1165
352 1787
352 1823
352 2263
352 2792
352 3097
352 3453
352 3799
352 3807
352 4370
352 4841
353 193
353 336
353 371
353 379
353 410
353 432
353 605
353 672
353 932
353 1079
353 1082
353 1089
353 1599
353 1822
353 1956
353 3086
353 3714
353 4045
353 4371
353 4372
353 4373
353 4374
353 4375
354 15
354 34
354 88
354 354
354 357
354 695
354 849
354 993
354 1076
354 1141
354 1236
354 1336
354 1356
354 1931
354 1990
354 2179
354 2365
354 4376
354 4377
354 4378
354 4379
354 4380
354 5091
355 117
355 184
355 272
355 363
355 394
355 455
355 720
355 777
355 862
355 1071
355 1128
355 1183
355 1363
355 1770
355 1825
355 3456
355 4381
355 4382
355 4383
355 4384
355 4385
355 4386
355 4387
356 52
356 80
356 88
356 207
356 235
356 278
356 279
356 286
356 374
356 461
356 501
356 564
356 669
356 920
356 935
356 1082
356 1115
356 1538
356 2317
356 3042
356 3364
356 3661
356 4048
356 4388
356 4389
356 4390
356 4391
356 4392
356 4393
356 4550
357 51
357 86
357 87
357 88
357 133
357 203
357 214
357 216
357 281
357 299
357 354
357 380
357 440
357 478
357 555
357 653
357 711
357 740
357 774
357 871
357 1378
357 1594
357 2165
357 2699
357 3067
357 3258
357 3419
357 4394
357 4395
357 4396
358 73
358 123
358 215
358 216
358 280
358 318
358 512
358 581
358 648
358 828
358 863
358 1169
358 1210
358 1273
358 1493
358 1496
358 1643
358 1722
358 1753
358 2048
358 2720
358 2723
358 3067
358 3114
358 3262
358 3800
358 4372
358 4397
358 4398
358 5848
359 30
359 88
359 363
359 404
359 426
359 1121
359 1281
359 2904
359 2915
359 2929
359 3331
359 4314
359 4399
359 4400
359 4401
359 4402
359 4403
359 5320
360 68
360 122
360 163
360 182
360 298
360 412
360 516
360 1251
360 1675
360 1947
360 2589
360 2665
360 2725
360 4404
360 4405
360 4406
360 4407
360 4556
361 214
361 382
361 4408
361 4409
362 4410
362 4411
362 4412
362 4413
363 30
363 330
363 339
363 355
363 359
363 593
363 960
363 984
363 1090
363 1220
363 1480
363 1563
363 1714
363 1952
363 3067
363 3446
363 4414
363 4415
363 4416
364 58
364 146
364 208
364 291
364 569
364 809
364 966
364 1257
364 1285
364 1345
364 1352
364 1526
364 1532
364 1805
364 3401
364 3572
364 4417
364 4418
364 4419
365 1598
365 4059
365 4420
365 4421
366 44
366 72
366 74
366 88
366 102
366 196
366 201
366 202
366 240
366 552
366 640
366 655
366 711
366 877
366 1039
366 1125
366 1277
366 1291
366 1364
366 1415
366 1450
366 1726
366 1886
366 2062
366 2080
366 2126
366 2179
366 2183
366 2217
366 2285
366 2299
366 2645
366 2694
367 26
367 31
367 33
367 45
367 80
367 138
367 161
367 193
367 286
367 298
367 312
367 371
367 380
367 599
367 630
367 634
367 788
367 818
367 873
367 897
367 935
367 1180
367 1219
367 1287
367 1374
367 1635
367 1984
367 2019
367 4417
367 4422
367 4423
367 4424
367 5428
368 451
368 721
368 919
368 1126
368 4425
368 4426
369 749
369 1757
369 4427
369 4428
369 4429
369 6416
370 1292
370 4430
370 4431
370 4432
370 4433
371 80
371 103
371 116
371 147
371 213
371 273
371 310
371 352
371 353
371 367
371 383
371 471
371 605
371 659
371 701
371 703
371 734
371 853
371 1006
371 1013
371 1096
371 1195
371 1212
371 1309
371 1484
371 1588
371 1634
371 1756
371 1899
371 1972
371 1984
371 1992
371 2253
371 2429
371 2946
371 3126
371 3306
371 3533
371 4434
371 4435
371 4436
371 4437
371 4438
371 4439
371 4440
371 4646
372 88
372 325
372 382
372 420
372 480
372 742
372 749
372 872
372 1073
372 1142
372 1184
372 1322
372 1370
372 1437
372 1559
372 1587
372 2240
372 2897
372 3118
372 3654
372 3716
372 3741
372 3927
372 4441
372 4442
372 4443
372 4444
372 4445
372 4446
372 4658
373 84
373 159
373 161
373 208
373 325
373 344
373 375
373 414
373 524
373 596
373 617
373 670
373 677
373 679
373 717
373 874
373 887
373 1131
373 1147
373 1274
373 1293
373 1384
373 1388
373 1399
373 1805
373 2027
373 4447
373 4448
373 4449
373 4450
374 63
374 68
374 76
374 80
374 121
374 155
374 156
374 186
374 211
374 273
374 283
374 297
374 312
374 356
374 412
374 532
374 550
374 564
374 612
374 669
374 754
374 809
374 874
374 1026
374 1276
374 1344
374 1621
374 1762
374 2006
374 2346
374 2953
374 3152
374 3178
374 3243
374 3318
374 3364
374 3741
374 4451
374 4452
374 4453
374 4454
374 4455
374 4456
374 6120
375 279
375 373
375 377
375 410
375 418
375 527
375 588
375 742
375 772
375 856
375 1179
375 1664
375 4457
376 188
376 634
376 966
376 1061
376 1134
376 1546
376 1636
376 1638
376 1666
376 1693
376 1815
376 4458
376 4459
377 14
377 60
377 121
377 159
377 200
377 238
377 281
377 288
377 301
377 375
377 402
377 419
377 426
377 484
377 527
377 533
377 618
377 690
377 853
377 941
377 1561
377 1770
377 2205
377 4335
377 4460
377 4461
377 4462
378 123
378 148
378 417
378 598
378 1092
378 1136
378 1220
378 1223
378 1353
378 1455
378 1609
378 1802
378 1803
378 1952
378 2530
378 2972
378 3166
378 3404
378 3646
378 3740
378 4463
378 4464
378 4465
378 4466
378 4467
378 5404
379 33
379 206
379 272
379 353
379 522
379 663
379 873
379 1096
379 1321
379 1877
379 2241
379 2664
379 2900
379 2957
379 3609
379 3610
379 3984
379 4468
379 4469
379 4470
379 4471
379 4472
380 45
380 46
380 183
380 214
380 307
380 357
380 367
380 440
380 501
380 507
380 564
380 593
380 630
380 663
380 667
380 672
380 693
380 739
380 920
380 948
380 953
380 977
380 1165
380 1191
380 1567
380 1568
380 1600
380 1954
380 2106
380 2157
380 2317
380 2613
380 2690
380 2866
380 3042
380 3145
380 3234
380 3480
380 3605
380 3785
380 4081
380 4473
380 4474
380 4475
380 4476
380 4477
380 4478
380 4479
380 4480
380 4481
380 4482
380 4483
380 4484
380 5293
380 6152
381 25
381 29
381 36
381 59
381 61
381 66
381 78
381 314
381 315
381 585
381 901
381 991
381 1392
381 1700
381 1908
381 1938
381 1971
381 2010
381 2068
381 2347
381 2427
381 2451
381 2495
381 2530
381 2644
381 3071
381 3264
381 4485
381 4486
381 4487
381 4670
382 80
382 101
382 109
382 211
382 214
382 304
382 310
382 324
382 361
382 372
382 410
382 593
382 597
382 619
382 681
382 691
382 862
382 1033
382 1149
382 1519
382 1599
382 1695
382 2241
382 2250
382 2476
382 3654
382 4488
382 4489
382 4490
382 4491
382 4891
383 63
383 88
383 122
383 371
383 566
383 602
383 610
383 615
383 618
383 690
383 693
383 717
383 759
383 843
383 960
383 1124
383 1224
383 1276
383 1447
383 1540
383 1894
383 2961
383 3160
383 3181
383 4492
383 4493
383 4494
383 4495
383 4496
383 4497
383 5064
384 45
384 63
384 80
384 106
384 133
384 146
384 189
384 249
384 325
384 692
384 764
384 1096
384 1279
384 1742
384 1864
384 1894
384 4498
384 4499
385 210
385 347
385 397
385 596
385 674
385 677
385 1258
385 1494
385 1503
385 2481
385 3184
385 4500
385 4501
385 4502
385 4503
385 4504
385 5591
386 186
386 230
386 596
386 722
386 963
386 969
386 1030
386 1640
386 1980
386 3546
386 4505
386 4506
386 4507
386 4508
386 4509
386 4510
386 5216
386 5240
387 304
387 891
387 939
387 1293
387 1354
387 2403
387 3563
387 3568
387 4157
387 4511
387 4512
387 4513
387 4514
387 4515
387 4516
387 5037
387 6015
388 88
388 117
388 147
388 197
388 231
388 668
388 679
388 772
388 1279
388 1542
388 2380
388 3081
388 3437
388 4517
388 4518
388 4519
388 4520
389 87
389 137
389 389
389 553
389 598
389 1156
389 1235
389 1300
389 1356
389 1930
389 2354
389 2370
389 2510
389 2537
389 2644
389 2731
389 3191
389 3272
389 3663
389 4521
389 4522
389 4523
390 503
390 777
390 809
390 876
390 1056
390 1104
390 1257
390 1346
390 1374
390 1384
390 1526
390 1536
390 1723
390 3159
390 3572
390 3718
390 3916
390 4424
390 4524
390 4525
390 4526
390 5547
391 80
391 87
391 199
391 273
391 283
391 345
391 540
391 694
391 720
391 931
391 1484
391 1576
391 1715
391 1745
391 1780
391 2967
391 4527
391 4528
391 4529
391 4530
391 5407
391 5814
392 24
392 29
392 40
392 41
392 56
392 66
392 67
392 196
392 254
392 302
392 334
392 399
392 531
392 587
392 607
392 649
392 664
392 712
392 775
392 795
392 807
392 905
392 1040
392 1069
392 1122
392 1350
392 1453
392 1515
392 1725
392 1921
392 1962
392 1989
392 1991
392 2065
392 2097
392 2100
392 2123
392 2134
392 2140
392 2141
392 2172
392 2222
392 2286
392 2368
392 2406
392 2432
392 2486
392 2628
392 2635
392 2767
392 3684
392 3843
392 4122
392 4171
392 4214
392 4289
392 4531
392 4532
392 4533
392 6431
393 16
393 32
393 60
393 166
393 170
393 460
393 713
393 871
393 915
393 1036
393 1547
393 1569
393 1607
393 1796
393 2281
393 4534
393 4535
393 4536
394 213
394 261
394 281
394 297
394 355
394 402
394 404
394 410
394 412
394 864
394 865
394 1014
394 1050
394 2979
394 3951
394 4005
394 4537
394 4538
395 23
395 181
395 193
395 1452
395 1585
395 1787
395 2159
395 2163
395 3316
395 3327
395 3372
395 3878
395 4064
395 4539
395 4540
395 4541
395 4542
395 6144
396 397
396 1177
396 1503
396 1721
396 3054
396 3142
396 3844
396 4012
396 4543
396 4544
397 385
397 396
397 397
397 889
397 1494
397 1721
397 1907
397 4503
397 4545
397 4546
397 5778
398 80
398 84
398 198
398 288
398 300
398 338
398 450
398 797
398 866
398 891
398 920
398 1141
398 1150
398 1197
398 1220
398 1256
398 2270
398 2510
398 2644
398 3191
398 3388
398 3460
398 3597
398 4547
398 4548
398 4549
398 4550
399 12
399 66
399 114
399 202
399 296
399 313
399 392
399 421
399 712
399 1181
399 1392
399 1400
399 1485
399 1660
399 1700
399 1732
399 1800
399 1854
399 1919
399 2440
399 2530
399 2742
399 4551
399 4552
399 4553
399 4554
399 4555
400 20
400 23
400 172
400 189
400 278
400 324
400 772
400 897
400 1183
400 1188
400 1409
400 1411
400 1540
400 1541
400 1871
400 1999
400 2009
400 2193
400 2257
400 3317
400 4065
400 4556
400 4557
400 4558
400 4559
400 4560
400 6371
401 43
401 59
401 294
401 311
401 652
401 712
401 719
401 828
401 949
401 981
401 1065
401 1122
401 1181
401 1704
401 1922
401 1971
401 2059
401 2065
401 2358
401 2464
401 2518
401 2742
401 3671
401 4561
401 4562
401 4563
402 88
402 122
402 208
402 272
402 298
402 377
402 394
402 425
402 429
402 630
402 656
402 678
402 680
402 690
402 745
402 874
402 920
402 1153
402 1166
402 2326
402 2483
402 3084
402 3428
402 4024
402 4564
402 4565
403 20
403 28
403 41
403 48
403 75
403 76
403 84
403 116
403 203
403 411
403 531
403 736
403 792
403 900
403 1053
403 1125
403 1404
403 1425
403 1513
403 1548
403 1728
403 1814
403 1841
403 1967
403 2189
403 2245
403 2419
403 2422
403 2537
403 2679
403 3111
403 3483
403 3778
403 4189
403 4566
404 138
404 156
404 160
404 302
404 312
404 359
404 394
404 532
404 632
404 669
404 717
404 742
404 806
404 972
404 1056
404 1079
404 1082
404 1095
404 1131
404 1147
404 1293
404 1467
404 1638
404 2386
404 2929
404 3197
404 3223
404 3247
404 4051
404 4567
404 4568
404 4569
404 4570
404 4571
404 4572
405 50
405 68
405 69
405 118
405 154
405 275
405 647
405 722
405 735
405 778
405 924
405 987
405 1012
405 1201
405 1245
405 1349
405 1609
405 1695
405 1794
405 1831
405 1919
405 2175
405 2218
405 2224
405 2309
405 2489
405 3134
405 4566
405 4573
406 301
406 334
406 592
406 1548
406 1958
406 2371
406 4574
406 4575
406 4576
407 655
407 1670
407 3807
407 3849
407 4577
407 4578
407 4579
407 4580
407 5266
408 62
408 149
408 186
408 209
408 329
408 741
408 880
408 928
408 1159
408 1354
408 1498
408 1770
408 1939
408 2163
408 2842
408 3060
408 3178
408 3350
408 3468
408 3865
408 4581
408 4582
408 4583
408 4584
408 4585
409 41
409 46
409 88
409 103
409 171
409 218
409 824
409 871
409 875
409 881
409 1198
409 1449
409 1722
409 1889
409 2130
409 2510
409 2864
409 3485
409 4586
409 4587
409 4588
409 4589
409 4590
409 4591
409 4592
410 45
410 80
410 101
410 158
410 163
410 193
410 283
410 353
410 375
410 382
410 394
410 532
410 590
410 630
410 656
410 679
410 742
410 845
410 846
410 1014
410 1026
410 1079
410 1151
410 1159
410 1574
410 1634
410 1688
410 1696
410 2386
410 3033
410 3161
410 3322
410 3640
410 4230
410 4326
410 4593
410 4594
410 4595
410 4596
410 4597
410 4598
411 60
411 76
411 87
411 120
411 136
411 144
411 209
411 334
411 403
411 552
411 616
411 688
411 762
411 779
411 851
411 1048
411 1070
411 1090
411 1202
411 1357
411 1465
411 1491
411 1528
411 1594
411 1609
411 1671
411 1731
411 1835
411 2063
411 2314
411 3795
411 3870
411 4475
411 4599
411 4600
411 4601
411 4602
411 4603
411 4604
411 4605
412 31
412 63
412 126
412 149
412 162
412 163
412 211
412 278
412 288
412 302
412 360
412 374
412 394
412 435
412 562
412 672
412 693
412 761
412 806
412 882
412 899
412 943
412 956
412 1129
412 1164
412 1467
412 1871
412 2240
412 2245
412 2589
412 2725
412 2756
412 2961
412 4606
412 4607
412 4608
412 4609
412 4610
412 6314
413 73
413 81
413 100
413 116
413 180
413 181
413 203
413 208
413 238
413 282
413 483
413 591
413 608
413 635
413 688
413 700
413 710
413 749
413 883
413 1020
413 1300
413 1308
413 1319
413 1380
413 1415
413 1462
413 1542
413 1565
413 1682
413 2142
413 2191
413 2287
413 2554
413 2580
413 2706
413 2745
413 2965
413 3065
413 3067
413 3128
413 3138
413 3498
413 3910
413 4611
413 4612
413 4613
413 4614
413 4615
414 28
414 80
414 83
414 133
414 147
414 162
414 181
414 277
414 335
414 344
414 373
414 428
414 467
414 529
414 583
414 596
414 651
414 684
414 1147
414 1363
414 1452
414 1467
414 1547
414 1637
414 1651
414 1694
414 1805
414 1816
414 2206
414 2259
414 2380
414 2725
414 2929
414 3160
414 3177
414 3361
414 3505
414 3600
414 3732
414 4120
414 4496
414 4616
414 4617
414 4618
414 4619
414 4620
414 4621
414 4685
415 19
415 22
415 28
415 55
415 67
415 74
415 75
415 78
415 183
415 202
415 204
415 236
415 290
415 316
415 415
415 511
415 526
415 659
415 702
415 740
415 779
415 847
415 946
415 975
415 1026
415 1081
415 1160
415 1377
415 1382
415 1514
415 1719
415 1823
415 1852
415 2097
415 2121
415 2458
415 2585
415 2624
415 2636
415 2657
415 3774
415 4162
415 4622
415 4623
415 4624
415 4625
415 4766
415 5809
416 20
416 68
416 77
416 80
416 88
416 121
416 159
416 166
416 282
416 288
416 308
416 430
416 586
416 678
416 772
416 862
416 871
416 1059
416 1090
416 1105
416 1191
416 1225
416 1362
416 1399
416 1459
416 1530
416 1643
416 1829
416 2262
416 2479
416 2507
416 2665
416 2817
416 2827
416 2899
416 3018
416 3306
416 3509
416 3736
416 3790
416 4307
416 4594
416 4626
416 4627
416 4628
416 4629
416 4630
416 4631
416 4632
416 4633
416 4634
416 4635
416 4636
416 4637
416 4638
416 4656
416 4898
417 58
417 123
417 330
417 378
417 458
417 736
417 811
417 1031
417 1473
417 1676
417 1712
417 2318
417 2386
417 2419
417 2964
417 3073
417 3457
417 3483
417 4015
417 4608
417 4639
417 4640
417 4641
417 4642
417 4643
417 4644
418 231
418 375
418 473
418 783
418 1066
418 1956
418 1996
418 2339
418 3029
418 3278
418 3899
418 4645
418 4646
418 4647
419 19
419 39
419 88
419 102
419 114
419 196
419 200
419 203
419 205
419 294
419 331
419 342
419 377
419 489
419 504
419 649
419 652
419 756
419 801
419 901
419 1060
419 1116
419 1220
419 1235
419 1244
419 1514
419 1609
419 1667
419 1832
419 1901
419 1902
419 2137
419 2316
419 2328
419 2611
419 2636
419 3001
419 3092
419 3120
419 3261
419 3718
419 4377
419 4648
419 4649
419 4650
419 4651
419 4652
419 4653
419 4654
419 4655
419 4656
419 5157
419 5203
419 5371
419 5639
419 6529
420 72
420 86
420 172
420 244
420 283
420 291
420 345
420 372
420 503
420 524
420 770
420 957
420 1147
420 1196
420 1471
420 1559
420 1637
420 1638
420 1797
420 1804
420 1999
420 3182
420 3184
420 4043
420 4129
420 4445
420 4657
420 4658
420 4659
420 4660
420 4661
420 4662
421 12
421 56
421 66
421 77
421 78
421 82
421 154
421 175
421 202
421 225
421 399
421 431
421 489
421 589
421 664
421 828
421 842
421 930
421 949
421 1122
421 1181
421 1266
421 1392
421 1400
421 1456
421 1472
421 1486
421 1528
421 1793
421 1800
421 1854
421 1857
421 1881
421 1922
421 1959
421 1990
421 2064
421 2174
421 2452
421 2454
421 2458
421 2513
421 2568
421 2618
421 2852
421 2908
421 2920
421 3441
421 3448
421 3674
421 3693
421 3782
421 4555
421 4663
421 4664
421 4665
421 4666
421 4667
421 4668
421 4669
422 29
422 203
422 295
422 507
422 653
422 1081
422 1523
422 1727
422 2466
422 3442
422 3593
422 4670
422 4671
423 41
423 83
423 133
423 313
423 555
423 1980
423 2336
423 2490
423 3257
423 4672
423 4673
423 4674
424 273
424 887
424 1972
424 4675
424 4676
425 402
425 2701
425 4222
425 4677
425 4678
426 237
426 359
426 377
426 455
426 516
426 624
426 690
426 976
426 1261
426 1469
426 2086
426 2213
426 2241
426 2891
426 2952
426 3138
426 3574
426 3610
426 4679
426 4680
427 263
427 458
427 498
427 514
427 1107
427 3500
427 4681
427 4682
428 414
428 527
428 573
428 1293
428 3201
428 4683
428 4684
428 4685
429 126
429 402
429 836
429 1154
429 1182
429 1261
429 1534
429 1540
429 1838
429 4686
429 4687
429 4688
430 76
430 214
430 416
430 721
430 871
430 956
430 1233
430 4369
430 4689
430 4690
430 4691
430 4692
431 88
431 173
431 209
431 345
431 421
431 498
431 644
431 709
431 987
431 1041
431 1330
431 1633
431 1709
431 1784
431 1985
431 2114
431 2149
431 2198
431 2204
431 2245
431 3017
431 3023
431 3798
431 4693
431 4694
431 4695
432 28
432 31
432 160
432 184
432 195
432 213
432 317
432 353
432 488
432 492
432 615
432 686
432 690
432 797
432 827
432 891
432 1088
432 1089
432 1150
432 1467
432 1543
432 1648
432 1864
432 2389
432 2927
432 3362
432 3552
432 3747
432 4074
432 4696
432 4697
432 4698
432 4699
433 234
433 2199
433 4700
433 4701
433 4702
433 4703
434 65
434 73
434 216
434 285
434 485
434 1105
434 4704
434 4705
434 5691
435 23
435 80
435 112
435 117
435 160
435 189
435 291
435 325
435 345
435 412
435 609
435 611
435 632
435 639
435 819
435 930
435 960
435 971
435 1164
435 1409
435 1465
435 1509
435 1539
435 1560
435 1586
435 1654
435 1862
435 1865
435 1980
435 2009
435 2083
435 2391
435 2598
435 2715
435 2725
435 3184
435 3336
435 3469
435 3519
435 3719
435 3820
435 3964
435 4118
435 4128
435 4322
435 4347
435 4706
435 4707
435 4708
435 4709
435 4710
435 4711
435 4712
435 4713
435 4780
435 4885
436 33
436 45
436 82
436 147
436 186
436 187
436 259
436 293
436 522
436 563
436 630
436 653
436 659
436 678
436 688
436 1018
436 1158
436 1355
436 1377
436 1983
436 4307
436 4714
436 4715
436 4716
437 87
437 88
437 107
437 152
437 719
437 930
437 952
437 981
437 997
437 1359
437 1360
437 1432
437 1734
437 2044
437 2056
437 2226
437 2453
437 2841
437 3037
437 3038
437 3283
437 3589
437 3642
437 4139
437 4717
437 4718
437 4719
437 4720
437 4721
437 4722
437 5069
438 4723
438 4724
438 4725
439 285
439 689
439 1290
439 1724
439 4726
439 4727
440 307
440 357
440 380
440 611
440 932
440 1568
440 3089
440 3097
440 4728
441 114
441 212
441 214
441 638
441 1222
441 1672
441 3216
441 4729
441 4730
442 122
442 174
442 192
442 545
442 1048
442 1796
442 4176
442 4731
442 4816
443 11
443 19
443 509
443 606
443 769
443 1205
443 1830
443 1832
443 2565
443 3121
443 4732
443 4733
444 80
444 667
444 880
444 957
444 1200
444 2201
444 3329
444 3343
444 3499
444 4734
444 4735
444 4736
445 206
445 210
445 788
445 881
445 946
445 1895
445 2690
445 3046
445 4724
445 4728
445 4737
445 4738
446 1301
446 1576
446 2842
446 3785
446 4859
447 754
447 1191
447 1624
447 4740
447 4741
448 212
448 711
448 4742
448 4743
448 4803
449 106
449 122
449 156
449 678
449 692
449 808
449 1007
449 1010
449 1103
449 1149
449 1179
449 3343
449 3729
449 3867
449 4744
450 130
450 160
450 324
450 398
450 853
450 906
450 1433
450 1634
450 2403
450 2547
450 2967
450 3524
450 4295
450 4745
450 4746
451 72
451 368
451 665
451 930
451 1123
451 1125
451 1192
451 2056
451 2361
451 2898
451 4747
451 4748
451 4749
451 5296
451 5507
452 1778
452 3249
452 4750
452 4754
453 1810
453 1891
453 4761
453 6348
454 2016
454 4762
454 4763
454 4764
455 33
455 52
455 155
455 181
455 183
455 206
455 249
455 317
455 355
455 426
455 518
455 544
455 562
455 625
455 669
455 920
455 932
455 984
455 1079
455 1153
455 1290
455 1457
455 1559
455 1576
455 1710
455 1796
455 1879
455 2548
455 2588
455 4765
455 4766
455 4767
456 2862
456 4258
456 4782
457 1739
457 4327
457 4784
458 172
458 216
458 263
458 342
458 417
458 427
458 674
458 891
458 1765
458 2126
458 3715
458 4785
458 4786
459 59
459 72
459 87
459 582
459 850
459 1392
459 1800
459 3193
459 3576
459 4168
459 4787
459 4788
460 86
460 213
460 393
460 1180
460 1455
460 1498
460 1547
460 1590
460 2197
460 2856
460 4185
460 4785
460 4789
460 4790
460 4791
461 64
461 76
461 193
461 235
461 356
461 491
461 694
461 704
461 808
461 864
461 938
461 973
461 1033
461 1783
461 1866
461 2152
461 2890
461 3554
461 3744
461 4792
461 4793
461 4794
461 4795
461 4796
461 4797
462 495
462 1428
462 1504
462 1848
462 2263
462 3813
462 4798
462 4799
463 266
463 845
463 1289
463 2451
463 3161
463 4800
463 4801
463 4802
464 522
464 651
464 758
464 947
464 970
464 3139
464 3799
464 4803
465 321
465 1192
465 1727
465 1966
465 2067
465 2295
465 4804
465 4926
466 548
466 790
466 821
466 2285
466 3273
466 4805
466 4806
467 88
467 414
467 558
467 674
467 887
467 990
467 1426
467 1815
467 2609
467 3161
467 4619
467 4688
467 4807
467 4808
468 28
468 81
468 84
468 281
468 522
468 1028
468 1162
468 1321
468 4494
468 4696
468 4809
468 4810
468 4811
468 4812
469 56
469 155
469 218
469 581
469 799
469 1623
469 2239
469 3686
469 4813
469 4814
469 4815
469 4816
469 4817
469 4818
470 561
470 641
470 2841
470 2856
470 3291
470 4819
471 371
471 655
471 1348
471 1674
471 4820
471 4821
472 84
472 1435
472 4264
472 4822
472 4823
472 5232
473 182
473 215
473 418
473 819
473 2023
473 4824
473 4825
474 1324
474 1654
474 1838
474 4826
474 4827
474 4828
474 4829
475 2149
475 4759
475 4830
475 4831
475 4832
475 4833
475 5138
476 210
476 261
476 717
476 1506
476 1703
476 4834
476 4835
477 759
477 811
477 2643
477 3227
477 4241
477 4836
477 4837
478 47
478 65
478 179
478 196
478 212
478 236
478 264
478 281
478 357
478 907
478 942
478 955
478 956
478 1035
478 1070
478 1172
478 1206
478 1209
478 1364
478 1844
478 1887
478 2130
478 2131
478 2138
478 2142
478 2150
478 2611
478 2617
478 3295
478 3774
478 3998
478 4278
478 4481
478 4664
478 4838
478 4839
478 4840
478 4841
479 58
479 87
479 333
479 483
479 489
479 541
479 1775
479 2399
479 2493
479 3857
479 4842
479 4843
479 4844
480 197
480 372
480 583
480 632
480 810
480 1564
480 1716
480 2040
480 2664
480 4845
480 4846
480 4847
481 541
481 1570
481 1695
481 2193
481 2981
481 3031
481 4848
481 4849
481 4850
482 962
482 3064
482 3666
482 4479
482 4729
482 4836
482 4851
482 4852
482 4853
483 55
483 77
483 83
483 86
483 88
483 103
483 180
483 333
483 413
483 479
483 512
483 555
483 649
483 700
483 711
483 1169
483 1404
483 1549
483 1551
483 1558
483 1734
483 1946
483 2089
483 2094
483 2141
483 2160
483 2183
483 2501
483 2539
483 2578
483 2643
483 2773
483 3018
483 3116
483 3592
483 4333
483 4854
483 4855
483 4856
483 4857
484 166
484 208
484 377
484 866
484 928
484 1272
484 1867
484 2713
484 3888
484 4036
484 4065
485 193
485 434
485 725
485 950
485 1162
485 1170
485 2277
485 2316
485 3814
485 4858
485 5147
486 26
486 173
486 183
486 822
486 873
486 1540
486 3329
486 3734
486 4859
486 4860
486 4861
487 734
487 887
487 1090
487 2381
487 3161
487 3958
487 4356
487 4862
487 4863
487 4864
487 5337
488 98
488 238
488 317
488 432
488 488
488 529
488 533
488 536
488 579
488 686
488 782
488 862
488 885
488 891
488 960
488 1096
488 1240
488 1288
488 1290
488 1745
488 1770
488 1886
488 2826
488 2990
488 3344
488 3457
488 3553
488 3574
488 4133
488 4865
489 74
489 77
489 102
489 114
489 124
489 197
489 200
489 339
489 419
489 421
489 479
489 541
489 664
489 828
489 830
489 1065
489 1319
489 1387
489 1592
489 1683
489 1855
489 1857
489 2059
489 2406
489 2411
489 2426
489 2856
489 4036
489 4866
489 4867
490 15
490 76
490 114
490 170
490 316
490 318
490 657
490 683
490 1098
490 1418
490 1645
490 1722
490 3512
490 4868
490 4869
491 30
491 62
491 138
491 193
491 461
491 604
491 631
491 694
491 718
491 818
491 866
491 920
491 4383
491 4870
491 4871
492 52
492 149
492 192
492 432
492 536
492 819
492 856
492 1301
492 1315
492 2146
492 3332
492 3543
492 4872
492 4873
492 5105
493 1182
493 1783
493 1869
493 2003
493 3158
493 4874
493 4875
494 616
494 723
494 1038
494 4479
494 4555
494 4876
494 5023
495 58
495 71
495 83
495 462
495 702
495 710
495 749
495 1145
495 1482
495 1610
495 1848
495 2099
495 4877
495 4878
495 4879
495 4880
495 4881
496 649
496 734
496 912
496 1295
496 1399
496 1834
496 1980
496 2003
496 2726
496 3029
496 3712
496 4882
496 4883
496 4884
496 4885
496 4886
496 4887
497 218
497 258
497 626
497 1896
497 2252
497 3986
497 4818
497 4888
498 427
498 431
498 3023
498 3236
498 3910
498 4889
498 4890
498 4891
499 207
499 617
499 922
499 3221
499 4873
499 4892
499 4893
500 3847
500 3848
500 4894
500 4895
500 4896
500 4897
501 46
501 299
501 307
501 356
501 380
501 871
501 1191
501 1571
501 1590
501 1597
501 1877
501 2013
501 2814
501 2844
501 2859
501 2915
501 2957
501 3131
501 3341
501 4898
501 5200
502 79
502 88
502 110
502 196
502 645
502 1143
502 1300
502 1671
502 2070
502 2185
502 2292
502 2309
502 2371
502 2425
502 2434
502 2537
502 2745
502 3300
502 3658
502 4899
502 4900
503 189
503 390
503 420
503 523
503 524
503 809
503 990
503 1049
503 1346
503 1536
503 1599
503 1638
503 1650
503 2017
503 4025
503 4026
503 4901
503 4902
503 4903
503 4904
503 4905
504 419
504 1054
504 1382
504 4869
504 4906
505 563
505 1906
505 3382
505 3864
505 4907
506 1397
506 4908
506 4909
506 4910
506 5954
507 12
507 214
507 236
507 307
507 321
507 380
507 422
507 593
507 810
507 902
507 953
507 1040
507 1222
507 1549
507 3478
507 3665
507 3771
507 3994
507 4624
507 4911
507 4912
507 4913
508 62
508 148
508 182
508 189
508 211
508 231
508 545
508 621
508 647
508 670
508 714
508 924
508 1075
508 1147
508 1611
508 1859
508 2383
508 2571
508 4914
508 4915
508 4916
509 11
509 294
509 443
509 606
509 664
509 769
509 1205
509 1684
509 1830
509 1832
509 1967
509 2128
509 2301
509 2444
509 2463
509 2487
509 2565
509 4917
509 4918
509 4919
509 5509
510 59
510 255
510 314
510 327
510 719
510 744
510 1181
510 1392
510 1446
510 1540
510 1678
510 1733
510 2229
510 2333
510 3584
510 4364
510 4717
510 4920
510 4921
510 4922
510 5128
511 20
511 29
511 43
511 47
511 66
511 75
511 77
511 78
511 83
511 165
511 290
511 321
511 415
511 651
511 664
511 942
511 955
511 1005
511 1046
511 1237
511 1523
511 1909
511 1970
511 2624
511 2636
511 3490
511 4923
512 15
512 41
512 45
512 55
512 76
512 150
512 288
512 304
512 358
512 483
512 567
512 591
512 635
512 667
512 678
512 760
512 1305
512 1630
512 1685
512 1938
512 2611
512 3076
512 3275
512 3994
512 4771
512 4924
512 4925
513 50
513 60
513 88
513 102
513 167
513 274
513 311
513 331
513 925
513 949
513 1005
513 1332
513 1524
513 1793
513 1932
513 2045
513 2063
513 2140
513 2347
513 2541
513 2682
513 2857
513 2876
513 3409
513 4670
513 4776
513 4926
514 40
514 70
514 72
514 427
514 1087
514 1201
514 1755
514 2415
514 3124
514 4312
514 4927
515 786
515 898
515 1111
515 1160
515 1587
515 1766
515 1768
515 1917
515 4928
515 4929
515 4935
516 360
516 426
516 677
516 941
516 1293
516 1522
516 3730
516 4834
516 4930
516 4931
516 4932
517 210
517 325
517 521
517 532
517 972
517 1813
517 3247
517 3910
517 4782
517 4933
517 4934
518 192
518 193
518 283
518 455
518 1541
518 1559
518 1782
518 3252
518 4389
518 4935
518 4936
519 165
519 855
519 3304
519 3376
519 3377
519 4707
519 4937
519 4938
519 4939
519 4940
519 4941
520 83
520 118
520 185
520 189
520 262
520 321
520 531
520 657
520 676
520 943
520 948
520 1304
520 1483
520 2189
520 3391
520 3799
520 4942
520 4943
521 33
521 297
521 517
521 660
521 693
521 756
521 928
521 951
521 1274
521 1276
521 1341
521 1394
521 1798
521 1870
521 2664
521 4209
521 4944
521 4945
522 46
522 85
522 280
522 379
522 436
522 464
522 468
522 657
522 688
522 858
522 1004
522 1862
522 3820
522 4046
522 4946
522 4947
522 4948
522 4949
523 503
523 536
523 599
523 601
523 656
523 669
523 843
523 1285
523 1638
523 1993
523 2930
523 4024
523 4950
524 189
524 344
524 373
524 420
524 503
524 527
524 990
524 1285
524 1526
524 1723
524 1820
524 4903
524 4951
525 37
525 197
525 665
525 1039
525 1209
525 1244
525 1921
525 2055
525 2057
525 3348
525 4952
525 5534
525 5625
526 8
526 38
526 41
526 48
526 75
526 88
526 125
526 157
526 167
526 200
526 236
526 334
526 415
526 801
526 807
526 831
526 900
526 955
526 981
526 1145
526 1172
526 1282
526 1493
526 1578
526 1852
526 1875
526 2469
526 2558
526 2593
526 4650
526 4953
527 14
527 189
527 276
527 343
527 375
527 377
527 428
527 524
527 636
527 806
527 1572
527 1713
527 3217
527 4954
528 58
528 88
528 233
528 536
528 935
528 961
528 1463
528 1709
528 2819
528 2943
528 3335
528 3500
528 4740
528 4955
529 189
529 324
529 414
529 488
529 1132
529 1363
529 1499
529 1587
529 1809
529 1816
529 2277
529 3027
529 3939
529 4956
529 4957
530 80
530 82
530 129
530 183
530 217
530 829
530 1338
530 1598
530 3110
530 4086
530 4958
530 4959
530 4960
530 4961
530 4962
531 24
531 79
531 88
531 392
531 403
531 520
531 581
531 949
531 995
531 1042
531 1122
531 1185
531 1359
531 1921
531 4963
531 4964
532 68
532 374
532 404
532 410
532 517
532 672
532 741
532 862
532 915
532 972
532 997
532 1574
532 1703
532 1710
532 2862
532 3178
532 3364
532 4230
532 4965
533 151
533 161
533 238
533 377
533 488
533 686
533 809
533 885
533 924
533 1240
533 1409
533 1603
533 1710
533 1717
533 2602
533 3632
533 4966
533 4967
533 4968
534 663
534 2284
534 2853
534 4969
534 4970
535 913
535 3650
535 3953
535 4971
535 4972
536 63
536 192
536 195
536 210
536 330
536 488
536 492
536 523
536 528
536 538
536 630
536 690
536 749
536 936
536 1071
536 1072
536 1182
536 1184
536 1301
536 1383
536 1490
536 1756
536 1783
536 3096
536 3523
536 3574
536 3644
536 4973
536 4974
537 41
537 67
537 87
537 315
537 906
537 916
537 1011
537 1018
537 1022
537 1105
537 1377
537 1618
537 1847
537 1900
537 2004
537 2874
537 4975
538 55
538 119
538 138
538 536
538 564
538 667
538 693
538 980
538 1058
538 1203
538 1783
538 2699
538 3042
538 3785
538 4193
538 4799
538 4973
539 3526
539 4977
539 6865
540 181
540 312
540 391
540 593
540 660
540 1151
540 1276
540 1438
540 1575
540 1715
540 2166
540 2200
540 2255
540 2259
540 2354
540 2391
540 3113
540 4001
540 4305
540 4978
541 50
541 226
541 479
541 481
541 489
541 641
541 778
541 2085
541 2087
541 2089
541 2128
541 2164
541 2500
541 3618
541 3860
541 4647
541 4748
541 4979
541 4980
541 4981
542 700
542 714
542 765
542 965
542 1144
542 1163
542 1298
542 1361
542 1431
542 2663
542 3536
542 4982
543 206
543 210
543 307
543 685
543 704
543 788
543 953
543 1111
543 1567
543 2931
543 4983
543 4984
544 282
544 283
544 300
544 307
544 455
544 556
544 590
544 793
544 964
544 998
544 1200
544 1263
544 1770
544 2378
544 3202
544 3610
544 4044
544 4985
544 4986
544 4987
544 4988
544 4989
544 4990
545 137
545 151
545 168
545 217
545 233
545 272
545 442
545 508
545 621
545 625
545 647
545 714
545 736
545 742
545 1075
545 1611
545 1792
545 2399
545 3237
545 4991
545 4992
545 4993
545 4994
546 4997
546 6954
547 209
547 2248
547 4186
547 4998
548 36
548 51
548 59
548 78
548 88
548 118
548 315
548 466
548 676
548 769
548 775
548 795
548 801
548 833
548 884
548 991
548 1151
548 1167
548 1298
548 1312
548 1373
548 1415
548 1673
548 1700
548 1737
548 1844
548 1959
548 2059
548 2286
548 2373
548 2490
548 2572
548 4164
548 4283
548 4290
548 4999
548 5000
548 5001
549 88
549 103
549 3255
549 5002
549 5003
549 5004
550 208
550 256
550 309
550 374
550 634
550 717
550 918
550 1080
550 1455
550 1471
550 1509
550 3498
550 3830
550 4200
550 4569
550 4904
550 5005
551 15
551 50
551 61
551 69
551 72
551 86
551 735
551 760
551 1233
551 1239
551 1950
551 2294
551 2356
551 2625
551 2719
551 5006
551 5600
552 88
552 146
552 155
552 194
552 237
552 366
552 411
552 647
552 762
552 804
552 814
552 896
552 1209
552 1437
552 1561
552 1802
552 2150
552 2242
552 2243
552 2274
552 3118
552 3187
552 3239
552 3339
552 3508
552 3795
552 3887
552 5007
552 5008
552 5009
552 5010
552 5011
552 5012
552 5013
553 65
553 87
553 389
553 927
553 1022
553 1351
553 2707
553 2784
553 5014
553 5015
554 278
554 324
554 625
554 906
554 1276
554 3042
554 3096
554 5016
554 5017
554 6080
555 19
555 43
555 71
555 81
555 83
555 86
555 171
555 203
555 321
555 357
555 423
555 483
555 676
555 700
555 706
555 814
555 884
555 1337
555 1933
555 2142
555 2368
555 2370
555 2667
555 2765
555 3335
555 5018
555 5019
555 5020
556 229
556 338
556 544
556 1279
556 1303
556 1325
556 1361
556 2345
556 2605
556 5021
557 240
557 644
557 755
557 1038
557 1550
557 2484
557 2502
557 5022
557 5023
557 5024
558 10
558 88
558 467
558 588
558 1815
558 1817
558 2806
558 4808
558 4975
558 5025
559 63
559 673
559 762
559 1180
559 2848
559 2930
559 3509
559 4731
559 5026
559 5207
560 106
560 195
560 292
560 576
560 625
560 878
560 1439
560 1603
560 2198
560 2366
560 3020
560 3662
560 5027
560 5028
561 470
561 712
561 895
561 1527
561 1938
561 2064
561 2459
561 2491
561 2783
561 2905
561 4663
561 5029
561 5030
561 5031
562 80
562 119
562 159
562 166
562 229
562 273
562 412
562 455
562 656
562 694
562 806
562 906
562 1079
562 1149
562 1290
562 1572
562 1576
562 1634
562 1688
562 1982
562 4598
562 5032
562 5033
563 82
563 169
563 195
563 273
563 283
563 436
563 505
563 615
563 679
563 882
563 1019
563 1050
563 1142
563 1877
563 1993
563 2159
563 2258
563 2548
563 4047
563 4250
563 4799
563 5034
563 5035
564 30
564 55
564 85
564 119
564 173
564 195
564 356
564 374
564 380
564 538
564 570
564 586
564 672
564 693
564 739
564 873
564 932
564 1093
564 1401
564 1995
564 2165
564 2317
564 3197
564 3999
564 4348
564 4584
564 4988
564 5036
564 5037
564 5038
564 5039
565 122
565 596
565 887
565 1007
565 1150
565 1545
565 3243
565 4264
565 5040
565 5041
565 5042
565 5043
565 6135
566 88
566 383
566 590
566 764
566 891
566 1995
566 3314
566 3457
566 4565
566 5044
566 5045
566 5046
566 5047
567 512
567 717
567 840
567 4972
567 5048
568 4613
568 5044
568 5049
568 5050
568 5051
569 364
569 820
569 5052
569 5053
569 5054
570 564
570 656
570 681
570 688
570 694
570 759
570 810
570 3151
570 5055
571 204
571 1160
571 1162
571 1426
571 3144
571 3690
571 4177
571 4982
571 5056
572 1175
572 1552
572 3773
572 4743
572 4869
572 5057
572 5058
572 5059
572 5060
573 428
573 976
573 1352
573 4684
573 5061
573 5062
574 668
574 969
574 4834
574 5063
575 321
575 3430
575 5037
575 5064
576 257
576 560
576 862
576 1106
576 1590
576 1984
576 2660
576 3031
576 3351
576 5065
577 88
577 279
577 759
577 2702
577 3107
577 3185
577 4441
577 5066
577 5067
577 6053
578 18
578 639
578 666
578 1122
578 1681
578 1684
578 2043
578 2530
578 2940
578 3913
578 4561
578 5068
578 5069
579 193
579 488
579 788
579 906
579 1170
579 1437
579 1446
579 1452
579 1740
579 3317
579 5009
579 5070
579 5071
580 189
580 809
580 1049
580 1399
580 1468
580 1471
580 1768
580 3465
580 3652
580 4355
580 5072
580 5073
580 5074
581 94
581 201
581 212
581 358
581 469
581 531
581 863
581 921
581 1005
581 1180
581 2088
581 2287
581 2572
581 3216
581 3691
581 3759
581 5075
581 5076
582 59
582 115
582 167
582 190
582 301
582 459
582 850
582 1392
582 1800
582 2487
582 2538
582 3193
582 3576
582 3585
582 4168
582 4787
582 4788
583 33
583 192
583 243
583 414
583 480
583 630
583 1090
583 1142
583 1179
583 1290
583 1293
583 1484
583 3133
583 3221
583 3814
583 4003
583 4782
583 5032
583 5077
584 5078
584 5079
585 24
585 34
585 44
585 71
585 78
585 79
585 85
585 180
585 202
585 211
585 306
585 381
585 589
585 648
585 702
585 801
585 993
585 1069
585 1202
585 1238
585 1523
585 1524
585 1652
585 1671
585 1698
585 1718
585 1727
585 1751
585 1909
585 1962
585 1988
585 1990
585 2065
585 2074
585 2123
585 2334
585 2421
585 2521
585 3162
585 3168
585 3675
585 4553
585 5080
585 5081
585 5082
586 270
586 272
586 416
586 564
586 898
586 1151
586 1275
586 1426
586 1598
586 1825
586 3344
586 4017
586 5083
586 5084
587 66
587 78
587 87
587 245
587 392
587 2361
587 2430
587 2784
587 2912
587 4555
587 5085
587 5086
587 5087
587 5850
588 10
588 26
588 130
588 169
588 375
588 558
588 976
588 1224
588 1817
588 1974
588 4975
588 5025
588 5088
588 5089
589 29
589 37
589 64
589 66
589 67
589 77
589 102
589 254
589 311
589 421
589 585
589 779
589 994
589 1005
589 1125
589 1395
589 1421
589 1557
589 1681
589 1759
589 1949
589 1960
589 2061
589 2063
589 2347
589 2363
589 2546
589 2578
589 4551
589 5090
589 5091
590 33
590 41
590 52
590 305
590 410
590 544
590 566
590 609
590 620
590 630
590 631
590 679
590 948
590 1037
590 1179
590 1506
590 1600
590 1635
590 1693
590 1750
590 1993
590 2011
590 2152
590 3157
590 3493
590 3552
590 3744
590 4349
590 5092
590 5093
590 5094
591 15
591 61
591 84
591 282
591 413
591 512
591 711
591 735
591 763
591 925
591 1081
591 1220
591 1445
591 1548
591 1698
591 1708
591 2791
591 2935
591 3284
591 5095
592 61
592 110
592 116
592 189
592 406
592 925
592 993
592 1046
592 1528
592 1614
592 1842
592 1966
592 2091
592 2168
592 2275
592 2708
592 3353
592 3395
592 4241
592 5096
593 53
593 80
593 121
593 159
593 248
593 363
593 380
593 382
593 507
593 540
593 660
593 697
593 864
593 906
593 941
593 1183
593 1567
593 1954
593 2984
593 3031
593 3626
593 4270
593 4437
593 4803
593 5097
593 5098
593 5099
594 59
594 67
594 153
594 202
594 225
594 294
594 830
594 1436
594 1987
594 2056
594 2178
594 2227
594 2443
594 2459
594 2513
594 2520
594 2529
594 2568
594 2781
594 2785
594 2920
594 3771
594 4361
594 5100
594 5101
594 5102
594 5103
595 25
595 57
595 61
595 71
595 77
595 78
595 88
595 165
595 170
595 202
595 224
595 306
595 795
595 1700
595 1795
595 1837
595 1959
595 1962
595 2047
595 2539
595 4554
595 5100
596 88
596 325
596 347
596 373
596 385
596 386
596 414
596 565
596 717
596 734
596 5104
596 5105
597 161
597 200
597 256
597 302
597 305
597 382
597 685
597 1191
597 1254
597 1417
597 1762
597 3986
597 5008
597 5106
597 5107
597 5108
597 5723
598 61
598 95
598 137
598 176
598 226
598 318
598 378
598 389
598 621
598 707
598 896
598 1039
598 1077
598 1421
598 1430
598 1967
598 2017
598 2055
598 2291
598 2528
598 2767
598 3404
598 3615
598 4967
598 5109
598 5110
598 5111
598 6029
599 80
599 144
599 182
599 244
599 367
599 523
599 638
599 659
599 922
599 966
599 1546
599 1808
599 2233
599 2930
599 4569
599 4660
600 5112
600 5113
601 312
601 325
601 345
601 523
601 708
601 817
601 1004
601 1078
601 1203
601 1475
601 1522
601 5113
601 5114
601 5115
602 26
602 193
602 383
602 717
602 853
602 1119
602 1559
602 1665
602 3935
602 4569
602 4861
602 5116
602 5117
602 5118
603 334
603 956
603 1076
603 1333
603 1459
603 1720
603 2518
603 4174
603 4302
603 5119
604 80
604 85
604 88
604 209
604 214
604 249
604 272
604 290
604 491
604 620
604 685
604 761
604 871
604 900
604 902
604 938
604 1053
604 1263
604 1314
604 1412
604 1850
604 2165
604 2200
604 2547
604 2923
604 3439
604 4591
604 4821
604 4986
604 5120
605 30
605 88
605 103
605 138
605 211
605 353
605 371
605 873
605 1006
605 1787
605 1788
605 1899
605 1992
605 2257
605 2866
605 2873
605 2901
605 3401
605 3605
605 3696
605 3716
605 4147
605 4434
605 4439
605 4676
605 4714
605 4774
605 4821
605 5121
605 5122
606 11
606 443
606 509
606 769
606 949
606 1205
606 1776
606 1832
606 2565
606 2714
606 5123
606 5124
606 5125
606 5126
606 5127
606 5128
606 5129
606 5130
607 38
607 59
607 64
607 75
607 77
607 165
607 167
607 229
607 287
607 296
607 299
607 334
607 392
607 702
607 767
607 949
607 1017
607 1609
607 1613
607 1755
607 1777
607 1837
607 1855
607 2227
607 2230
607 2367
607 2505
607 2779
607 2786
607 3395
607 5111
607 5123
607 5131
607 5132
607 6319
608 73
608 88
608 95
608 114
608 180
608 211
608 321
608 413
608 608
608 695
608 801
608 854
608 948
608 1156
608 1202
608 1237
608 1239
608 1297
608 1442
608 1584
608 1682
608 1775
608 1892
608 2124
608 2179
608 2352
608 2362
608 2366
608 2370
608 4379
608 5133
608 5134
609 435
609 590
609 931
609 1866
609 2234
609 3425
609 5135
609 5136
609 5137
610 130
610 383
610 720
610 1096
610 2377
610 2702
610 3149
610 5138
610 5139
611 63
611 88
611 117
611 126
611 163
611 310
611 325
611 342
611 435
611 440
611 690
611 819
611 973
611 1009
611 1013
611 1052
611 1075
611 1212
611 1467
611 1783
611 1917
611 2323
611 2725
611 3603
611 4085
611 4881
611 5140
611 5141
611 5142
611 5143
612 160
612 181
612 198
612 235
612 249
612 270
612 307
612 374
612 701
612 1437
612 1635
612 1890
612 1986
612 2110
612 2150
612 2282
612 2482
612 2613
612 2957
612 3189
612 3545
612 3603
612 3865
612 3993
612 4092
612 4995
612 5144
612 5145
612 5146
612 5934
613 215
613 771
613 1781
613 2855
613 5147
613 5148
613 5149
614 88
614 253
614 2901
614 4741
614 4983
614 5150
614 5151
615 229
615 300
615 383
615 432
615 563
615 878
615 958
615 1075
615 1224
615 1508
615 2274
615 2897
615 3202
615 3863
615 4971
615 5152
615 5153
615 5154
615 5155
615 5159
615 5160
616 170
616 214
616 285
616 316
616 334
616 346
616 411
616 494
616 657
616 824
616 958
616 1361
616 1364
616 1393
616 1486
616 2130
616 3130
616 3335
616 4141
616 5156
616 5157
617 214
617 373
617 499
617 963
617 1078
617 1085
617 1162
617 1620
617 2003
617 2171
617 2388
617 3144
617 4387
617 4812
617 4883
617 5142
617 5158
617 5159
617 5160
617 5161
617 5162
618 160
618 193
618 377
618 383
618 622
618 690
618 880
618 920
618 922
618 1438
618 1720
618 1863
618 2146
618 2837
618 3306
618 3568
618 3747
618 3927
618 4436
618 4706
618 5163
618 5164
618 5165
618 5166
618 5181
619 68
619 185
619 382
619 705
619 1001
619 1172
619 1695
619 1707
619 2088
619 2314
619 2406
619 3327
619 3363
619 3417
619 3421
619 4550
619 5167
619 5168
619 5169
619 5170
620 119
620 291
620 305
620 590
620 604
620 631
620 1054
620 1096
620 1347
620 1419
620 1567
620 2009
620 2198
620 2259
620 2605
620 2730
620 2870
620 3042
620 3099
620 3145
620 3359
620 3478
620 3492
620 3948
620 4725
621 62
621 126
621 148
621 263
621 342
621 508
621 545
621 598
621 647
621 670
621 719
621 924
621 929
621 961
621 1030
621 1182
621 1307
621 2376
621 2381
621 3237
621 3241
621 3276
621 4410
621 5171
621 5172
622 618
622 957
622 3334
622 4593
622 5173
622 5174
623 87
623 5086
623 5175
623 5176
623 5177
623 5178
624 426
624 2931
624 5179
624 5180
624 5181
624 5182
625 146
625 278
625 338
625 455
625 545
625 554
625 560
625 1102
625 1220
625 1275
625 1533
625 1972
625 2152
625 2189
625 2403
625 3020
625 3098
625 3543
625 4347
625 5182
625 5183
625 5184
626 76
626 197
626 208
626 219
626 258
626 497
626 862
626 932
626 935
626 1058
626 1096
626 1417
626 1896
626 1898
626 1954
626 2563
626 3470
626 3813
626 3986
626 5059
626 5185
627 894
627 5186
627 5187
628 1252
628 1269
628 5188
628 5189
628 5190
628 5191
628 5192
628 6033
628 6567
629 27
629 45
629 133
629 188
629 799
629 815
629 994
629 1022
629 1129
629 1323
629 1351
629 1486
629 1751
629 2718
629 2968
629 5193
629 5194
629 5195
630 7
630 31
630 33
630 55
630 80
630 181
630 192
630 193
630 208
630 256
630 324
630 367
630 380
630 402
630 410
630 436
630 536
630 583
630 590
630 679
630 818
630 873
630 897
630 920
630 1082
630 1219
630 1276
630 1292
630 1623
630 1645
630 1693
630 1762
630 2029
630 2032
630 2159
630 2166
630 2866
630 3508
630 3937
630 4349
630 4714
630 4812
630 5093
630 5196
630 5197
630 5198
630 5199
630 5200
631 27
631 30
631 46
631 149
631 213
631 491
631 590
631 620
631 672
631 816
631 1221
631 1362
631 1537
631 3145
631 4147
631 4983
631 5099
631 5197
632 404
632 435
632 480
632 1036
632 1190
632 1321
632 1370
632 1398
632 1411
632 1509
632 1666
632 2279
632 2842
632 3096
632 3524
632 4870
632 5201
632 5202
633 88
633 318
633 745
633 1186
633 1235
633 2543
633 2761
633 3718
633 5203
633 5204
633 5205
634 126
634 198
634 309
634 367
634 376
634 550
634 1134
634 1303
634 1405
634 1796
634 2027
634 2163
634 2483
634 2984
634 3318
634 3403
634 3846
634 5206
634 5207
634 5208
634 5209
634 5210
635 76
635 133
635 197
635 413
635 512
635 1938
635 2275
635 2611
635 5211
635 5212
635 5213
636 527
636 1072
636 1865
636 3595
636 5214
636 5215
637 88
637 2145
637 4574
637 5216
637 5217
637 5218
638 441
638 599
638 1915
638 5219
638 5220
638 5221
639 59
639 87
639 94
639 170
639 435
639 578
639 666
639 842
639 1684
639 2060
639 2064
639 2141
639 2445
639 3296
639 4776
639 5222
639 5223
639 5224
639 5302
640 27
640 70
640 140
640 212
640 216
640 366
640 695
640 700
640 701
640 801
640 955
640 962
640 1023
640 1207
640 1298
640 2492
640 3373
640 4961
640 5225
641 40
641 168
641 470
641 541
641 665
641 778
641 830
641 1005
641 1247
641 2069
641 2227
641 2767
641 3621
641 3671
641 4218
641 5226
641 5227
641 5228
641 5229
642 251
642 329
642 1547
642 2029
642 2661
642 5230
642 5231
642 5232
643 1655
643 3224
643 5234
643 6904
644 8
644 44
644 275
644 431
644 557
644 824
644 921
644 1748
644 2201
644 2322
644 2887
644 5235
644 5236
644 5237
644 5238
644 5877
645 85
645 282
645 502
645 801
645 978
645 994
645 1031
645 1068
645 1497
645 3257
645 3558
645 4824
645 4989
645 5239
645 5240
645 5241
646 17
646 37
646 38
646 58
646 59
646 168
646 194
646 276
646 924
646 1192
646 1239
646 1525
646 1527
646 1577
646 1673
646 1837
646 2033
646 2056
646 2103
646 2177
646 2225
646 2268
646 2496
646 2505
646 2642
646 2649
646 2714
646 2893
646 3441
646 3613
646 3683
646 4159
646 4551
646 4819
646 5242
646 5243
646 5244
646 5245
646 5246
647 62
647 71
647 75
647 82
647 148
647 155
647 161
647 170
647 177
647 189
647 192
647 194
647 197
647 207
647 405
647 508
647 545
647 552
647 621
647 665
647 670
647 714
647 1012
647 1075
647 1253
647 1511
647 1521
647 1611
647 1650
647 1710
647 1907
647 2383
647 2687
647 3276
647 4874
647 5247
647 5248
648 21
648 39
648 61
648 67
648 76
648 79
648 88
648 123
648 154
648 185
648 268
648 358
648 585
648 981
648 1011
648 1239
648 1334
648 1351
648 1424
648 1461
648 1681
648 1709
648 1828
648 1990
648 2033
648 2075
648 2170
648 2216
648 2367
648 2369
648 2654
648 2669
648 2774
648 4730
648 5249
648 5250
648 5251
649 58
649 78
649 83
649 84
649 140
649 215
649 334
649 392
649 419
649 483
649 496
649 815
649 884
649 1031
649 1282
649 1605
649 1627
649 1902
649 1968
649 2100
649 2630
649 5252
649 5253
650 201
650 204
650 793
650 940
650 942
650 1065
650 1280
650 1305
650 1347
650 1381
650 1477
650 1518
650 1764
650 1941
650 2368
650 2762
650 2797
650 2934
650 3671
650 3753
650 4282
650 5254
650 5255
651 346
651 414
651 464
651 511
651 767
651 824
651 831
651 1281
651 1516
651 1885
651 1887
651 1947
651 2677
651 2718
651 2764
651 3316
651 3940
651 4278
651 5024
651 5256
651 5257
651 5258
652 24
652 35
652 64
652 70
652 74
652 79
652 88
652 108
652 114
652 175
652 339
652 401
652 419
652 662
652 739
652 805
652 1256
652 1367
652 1556
652 1754
652 1837
652 1881
652 2045
652 2336
652 2408
652 2523
652 3917
652 4121
652 5259
653 42
653 236
653 264
653 282
653 357
653 422
653 436
653 653
653 792
653 948
653 1041
653 1209
653 1221
653 1362
653 1377
653 1413
653 1841
653 1900
653 1947
653 2031
653 2219
653 2855
653 2888
653 3076
653 3691
653 4589
653 4942
653 5260
653 5261
654 741
654 945
654 3110
654 3242
654 3702
654 4318
654 4602
654 5262
654 5263
654 5264
655 366
655 407
655 471
655 722
655 908
655 1309
655 4155
655 4577
655 4820
655 5186
655 5265
655 5266
655 5267
655 5268
655 5269
656 158
656 256
656 291
656 402
656 410
656 523
656 562
656 570
656 846
656 1345
656 1488
656 1539
656 1545
656 1780
656 1807
656 3649
656 3735
656 4024
656 4109
656 4882
656 5270
656 5271
656 5272
657 79
657 86
657 120
657 216
657 490
657 520
657 522
657 616
657 1364
657 1677
657 1931
657 2348
657 2553
657 2776
657 3257
657 3555
657 3797
657 4942
657 5157
657 5273
657 5274
657 5275
657 5276
658 32
658 127
658 183
658 197
658 272
658 721
658 786
658 1072
658 1639
658 1783
658 2231
658 2245
658 2507
658 3317
658 4886
658 5155
658 5215
658 5277
658 5278
658 5279
658 5280
658 5281
658 5282
659 22
659 40
659 49
659 83
659 133
659 159
659 197
659 211
659 215
659 282
659 371
659 415
659 436
659 599
659 863
659 885
659 1036
659 1057
659 1221
659 1428
659 1764
659 1830
659 2358
659 2645
659 2874
659 3112
659 3118
659 3524
659 3627
659 4242
659 5283
659 5284
659 5285
659 5286
659 5287
659 5409
660 52
660 158
660 162
660 177
660 344
660 521
660 540
660 593
660 703
660 734
660 749
660 893
660 973
660 1013
660 1203
660 1586
660 1693
660 1713
660 1779
660 1980
660 1992
660 2817
660 3141
660 3363
660 3644
660 3726
660 3785
660 4068
660 4129
660 4303
660 4791
660 4946
660 5288
660 5289
660 5290
660 5314
661 62
661 151
661 193
661 305
661 317
661 670
661 714
661 837
661 856
661 879
661 891
661 1030
661 1184
661 1290
661 1500
661 1581
661 1740
661 1744
661 2008
661 2155
661 3028
661 5288
662 39
662 59
662 70
662 73
662 74
662 77
662 88
662 196
662 274
662 339
662 652
662 1298
662 1814
662 1944
662 1949
662 2065
662 2408
662 2579
662 2750
662 3120
662 5291
662 5292
663 193
663 345
663 379
663 380
663 534
663 698
663 788
663 1165
663 1225
663 1412
663 1489
663 1510
663 1709
663 1877
663 2664
663 2923
663 4266
663 5186
663 5293
663 5294
664 21
664 34
664 36
664 37
664 39
664 47
664 48
664 60
664 72
664 75
664 81
664 84
664 86
664 87
664 102
664 114
664 202
664 260
664 313
664 339
664 392
664 421
664 489
664 509
664 511
664 702
664 851
664 895
664 995
664 1065
664 1201
664 1213
664 1450
664 1671
664 1672
664 1747
664 1758
664 1849
664 2620
664 3290
664 5295
664 5296
665 40
665 69
665 77
665 84
665 86
665 88
665 102
665 115
665 172
665 204
665 275
665 281
665 451
665 525
665 641
665 647
665 732
665 778
665 791
665 884
665 921
665 930
665 1039
665 1126
665 1372
665 1639
665 1801
665 1828
665 2055
665 2060
665 2210
665 2217
665 2313
665 2316
665 2757
665 3205
665 5297
665 5298
665 5299
665 5300
665 5301
666 88
666 578
666 639
666 849
666 2303
666 2404
666 2784
666 2790
666 2912
666 3913
666 5302
666 5303
666 5304
667 55
667 63
667 122
667 180
667 380
667 444
667 512
667 538
667 739
667 843
667 855
667 928
667 1087
667 1153
667 1441
667 1907
667 2007
667 2353
667 2438
667 3104
667 3640
667 3661
667 4383
667 4780
667 5305
667 5306
668 149
668 189
668 324
668 345
668 388
668 574
668 669
668 679
668 718
668 808
668 871
668 873
668 894
668 1079
668 1279
668 1480
668 1542
668 1819
668 2241
668 2396
668 2838
668 3027
668 3178
668 3363
668 3617
668 3735
668 4185
668 4256
668 4436
668 5122
668 5307
668 5308
668 5309
669 76
669 121
669 193
669 211
669 213
669 352
669 356
669 374
669 404
669 455
669 523
669 668
669 691
669 754
669 873
669 1082
669 1121
669 1344
669 1480
669 1484
669 1762
669 1788
669 1888
669 2589
669 3657
669 3701
669 3705
669 3735
669 4850
669 5308
669 5310
669 5311
669 5312
670 8
670 27
670 109
670 113
670 195
670 217
670 263
670 291
670 373
670 508
670 621
670 647
670 661
670 1307
670 1405
670 1495
670 2003
670 2329
670 2713
670 3237
670 3276
670 3434
670 3451
670 3452
670 3623
670 5313
671 33
671 106
671 142
671 149
671 156
671 163
671 273
671 291
671 984
671 1355
671 1467
671 1541
671 1651
671 3042
671 3436
671 3648
671 4040
671 4051
671 4059
671 4094
671 4228
671 5314
671 5315
671 5316
671 5317
671 5348
672 23
672 46
672 82
672 138
672 156
672 193
672 206
672 213
672 353
672 380
672 412
672 532
672 564
672 631
672 681
672 718
672 756
672 897
672 1159
672 1196
672 1688
672 1993
672 2204
672 2979
672 3661
672 3979
672 4392
672 5094
672 5318
672 5319
672 5320
673 117
673 122
673 159
673 207
673 291
673 559
673 718
673 762
673 958
673 1532
673 1765
673 3880
673 3955
673 5026
673 5118
673 5183
673 5321
674 146
674 385
674 458
674 467
674 1338
674 1451
674 1494
674 1721
674 1802
674 2023
674 2917
674 3512
674 5322
674 5323
674 5324
674 5325
674 5326
674 5327
675 50
675 114
675 200
675 204
675 314
675 733
675 1209
675 1367
675 2189
675 2215
675 2226
675 2486
675 3618
675 4866
675 5328
675 5329
676 36
676 48
676 57
676 70
676 75
676 78
676 86
676 87
676 118
676 125
676 167
676 185
676 191
676 196
676 201
676 205
676 208
676 262
676 334
676 520
676 548
676 555
676 702
676 779
676 948
676 991
676 993
676 1022
676 1068
676 1087
676 1167
676 1172
676 1206
676 1416
676 1661
676 1672
676 1681
676 1881
676 2097
676 2107
676 2418
676 2517
676 2864
676 2951
676 3120
676 5330
676 5331
676 5332
677 147
677 235
677 373
677 385
677 516
677 817
677 939
677 1136
677 1218
677 1293
677 1499
677 1714
677 1769
677 1813
677 1865
677 2897
677 3096
677 3748
677 4710
677 4746
677 5333
677 5334
677 5335
677 6193
678 63
678 80
678 122
678 126
678 402
678 416
678 436
678 449
678 512
678 932
678 1095
678 1534
678 1714
678 1909
678 1955
678 2323
678 3103
678 3129
678 3570
678 3890
678 4767
678 5336
678 5337
678 5338
679 31
679 88
679 139
679 163
679 189
679 261
679 373
679 388
679 410
679 563
679 590
679 630
679 668
679 846
679 873
679 931
679 973
679 1014
679 1321
679 1484
679 1600
679 1635
679 1790
679 1798
679 2953
679 3980
679 4003
679 4571
679 4595
679 5339
679 5340
679 5341
679 5975
680 402
680 1283
680 1659
680 2472
680 4464
680 4564
680 4605
680 5342
680 5343
680 5344
680 5345
680 6497
681 26
681 46
681 134
681 156
681 162
681 169
681 207
681 213
681 308
681 325
681 345
681 382
681 570
681 672
681 693
681 734
681 888
681 896
681 900
681 915
681 989
681 1052
681 1279
681 1522
681 1547
681 1576
681 1756
681 1769
681 1864
681 3338
681 5346
681 5347
681 5348
681 5349
682 25
682 274
682 921
682 1278
682 1579
682 1760
682 1923
682 1964
682 1965
682 1970
682 1971
682 2620
682 2635
682 2942
682 3040
682 5350
682 5351
683 34
683 197
683 490
683 871
683 941
683 1220
683 1282
683 1473
683 1548
683 1722
683 2419
683 2434
683 2546
683 2633
683 5352
683 5353
683 5354
684 30
684 117
684 120
684 259
684 300
684 343
684 414
684 696
684 727
684 977
684 1143
684 1191
684 1865
684 2195
684 2224
684 2240
684 2544
684 2953
684 2954
684 3126
684 3686
684 3768
684 3846
684 4096
684 4132
684 4595
684 5355
684 5356
685 8
685 88
685 193
685 281
685 332
685 543
685 597
685 604
685 902
685 1165
685 1822
685 1884
685 2142
685 2228
685 2547
685 3479
685 3723
685 4110
685 4890
685 4984
685 5357
686 98
686 233
686 238
686 270
686 317
686 321
686 432
686 488
686 533
686 686
686 707
686 792
686 885
686 891
686 960
686 1140
686 1153
686 1240
686 1316
686 1619
686 1745
686 2826
686 3344
686 3457
686 3553
686 4731
686 4865
686 5108
686 5217
686 5358
686 5359
687 203
687 234
687 820
687 847
687 986
687 1078
687 1120
687 1163
687 1183
687 1251
687 1324
687 1582
687 1591
687 2385
687 2473
687 2481
687 3106
687 3458
687 3628
687 3883
687 3928
687 4915
687 5360
687 5361
687 5362
687 5363
687 5364
687 5479
688 189
688 279
688 411
688 413
688 436
688 522
688 570
688 759
688 782
688 964
688 1003
688 1141
688 1287
688 1534
688 1539
688 1598
688 1742
688 1768
688 2190
688 3039
688 3356
688 3489
688 3818
688 3954
688 4480
688 5365
688 5366
688 5367
688 5493
689 193
689 285
689 319
689 338
689 439
689 961
689 1054
689 1224
689 1615
689 1898
689 1951
689 2021
689 2164
689 2185
689 2772
689 3009
689 3013
689 3050
689 3062
689 3316
689 3779
689 4080
689 4103
689 4105
689 4843
689 5368
689 5369
689 5370
689 5371
690 30
690 172
690 182
690 192
690 251
690 377
690 383
690 402
690 426
690 432
690 536
690 611
690 618
690 810
690 920
690 1179
690 1219
690 1469
690 1484
690 1490
690 2386
690 2801
690 3317
690 3332
690 4041
690 4886
690 5372
690 5373
690 5374
691 23
691 29
691 52
691 63
691 101
691 211
691 305
691 382
691 669
691 696
691 777
691 791
691 873
691 882
691 1134
691 1163
691 1226
691 1547
691 1756
691 1762
691 1825
691 1953
691 2008
691 2118
691 2201
691 2548
691 4198
691 4993
691 5375
691 5376
691 5389
692 384
692 449
692 726
692 2148
692 4715
692 5377
692 5378
692 5379
693 45
693 52
693 149
693 156
693 380
693 383
693 412
693 521
693 538
693 564
693 681
693 771
693 862
693 1015
693 1209
693 1274
693 1811
693 1886
693 1986
693 2152
693 2235
693 2653
693 3253
693 5380
693 5381
693 5382
693 6009
693 6136
693 6816
694 26
694 195
694 206
694 213
694 215
694 391
694 461
694 491
694 562
694 570
694 816
694 969
694 1082
694 1254
694 1469
694 1543
694 1599
694 1731
694 2389
694 3372
694 3459
694 3528
694 3543
694 3568
694 4453
694 5383
694 5384
695 27
695 29
695 61
695 71
695 77
695 88
695 180
695 203
695 254
695 265
695 289
695 293
695 315
695 354
695 608
695 640
695 883
695 1202
695 1351
695 1512
695 2083
695 2427
695 2492
695 2865
695 4926
695 5385
695 5386
696 58
696 88
696 139
696 684
696 691
696 920
696 1064
696 1547
696 1817
696 2233
696 2339
696 2921
696 3228
696 3495
696 4881
696 5270
696 5387
696 5388
696 5389
697 206
697 210
697 312
697 593
697 788
697 1595
697 2662
697 3697
697 4307
697 4373
697 4482
697 4584
697 4635
697 5038
697 5289
697 5381
697 5390
697 5391
697 5392
698 20
698 55
698 76
698 181
698 215
698 259
698 308
698 663
698 780
698 929
698 965
698 1033
698 1036
698 1339
698 1549
698 1780
698 1843
698 2694
698 2874
698 3552
698 3789
698 4960
698 5393
698 5394
699 1007
699 2308
699 5395
699 5396
699 5397
699 5398
699 5958
700 18
700 43
700 48
700 55
700 56
700 88
700 100
700 123
700 168
700 170
700 203
700 268
700 318
700 346
700 413
700 483
700 542
700 555
700 640
700 793
700 802
700 901
700 1081
700 1135
700 1143
700 1308
700 1333
700 1673
700 1682
700 1728
700 1774
700 1930
700 1946
700 1979
700 2094
700 2170
700 2291
700 2292
700 2776
700 3381
700 4186
700 5362
700 5399
700 5400
701 60
701 371
701 612
701 640
701 709
701 1089
701 1635
701 2110
701 2197
701 2259
701 2282
701 2482
701 2730
701 2859
701 2957
701 2970
701 3189
701 3533
701 3733
701 5401
702 38
702 41
702 47
702 54
702 55
702 59
702 82
702 84
702 85
702 133
702 167
702 202
702 299
702 415
702 495
702 585
702 607
702 664
702 676
702 712
702 900
702 907
702 948
702 982
702 991
702 1081
702 1146
702 1380
702 1440
702 1592
702 1856
702 1909
702 2175
702 2415
702 2621
702 2636
702 2686
702 2864
702 5402
702 5403
703 122
703 211
703 371
703 660
703 1710
703 2145
703 3335
703 3387
703 4835
703 5404
703 5405
704 68
704 308
704 461
704 543
704 932
704 1090
704 2157
704 2872
704 3665
704 4402
704 4481
704 4484
704 5385
704 5406
704 5407
704 5408
705 109
705 128
705 321
705 619
705 1531
705 1535
705 1561
705 1623
705 2982
705 3887
705 4233
705 4745
705 5409
705 5410
705 5411
705 5412
706 51
706 69
706 71
706 72
706 79
706 94
706 294
706 315
706 555
706 1122
706 1167
706 1235
706 1237
706 1369
706 1627
706 1876
706 1946
706 1962
706 2052
706 2361
706 2425
706 2650
706 2741
706 2764
706 2809
706 4398
707 49
707 160
707 181
707 598
707 686
707 714
707 741
707 843
707 879
707 1047
707 1340
707 1476
707 1619
707 1802
707 1986
707 2968
707 3174
707 3627
707 3895
707 4740
707 4884
707 5084
708 601
708 1078
708 1218
708 1816
708 1819
708 2725
708 3841
708 3943
708 5115
708 5384
708 5413
708 5414
708 5415
709 431
709 701
709 1151
709 1956
709 5416
709 5417
709 5418
710 88
710 219
710 413
710 495
710 2106
710 2124
710 2263
710 2699
710 3103
710 3328
710 5418
710 5419
710 5420
710 5421
711 58
711 79
711 81
711 124
711 125
711 133
711 143
711 201
711 216
711 243
711 255
711 316
711 330
711 357
711 366
711 448
711 483
711 591
711 791
711 815
711 823
711 948
711 979
711 1058
711 1122
711 1361
711 1365
711 1459
711 1976
711 2004
711 2224
711 2228
711 2432
711 5422
711 5423
712 24
712 29
712 39
712 66
712 70
712 77
712 83
712 100
712 140
712 190
712 349
712 392
712 399
712 401
712 561
712 702
712 801
712 943
712 1122
712 1392
712 1577
712 1605
712 1698
712 1755
712 1919
712 1989
712 2047
712 2418
712 2755
712 5254
712 5423
712 5424
712 5425
713 393
713 1696
713 4709
713 5426
713 5427
714 62
714 96
714 134
714 135
714 148
714 151
714 317
714 508
714 542
714 545
714 647
714 661
714 707
714 891
714 924
714 1075
714 1611
714 1869
714 1871
714 2202
714 2383
714 2552
714 3623
714 4189
714 5428
715 1174
715 1309
715 1323
715 3216
715 5429
715 5430
715 5431
715 5432
716 74
716 213
716 817
716 958
716 1179
716 1335
716 1479
716 1635
716 2379
716 2673
716 2996
716 3054
716 5232
716 5433
716 5434
716 5435
716 5436
716 5437
716 5438
717 63
717 130
717 184
717 186
717 277
717 373
717 383
717 404
717 476
717 550
717 567
717 596
717 602
717 764
717 1147
717 1218
717 1499
717 2187
717 2378
717 2393
717 3024
717 3167
717 3935
717 4003
717 4059
717 5439
717 5440
717 5441
718 45
718 62
718 193
718 206
718 256
718 330
718 491
718 668
718 672
718 673
718 813
718 882
718 2029
718 2156
718 2165
718 2859
718 3524
718 3785
718 5442
718 5443
719 59
719 66
719 185
719 314
719 401
719 437
719 510
719 621
719 744
719 776
719 888
719 943
719 983
719 1330
719 1365
719 1502
719 1861
719 2333
719 2404
719 2446
719 3976
719 5444
719 5445
719 5446
719 5447
720 141
720 338
720 355
720 391
720 610
720 818
720 899
720 1619
720 1620
720 1813
720 1863
720 3250
720 3343
720 3528
720 3910
720 4393
720 5028
720 5139
720 5448
720 5449
720 5450
720 5782
721 40
721 50
721 69
721 72
721 83
721 84
721 102
721 154
721 176
721 292
721 368
721 430
721 658
721 733
721 781
721 801
721 821
721 996
721 1209
721 1237
721 1357
721 1450
721 1535
721 1959
721 2189
721 2214
721 2287
721 2331
721 2668
721 2711
721 2762
721 2765
721 2773
721 3542
721 3681
721 5255
721 5305
721 5451
722 240
722 386
722 405
722 655
722 1267
722 2316
722 2502
722 3771
722 5024
722 5452
722 5453
723 44
723 58
723 143
723 269
723 494
723 881
723 946
723 1191
723 1493
723 1895
723 2267
723 2690
723 2735
723 3894
723 3931
723 4577
723 4587
723 4814
723 5454
723 5455
724 123
724 155
724 941
724 1153
724 1275
724 1365
724 1646
724 2863
724 3728
725 178
725 485
725 899
725 950
725 1862
725 3130
725 3569
725 5264
725 5456
726 692
726 806
726 1226
726 1321
726 1467
726 3926
726 4556
726 4734
726 5457
727 684
727 1152
727 1158
727 1211
727 2385
727 5458
728 784
728 1567
728 1926
728 2900
728 5459
728 5460
729 781
729 1577
729 1777
729 2042
729 5461
729 5462
730 352
730 1541
730 1867
730 1939
730 3699
730 4841
730 5463
731 267
731 777
731 1056
731 1384
731 1478
731 4902
731 5363
732 88
732 665
732 778
732 1372
732 4009
732 5297
733 61
733 84
733 152
733 161
733 181
733 197
733 675
733 721
733 800
733 919
733 921
733 994
733 1021
733 1168
733 1569
733 2189
733 4615
733 5464
734 151
734 161
734 163
734 267
734 371
734 487
734 496
734 596
734 660
734 681
734 974
734 1147
734 1894
734 3033
734 4184
734 5465
734 5466
734 5467
735 405
735 551
735 591
735 743
735 1300
735 1349
735 1699
735 4395
735 4806
735 5241
736 55
736 85
736 115
736 127
736 403
736 417
736 545
736 887
736 905
736 924
736 1059
736 1072
736 1258
736 1455
736 1468
736 2119
736 2326
736 2887
736 2963
736 5467
737 793
737 1116
737 1516
737 2650
737 2652
738 1758
738 2747
738 2864
738 2939
738 3472
739 38
739 55
739 248
739 380
739 564
739 652
739 667
739 1029
739 1093
739 1314
739 1777
739 2069
739 2282
739 2514
739 2559
739 5468
739 5469
740 85
740 167
740 214
740 260
740 300
740 357
740 415
740 902
740 1377
740 1523
740 1823
740 1951
740 2050
741 343
741 408
741 532
741 654
741 707
741 742
741 871
741 1147
741 1500
741 1574
741 4335
741 5470
741 5471
742 72
742 189
742 192
742 211
742 325
742 345
742 347
742 372
742 375
742 404
742 410
742 545
742 741
742 832
742 888
742 1147
742 1223
742 1500
742 1572
742 1650
742 1651
742 2289
742 2383
742 3237
742 4341
742 5472
743 95
743 110
743 120
743 203
743 735
743 745
743 836
743 1011
743 1022
743 1143
743 1202
743 1229
743 1233
743 1582
743 1652
743 1797
743 2067
743 2342
743 2359
743 2424
743 2788
743 3426
743 3663
743 4531
743 5228
743 5261
744 88
744 190
744 314
744 510
744 719
744 1044
744 2212
744 2538
744 3291
744 3540
744 3573
744 3586
744 4531
744 4717
744 5473
745 318
745 402
745 633
745 743
745 755
745 1233
745 1361
745 1682
745 2365
745 3756
746 205
746 1432
746 1604
746 1943
746 2313
746 2570
746 3291
746 3615
746 3669
746 4167
747 1813
747 2115
747 3943
747 5476
748 1852
748 2744
748 3065
748 4395
749 67
749 182
749 208
749 325
749 369
749 372
749 413
749 495
749 536
749 660
749 871
749 986
749 1488
749 1656
749 1866
749 2104
749 2165
749 2228
749 2549
749 2586
749 2979
749 3510
749 5478
750 882
750 1006
750 1745
750 2144
750 2368
750 3467
750 5479
751 1252
751 5480
751 5481
751 5482
751 5483
752 1231
752 1245
752 4395
752 5484
753 3103
753 4046
753 5485
753 5486
754 241
754 338
754 374
754 447
754 669
754 1541
754 1729
754 3326
754 5487
755 88
755 103
755 557
755 745
755 2484
755 3668
755 4479
755 5488
755 5489
756 76
756 198
756 330
756 419
756 521
756 672
756 897
756 1321
756 1379
756 1764
756 1787
756 1927
756 1954
756 2142
756 3093
756 3796
756 5490
757 901
757 961
757 2096
757 3194
757 5295
758 464
758 780
758 2872
758 3796
758 4636
759 42
759 63
759 88
759 98
759 126
759 127
759 228
759 279
759 383
759 477
759 570
759 577
759 688
759 1154
759 1287
759 1301
759 1409
759 1463
759 1534
759 1560
759 1632
759 1696
759 1994
759 2471
759 2819
759 3102
759 3312
759 3568
759 3818
759 3862
759 4037
759 4085
759 5276
759 5491
759 5492
759 5493
759 5494
760 60
760 66
760 82
760 86
760 175
760 214
760 262
760 352
760 512
760 551
760 902
760 987
760 1229
760 1463
760 1499
760 2390
760 2507
760 4037
760 5495
761 7
761 45
761 47
761 248
761 300
761 324
761 412
761 604
761 1041
761 1187
761 1255
761 1582
761 1850
761 2236
761 2532
761 3484
761 4217
761 5496
761 5497
762 411
762 552
762 559
762 673
762 1443
762 3129
762 5209
762 5498
763 150
763 591
763 891
763 1254
763 3561
763 4638
763 5082
763 5499
764 384
764 566
764 717
764 1756
764 2007
764 5341
764 5500
765 208
765 542
765 2002
765 2055
765 3629
765 3647
765 5501
766 48
766 88
766 142
766 229
766 272
766 867
766 892
766 932
766 1669
766 1866
766 1929
766 2992
766 3168
766 3726
766 3778
766 5502
766 5503
766 5504
767 47
767 51
767 88
767 95
767 607
767 651
767 854
767 1213
767 1302
767 1493
767 1728
767 1887
767 2456
767 3114
767 5505
767 5506
767 5507
767 5657
768 3690
768 4514
768 6925
769 11
769 443
769 509
769 548
769 606
769 1172
769 1205
769 1207
769 1798
769 1830
769 1832
769 2046
769 2185
769 2419
769 2460
769 2705
769 3304
769 5509
769 5510
770 32
770 84
770 182
770 280
770 420
770 799
770 1068
770 1532
770 1603
770 1803
770 1838
770 2018
770 2319
770 2607
770 4184
770 5183
770 5451
770 5511
770 5512
771 613
771 693
771 1781
771 5201
771 5513
772 117
772 375
772 388
772 400
772 416
772 813
772 846
772 1090
772 1893
772 2165
772 2929
772 3379
772 4808
772 5514
772 5515
773 62
773 148
773 192
773 230
773 1335
773 1813
773 3229
773 3379
773 3601
773 5516
774 60
774 64
774 71
774 79
774 84
774 87
774 203
774 262
774 318
774 357
774 834
774 978
774 993
774 1201
774 1458
774 1499
774 1514
774 2371
774 2747
775 47
775 59
775 75
775 88
775 202
775 313
775 392
775 548
775 981
775 1400
775 2010
775 2063
775 2091
775 2336
775 2648
775 2816
775 3285
775 5018
775 5131
776 36
776 77
776 327
776 719
776 821
776 919
776 940
776 981
776 1146
776 1241
776 1367
776 1450
776 1776
776 1777
776 2054
776 2209
776 2218
776 2459
776 2514
777 197
777 309
777 344
777 355
777 390
777 691
777 731
777 1134
777 1257
777 1471
777 1526
777 1638
777 3184
777 3265
777 5517
777 5518
778 88
778 168
778 190
778 405
778 541
778 641
778 665
778 732
778 1372
778 1444
778 2305
778 2486
778 5227
778 5297
778 5519
779 79
779 118
779 196
779 204
779 281
779 411
779 415
779 589
779 676
779 1048
779 1201
779 1222
779 1726
779 1849
779 2126
779 2298
779 2855
779 3258
779 3373
779 4855
779 5520
780 27
780 110
780 321
780 698
780 758
780 840
780 893
780 1426
780 1876
780 2411
780 2875
780 3147
780 4925
780 5521
781 66
781 225
781 302
781 313
781 721
781 729
781 1017
781 1400
781 1527
781 2229
781 2781
781 2926
781 3680
781 5522
782 62
782 68
782 96
782 173
782 197
782 215
782 488
782 688
782 862
782 979
782 2093
782 5523
782 5524
783 418
783 1034
783 1342
783 1363
783 4092
783 5348
783 5381
784 728
784 1309
784 1709
784 4603
784 5460
784 5525
784 5526
785 1315
785 1327
785 1394
785 1475
785 1701
785 2896
785 3941
785 4065
785 4581
785 5525
786 63
786 88
786 197
786 515
786 658
786 1001
786 1323
786 1371
786 1455
786 1714
786 1742
786 1768
786 1825
786 2028
786 2030
786 2197
786 2255
786 2403
786 2528
786 3359
786 3436
786 4928
786 5525
786 5527
787 1479
787 1788
787 3141
787 3331
787 3910
787 3981
787 5406
787 5528
787 5529
788 53
788 80
788 141
788 236
788 273
788 281
788 286
788 290
788 367
788 445
788 543
788 579
788 663
788 697
788 892
788 1006
788 1018
788 1027
788 1231
788 1420
788 1452
788 1459
788 1492
788 1630
788 2586
788 2591
788 2659
788 2923
788 3090
788 3524
788 3773
788 3775
788 3938
788 4126
788 4783
788 5503
788 5530
788 5531
789 5477
789 5532
790 128
790 188
790 300
790 466
790 1518
790 1678
790 1704
790 1837
790 1921
790 1966
790 2209
790 2288
790 5533
790 5534
791 243
791 665
791 691
791 711
791 1144
791 1278
791 1427
791 1627
791 1917
791 2228
791 2435
791 3072
791 3863
791 5535
791 5536
792 292
792 332
792 403
792 653
792 686
792 814
792 852
792 996
792 1035
792 1888
792 3773
792 4279
792 5237
792 5460
792 5537
793 7
793 63
793 73
793 313
793 322
793 544
793 650
793 700
793 737
793 884
793 953
793 1116
793 1380
793 1592
793 1606
793 1645
793 2091
793 2269
793 3144
793 3169
793 3393
794 36
794 38
794 87
794 154
794 180
794 294
794 328
794 346
794 839
794 905
794 981
794 1135
794 1493
794 2179
794 2348
794 2643
794 3345
795 75
795 125
795 274
795 392
795 548
795 595
795 801
795 851
795 994
795 1580
795 1752
795 1833
795 1908
795 2121
795 2510
795 3415
795 4615
796 88
796 142
796 256
796 1199
796 1354
796 1993
796 3979
796 5538
797 210
797 398
797 432
797 874
797 923
797 1096
797 1191
797 1586
797 1654
797 1688
797 1993
797 2952
797 4390
797 5121
797 5539
797 5540
798 235
798 906
798 944
798 1009
798 1103
798 1234
798 1598
798 1813
798 3104
798 3890
798 3927
798 4865
798 4966
798 5035
798 5362
798 5541
799 58
799 81
799 84
799 86
799 87
799 88
799 275
799 469
799 629
799 770
799 1424
799 2387
799 3242
799 4699
799 5050
799 5542
800 219
800 313
800 733
800 1042
800 2607
800 3139
800 5511
800 5512
800 5543
801 9
801 17
801 25
801 44
801 50
801 51
801 66
801 77
801 170
801 203
801 334
801 419
801 526
801 548
801 585
801 608
801 640
801 645
801 712
801 721
801 795
801 955
801 1122
801 1172
801 1351
801 1515
801 1844
801 1923
801 1934
801 1962
801 2059
801 2097
801 2130
801 2134
801 2141
801 2460
801 2495
801 2566
801 3003
801 3062
801 4156
801 4214
801 5543
801 5544
802 41
802 48
802 69
802 83
802 86
802 191
802 316
802 700
802 925
802 996
802 1209
802 2099
802 2101
802 2104
802 2105
803 66
803 190
803 306
803 350
803 821
803 850
803 1044
803 1178
803 2067
803 2302
803 2440
803 2453
803 2538
803 3580
803 5545
804 299
804 552
804 833
804 957
804 1531
804 1666
804 2275
804 5546
805 196
805 652
805 834
805 1677
805 1969
805 2080
805 2876
805 3001
806 65
806 131
806 163
806 166
806 177
806 404
806 412
806 527
806 562
806 726
806 1467
806 1540
806 1590
806 1705
806 1706
806 1840
806 3024
806 4931
807 56
807 69
807 71
807 83
807 85
807 196
807 254
807 281
807 392
807 526
807 833
807 1202
807 1988
807 2071
807 2855
807 4855
807 4856
807 4857
808 149
808 155
808 177
808 184
808 248
808 308
808 449
808 461
808 668
808 810
808 878
808 1344
808 3533
808 3748
808 4190
808 4757
808 5012
809 344
809 364
809 374
809 390
809 503
809 533
809 580
809 1257
809 1284
809 1507
809 1560
809 1723
809 2002
809 2675
809 3572
809 4617
809 5547
810 23
810 39
810 52
810 53
810 64
810 76
810 173
810 273
810 324
810 480
810 507
810 570
810 690
810 808
810 1129
810 2161
810 2891
810 5528
811 162
811 180
811 181
811 211
811 417
811 477
811 1059
811 1153
811 1273
811 1547
811 1689
811 1893
811 3338
811 4464
811 5286
811 5287
811 5548
811 5584
812 177
812 215
812 323
812 965
812 1479
812 2481
812 2901
812 2947
812 3178
812 3197
812 3456
812 4247
812 5362
812 5438
813 62
813 68
813 76
813 146
813 718
813 772
813 1575
813 1645
813 2161
813 2392
813 3056
813 3084
813 4065
813 5549
814 128
814 227
814 292
814 552
814 555
814 792
814 996
814 1222
814 1458
814 2111
814 2934
814 3043
814 4010
814 5550
814 5551
815 303
815 340
815 629
815 649
815 711
815 1060
815 1233
815 1722
815 2281
815 2543
815 2578
815 3172
815 5552
815 5553
815 5554
816 53
816 142
816 273
816 631
816 694
816 986
816 1041
816 1221
816 1484
816 2834
816 5390
817 601
817 677
817 716
817 941
817 1287
817 1522
817 2202
817 3149
817 4446
817 5555
817 5556
818 45
818 181
818 213
818 312
818 324
818 367
818 491
818 630
818 720
818 893
818 920
818 1389
818 1490
818 1545
818 3249
818 5514
819 52
819 98
819 155
819 186
819 192
819 435
819 473
819 492
819 611
819 1114
819 1153
819 1228
819 1975
819 3522
819 4044
819 5557
820 122
820 134
820 569
820 687
820 913
820 1746
820 2109
820 3174
820 5054
820 5359
820 5363
820 5558
820 5559
821 59
821 86
821 127
821 204
821 292
821 466
821 721
821 776
821 803
821 1316
821 1962
821 2054
821 4647
821 5560
821 5561
821 5562
822 172
822 256
822 276
822 486
822 1019
822 1276
822 1467
822 1865
822 3329
822 4057
822 5165
822 5563
823 85
823 201
823 711
823 905
823 1020
823 1092
823 1253
823 1377
823 1501
823 1511
823 1593
823 1622
823 2094
823 2132
823 2224
823 2349
823 2671
823 3374
823 4008
823 5012
823 5273
823 5564
823 5565
824 13
824 18
824 346
824 409
824 616
824 644
824 651
824 902
824 1172
824 1380
824 1709
824 1885
824 1887
824 1951
824 2130
824 3017
824 3117
824 3772
824 3775
824 3809
824 3973
824 4576
824 5566
825 1054
825 1898
825 2328
825 3772
825 4728
826 827
826 1371
826 2232
826 4304
826 5341
827 162
827 432
827 826
827 922
827 1182
827 1340
827 1632
827 3220
827 3233
827 4093
827 4773
828 339
828 358
828 401
828 421
828 489
828 1857
828 1881
828 2461
828 4561
828 5175
828 5567
829 45
829 151
829 530
829 1338
829 1619
829 3132
829 4044
829 4712
829 4763
829 4962
829 5568
830 86
830 88
830 114
830 202
830 296
830 489
830 594
830 641
830 1065
830 1178
830 3130
830 4261
830 5569
830 5570
830 5571
831 86
831 179
831 200
831 205
831 330
831 526
831 651
831 925
831 1720
831 2820
831 3493
832 343
832 742
832 1147
832 1549
832 1573
832 2826
832 2955
832 3276
832 4341
832 5572
832 5573
833 24
833 36
833 80
833 83
833 128
833 299
833 548
833 804
833 807
833 884
833 3335
833 3484
833 3990
833 4804
833 5533
833 5546
833 5574
834 61
834 79
834 260
834 774
834 805
834 1441
834 1496
834 1589
834 1799
834 2095
834 2545
834 2766
835 42
835 298
835 300
835 328
835 1202
835 1334
835 1933
835 2435
835 3264
835 4156
835 5554
835 5575
836 46
836 68
836 139
836 276
836 291
836 429
836 743
836 1302
836 2675
836 3240
836 4638
836 5463
837 661
837 3142
837 3900
837 5576
837 5577
838 1562
838 2649
838 3578
838 5578
838 5579
839 23
839 40
839 135
839 152
839 179
839 211
839 255
839 276
839 303
839 342
839 794
839 844
839 1158
839 1212
839 1467
839 1764
839 2193
839 2383
839 2398
839 3073
839 3453
839 3582
839 3803
839 3862
839 4443
839 5368
839 5580
840 567
840 780
840 906
840 1315
840 1611
840 1876
840 2875
840 3272
840 4925
840 5581
840 5582
841 49
841 88
841 161
841 841
841 1140
841 2115
841 3350
841 4406
841 5583
841 5584
841 5585
842 88
842 255
842 421
842 639
842 943
842 1660
842 1663
842 1735
842 1987
842 2452
842 2568
842 5586
843 344
843 383
843 523
843 667
843 707
843 1476
843 1498
843 1545
843 1996
843 2930
843 3935
843 4026
843 5587
843 5588
844 68
844 86
844 170
844 839
844 921
844 924
844 1021
844 1030
844 1119
844 1182
844 2024
844 2055
844 2887
844 3348
844 4007
844 4886
844 5589
844 5590
845 410
845 463
845 2960
845 3455
845 4035
845 5591
845 5592
846 410
846 656
846 679
846 772
846 864
846 1234
846 1460
846 1809
846 4773
846 4933
846 5410
846 5516
846 5591
847 9
847 63
847 88
847 278
847 415
847 687
847 857
847 936
847 1468
847 3437
847 4693
847 4831
847 5593
848 226
848 904
848 952
848 1060
848 1331
848 1458
848 1830
848 2088
848 3037
848 3261
848 3291
848 3620
848 3642
848 3824
848 4718
848 4719
848 5594
848 5595
848 5596
848 5597
849 87
849 287
849 354
849 666
849 1220
849 1277
849 1562
849 2038
849 2141
849 2216
849 2430
849 2649
849 3048
849 3298
849 4289
849 4380
849 4919
849 5130
849 5598
849 5599
850 190
850 292
850 314
850 459
850 582
850 803
850 2056
850 2538
850 3416
850 3575
850 3580
850 4776
850 5224
850 5594
851 44
851 88
851 254
851 331
851 411
851 664
851 795
851 1145
851 2343
851 2522
851 3258
851 4162
851 5600
851 5601
852 792
852 881
852 4279
852 4724
853 371
853 377
853 450
853 602
853 1634
853 1667
853 1674
853 1689
853 1703
853 1877
853 2151
853 2156
853 3342
853 3643
853 4373
853 5289
853 5602
854 51
854 65
854 78
854 96
854 215
854 280
854 608
854 767
854 1090
854 1910
854 1950
854 2422
854 3114
854 5458
854 5603
854 5604
854 5605
855 52
855 162
855 166
855 288
855 308
855 519
855 667
855 3316
855 3384
855 4072
855 5603
856 156
856 241
856 375
856 492
856 661
856 879
856 1072
856 3245
856 3595
856 5443
856 5606
856 5607
857 323
857 847
857 865
857 1128
857 1384
857 1433
857 1674
857 2011
857 2145
857 2859
857 4110
857 4374
857 4784
857 5406
857 5608
858 522
858 862
858 1896
858 2153
858 2563
858 2901
858 3925
858 5609
859 1148
859 1150
859 1750
859 2274
859 4703
859 5196
859 5557
859 5610
860 208
860 923
860 1720
860 1792
860 2955
860 4257
860 5611
860 5612
860 5613
861 88
861 352
861 1305
861 2842
861 3306
861 5196
861 5458
861 5614
861 5615
862 31
862 52
862 168
862 258
862 355
862 382
862 416
862 488
862 532
862 576
862 626
862 693
862 782
862 858
862 878
862 1115
862 1132
862 1483
862 1886
862 1896
862 2156
862 5345
863 56
863 80
863 301
863 338
863 358
863 581
863 659
863 1171
863 1247
863 1446
863 1528
863 1615
863 1875
863 1917
863 2039
863 2201
863 2202
863 2384
863 2736
863 2974
863 3690
863 3722
864 80
864 147
864 174
864 183
864 235
864 288
864 394
864 461
864 593
864 846
864 1120
864 1413
864 1475
864 1492
864 1561
864 2158
864 2244
864 2283
864 2897
864 3486
864 3508
864 3663
864 4195
864 5409
864 5616
864 5617
865 109
865 193
865 209
865 288
865 297
865 352
865 394
865 857
865 932
865 1082
865 1194
865 1492
865 1679
865 1702
865 1703
865 2763
865 2957
865 3435
865 3606
865 4005
865 4042
865 4146
865 5618
865 5619
865 5620
865 5621
866 26
866 30
866 398
866 484
866 491
866 872
866 1274
866 1484
866 3178
866 3548
866 4446
866 5622
867 52
867 212
867 766
867 871
867 988
867 1154
867 1419
867 1463
867 1694
867 2478
867 5623
867 5624
868 44
868 1042
868 1771
868 2878
868 4039
868 5625
868 5626
868 5627
869 32
869 161
869 168
869 915
869 1936
869 2428
869 2468
869 3309
869 4177
869 5628
869 5629
869 5630
870 2517
870 5488
870 5631
870 5632
871 58
871 76
871 87
871 143
871 145
871 168
871 180
871 195
871 197
871 256
871 289
871 330
871 357
871 393
871 409
871 416
871 430
871 501
871 604
871 668
871 683
871 741
871 749
871 867
871 873
871 895
871 901
871 925
871 932
871 1128
871 1158
871 1224
871 1347
871 1509
871 1545
871 1635
871 2093
871 2312
871 2993
871 3018
871 3126
871 3316
871 3330
871 3472
871 3690
871 4002
871 4402
871 4691
871 5633
871 5634
871 5635
871 5636
871 5637
871 5638
871 5639
871 5640
872 31
872 62
872 160
872 205
872 261
872 372
872 866
872 873
872 1196
872 1276
872 1389
872 1411
872 1490
872 1822
872 3247
872 3342
872 3358
872 4468
872 4541
872 5641
872 5642
873 26
873 101
873 155
873 156
873 209
873 367
873 379
873 486
873 564
873 605
873 630
873 668
873 669
873 679
873 691
873 871
873 872
873 928
873 1159
873 1590
873 1972
873 3342
873 3519
873 3526
873 4439
873 5618
873 5643
873 5644
873 5645
874 26
874 28
874 31
874 45
874 189
874 195
874 273
874 325
874 373
874 374
874 402
874 797
874 1088
874 1545
874 1689
874 1745
874 1953
874 1993
874 1995
874 2002
874 2146
874 2150
874 2154
874 2165
874 2612
874 3628
874 4699
874 4935
874 5646
875 409
875 1419
875 2906
875 3045
875 3726
875 4529
875 5311
875 5647
876 344
876 390
876 1526
876 1723
876 4336
876 5547
876 5648
877 71
877 79
877 188
877 254
877 315
877 366
877 1042
877 1373
877 2059
877 3114
877 3418
877 3559
877 5649
878 109
878 164
878 560
878 615
878 808
878 862
878 960
878 989
878 1541
878 1859
878 3564
878 4190
878 5650
879 241
879 661
879 707
879 856
879 1055
879 1184
879 1499
879 1711
879 1713
879 4071
879 4332
879 5470
880 68
880 83
880 305
880 408
880 444
880 618
880 884
880 1288
880 1354
880 1762
880 1917
880 3161
880 3528
880 3716
880 4116
880 4988
881 143
881 409
881 445
881 723
881 852
881 946
881 996
881 1175
881 1306
881 1550
881 2510
881 3931
881 4269
881 4742
881 4999
881 5060
881 5488
882 109
882 149
882 208
882 412
882 563
882 691
882 718
882 750
882 888
882 935
882 957
882 1033
882 1050
882 1745
882 2996
882 3657
882 3720
882 4593
882 4712
882 5322
882 5651
883 81
883 203
883 413
883 695
883 1068
883 1081
883 1298
883 1308
883 1373
883 1496
883 1681
883 1799
883 1847
883 1900
883 2077
883 2337
883 2738
883 2820
883 4283
883 5254
883 5652
884 18
884 39
884 83
884 334
884 548
884 555
884 649
884 665
884 793
884 833
884 880
884 919
884 1203
884 1369
884 1514
884 1726
884 1946
884 2077
884 2286
884 2418
884 3062
884 5653
885 173
885 233
885 237
885 238
885 288
885 488
885 533
885 659
885 686
885 894
885 915
885 984
885 1001
885 1270
885 1361
885 1383
885 1394
885 1490
885 1500
885 1591
885 1780
885 1973
885 2155
885 2241
885 3067
885 3168
885 3344
885 3524
885 3568
885 4093
885 4229
885 4334
885 5654
885 5655
885 6059
886 1451
886 1639
886 2205
886 3278
886 5613
886 5656
887 148
887 373
887 424
887 467
887 487
887 565
887 736
887 969
887 1177
887 1293
887 1433
887 1572
887 1859
887 2003
887 2009
887 2379
887 2713
887 3201
887 3600
887 3721
887 4343
887 4621
887 4864
887 5003
887 5262
887 5657
887 5658
887 5659
887 5660
888 148
888 151
888 681
888 719
888 742
888 882
888 924
888 1088
888 1148
888 1290
888 2919
888 3508
888 3597
888 3623
888 5446
889 397
889 3566
889 5145
889 5661
889 5662
889 5663
890 2972
890 5474
890 5511
890 5662
890 5664
891 62
891 127
891 134
891 162
891 195
891 317
891 387
891 398
891 432
891 458
891 488
891 566
891 661
891 686
891 714
891 763
891 960
891 967
891 1150
891 1394
891 1995
891 2826
891 5662
891 5665
891 5666
892 56
892 80
892 179
892 206
892 766
892 788
892 987
892 1018
892 1240
892 1594
892 1886
892 2606
892 3133
892 4085
892 5502
892 5667
892 5668
892 5669
893 42
893 211
893 215
893 278
893 660
893 780
893 818
893 941
893 1220
893 1225
893 1276
893 1460
893 2478
893 2756
893 3130
893 3233
893 3760
893 4491
893 5062
893 5098
893 5485
893 5670
894 156
894 256
894 627
894 668
894 885
894 1159
894 1321
894 1621
894 1655
894 2859
894 3212
894 3607
894 5671
895 36
895 59
895 88
895 108
895 191
895 196
895 561
895 664
895 871
895 1473
895 1577
895 1792
895 1799
895 2296
895 2498
895 3589
895 5637
895 5672
895 5673
896 552
896 598
896 681
896 993
896 1554
896 1604
896 3194
896 3447
896 4226
897 30
897 80
897 367
897 400
897 630
897 672
897 756
897 1048
897 1694
897 1927
897 3023
897 4454
897 5674
897 5675
897 5676
897 5677
898 46
898 515
898 586
898 984
898 1090
898 1115
898 1541
898 3137
898 3168
898 3702
898 3867
898 4001
898 4044
898 4093
898 4557
899 52
899 324
899 412
899 720
899 725
899 1275
899 2118
899 3640
899 3744
899 4557
899 4878
899 5678
899 5679
900 12
900 22
900 44
900 48
900 75
900 82
900 103
900 110
900 125
900 167
900 171
900 205
900 210
900 254
900 264
900 316
900 403
900 526
900 604
900 681
900 702
900 1146
900 1239
900 1395
900 1548
900 1606
900 1645
900 1692
900 1718
900 1946
900 2016
900 2165
900 2545
900 3373
900 3419
900 4839
900 5237
900 5680
900 5681
901 17
901 37
901 57
901 65
901 67
901 69
901 71
901 87
901 153
901 168
901 294
901 381
901 419
901 700
901 757
901 871
901 1043
901 1386
901 1392
901 1568
901 1578
901 1777
901 1845
901 2553
901 2614
901 3120
901 3128
901 3171
901 3651
901 5292
901 5682
902 12
902 13
902 48
902 88
902 120
902 179
902 214
902 216
902 236
902 507
902 604
902 685
902 740
902 760
902 824
902 1378
902 1501
902 1567
902 1850
902 1856
902 1948
902 2137
902 2351
902 2510
902 2914
902 3665
902 4477
902 4652
902 4912
902 5683
902 5684
903 5686
903 6951
904 62
904 116
904 848
904 1299
904 1675
904 3077
904 3263
904 5687
905 71
905 72
905 81
905 83
905 86
905 194
905 205
905 392
905 736
905 794
905 823
905 1214
905 1496
905 1831
905 2179
905 2668
905 3092
905 3688
905 3969
905 5688
906 160
906 235
906 450
906 537
906 554
906 562
906 579
906 593
906 798
906 840
906 1166
906 1231
906 1288
906 1483
906 1500
906 2245
906 4987
906 5282
906 5689
907 85
907 88
907 167
907 188
907 236
907 478
907 702
907 1380
907 1382
907 1852
907 2136
907 2137
907 2340
907 3480
907 3637
907 3893
907 3969
907 4649
907 4839
908 218
908 655
908 2001
908 3475
908 3810
908 5684
908 5690
908 5691
909 269
909 330
909 1387
909 1550
909 2325
909 2327
909 2864
909 3475
909 5692
910 1917
910 2929
910 3140
910 4739
910 5472
910 5659
911 257
911 994
911 1171
911 1416
911 1511
911 1647
911 1849
911 2087
911 2516
911 2591
911 3049
911 5393
911 5693
912 170
912 299
912 496
912 1287
912 3029
912 3134
912 3863
912 4007
912 4535
912 4633
912 5239
912 5655
912 5694
913 535
913 820
913 3174
913 3537
913 5518
913 5559
914 2522
914 3111
914 5695
915 53
915 149
915 160
915 393
915 532
915 681
915 869
915 885
915 1188
915 1296
915 1389
915 1413
915 1540
915 1611
915 1716
915 1761
915 2745
915 3033
915 5514
915 5696
916 205
916 537
916 925
916 1747
916 2433
916 2832
916 3801
916 5261
916 5697
917 1094
917 5635
917 5698
917 5699
918 122
918 184
918 199
918 550
918 1792
918 1996
918 2275
918 3534
918 4756
918 5557
918 5700
918 5701
918 5702
919 69
919 190
919 368
919 733
919 776
919 884
919 1025
919 1126
919 1458
919 2285
919 3006
919 3280
919 5589
919 5703
919 5704
919 5705
919 5706
920 26
920 33
920 121
920 198
920 210
920 229
920 356
920 380
920 398
920 402
920 455
920 491
920 618
920 630
920 690
920 696
920 818
920 948
920 1102
920 1195
920 1251
920 1783
920 1995
920 2106
920 2662
920 3656
920 4627
920 5165
920 5707
920 5708
921 50
921 83
921 85
921 115
921 161
921 168
921 179
921 194
921 201
921 299
921 581
921 644
921 665
921 682
921 733
921 844
921 1046
921 1214
921 1237
921 1458
921 1618
921 1641
921 1677
921 3893
921 3903
921 4218
921 4952
921 5575
921 5589
921 5709
922 305
922 499
922 599
922 618
922 827
922 935
922 1033
922 1131
922 1132
922 1480
922 1561
922 1762
922 2394
922 2873
922 3106
922 3700
922 4736
922 4931
922 5278
922 5376
922 5710
923 208
923 797
923 860
923 1013
923 3718
923 4878
923 4902
923 5118
923 5711
923 5712
924 62
924 63
924 161
924 182
924 189
924 192
924 215
924 335
924 405
924 508
924 533
924 621
924 646
924 714
924 736
924 844
924 888
924 974
924 1030
924 1107
924 1119
924 1290
924 1301
924 1583
924 1603
924 1615
924 1713
924 2003
924 2356
924 2383
924 3237
924 3339
924 3433
924 3495
924 5650
924 5713
924 5714
925 28
925 48
925 71
925 73
925 79
925 83
925 85
925 143
925 154
925 171
925 203
925 212
925 214
925 334
925 513
925 591
925 592
925 802
925 831
925 871
925 916
925 998
925 1015
925 1022
925 1039
925 1043
925 1202
925 1646
925 1647
925 1736
925 1900
925 2046
925 2641
925 2743
925 3111
925 3760
925 5715
926 18
926 203
926 254
926 289
926 1087
926 1137
926 1210
926 1227
926 1266
926 1673
926 1827
926 1942
926 2034
926 2183
926 2418
926 2425
926 2467
926 2495
926 5716
926 5717
926 5718
926 5719
927 64
927 79
927 95
927 103
927 136
927 170
927 191
927 334
927 553
927 981
927 1380
927 1556
927 1828
927 2780
927 3407
927 3445
927 3616
927 5720
927 5721
928 26
928 111
928 261
928 325
928 408
928 484
928 521
928 667
928 873
928 938
928 1062
928 3141
928 4024
928 4210
928 5122
928 5722
929 63
929 80
929 88
929 263
929 621
929 698
929 973
929 1164
929 1208
929 1492
929 1939
929 3500
929 3707
929 5201
929 5575
929 5723
930 120
930 260
930 311
930 421
930 435
930 437
930 451
930 665
930 1012
930 1168
930 1209
930 1278
930 1456
930 1569
930 1755
930 1861
930 1920
930 2212
930 2505
930 2521
930 2538
930 2616
930 4218
930 5724
930 5725
931 121
931 122
931 297
931 338
931 391
931 609
931 679
931 977
931 1484
931 1585
931 1634
931 1640
931 1745
931 1780
931 1953
931 2159
931 2253
931 2954
931 3105
931 3981
931 4146
931 4149
931 5137
931 5647
931 5726
932 46
932 68
932 70
932 76
932 87
932 99
932 206
932 339
932 353
932 440
932 455
932 564
932 626
932 678
932 704
932 766
932 865
932 871
932 1128
932 1379
932 1431
932 1479
932 1787
932 1888
932 2664
932 2811
932 2895
932 2992
932 3089
932 3234
932 3629
932 3714
932 4767
932 5727
932 5728
933 182
933 1803
933 2020
933 2752
933 3400
933 5729
933 5730
934 1468
934 2476
934 2930
934 3542
934 5731
934 5732
934 5733
935 46
935 53
935 169
935 193
935 213
935 273
935 308
935 356
935 367
935 528
935 626
935 882
935 922
935 958
935 1488
935 1541
935 1552
935 1561
935 1864
935 1896
935 3073
935 3410
935 3722
935 4712
935 5287
935 5472
935 5734
935 5735
936 195
936 536
936 847
936 1956
936 3568
936 3858
936 3929
936 5272
936 5736
936 5737
937 3139
937 3608
937 4416
937 5738
937 5739
938 162
938 189
938 290
938 461
938 604
938 928
938 941
938 1160
938 1220
938 1341
938 1362
938 1616
938 2013
938 2342
938 2549
938 2602
938 3141
938 3157
938 3160
938 3363
938 3720
938 3789
938 5740
938 5741
938 5742
938 5743
938 5744
939 108
939 387
939 677
939 3096
939 4960
939 5743
939 5745
939 5746
940 72
940 185
940 225
940 294
940 350
940 650
940 776
940 1577
940 1652
940 1963
940 2302
940 2424
940 2427
940 2513
940 2517
940 2575
940 2627
940 2650
940 3974
940 5029
940 5223
940 5747
940 5748
941 122
941 126
941 161
941 278
941 288
941 377
941 516
941 593
941 683
941 724
941 817
941 893
941 938
941 1013
941 1153
941 1233
941 1899
941 2655
941 2759
941 3276
941 3404
941 3600
941 3897
941 5749
941 5750
942 54
942 85
942 202
942 204
942 294
942 316
942 478
942 511
942 650
942 1209
942 1227
942 1280
942 1493
942 1578
942 1932
942 2068
942 2340
942 2369
942 2693
942 2807
942 3065
942 3391
942 3583
942 3973
942 5243
942 5751
942 5752
942 5753
943 29
943 54
943 66
943 70
943 87
943 202
943 208
943 311
943 412
943 520
943 712
943 719
943 842
943 2174
943 2449
943 2520
943 3684
943 5086
943 5754
943 5755
943 5756
944 798
944 1148
944 5541
944 5757
945 654
945 2136
945 5758
945 5759
946 13
946 140
946 253
946 307
946 415
946 445
946 723
946 881
946 1094
946 1267
946 1670
946 1895
946 2267
946 2690
946 2744
946 3014
946 3138
946 3931
946 4482
946 5641
946 5760
946 5761
946 5762
947 464
947 3014
947 5057
947 5763
947 5764
947 5765
948 9
948 75
948 185
948 194
948 262
948 264
948 380
948 520
948 590
948 608
948 653
948 676
948 702
948 711
948 920
948 1146
948 1377
948 1415
948 1575
948 2284
948 2699
948 2903
948 2941
948 3373
948 4650
948 5489
948 5766
949 34
949 37
949 66
949 75
949 87
949 88
949 114
949 153
949 401
949 421
949 513
949 531
949 606
949 607
949 1529
949 1681
949 1734
949 1735
949 2405
949 2439
949 2449
949 2458
949 2620
949 2789
949 2790
949 2940
949 3977
950 485
950 725
950 1862
950 2233
950 3023
950 3929
950 4745
950 5070
950 5264
950 5689
950 5767
951 521
951 1023
951 1774
951 1903
951 1930
951 3444
951 4877
951 5768
952 107
952 200
952 437
952 848
952 1360
952 1684
952 1821
952 2044
952 2088
952 2453
952 2538
952 3036
952 3037
952 3038
952 3283
952 3620
952 4718
952 5769
952 5770
953 286
953 380
953 507
953 543
953 793
953 1053
953 2310
953 2547
953 4912
953 5060
953 5771
954 1552
954 1667
954 2870
954 3607
954 4630
954 5772
955 240
955 316
955 478
955 511
955 526
955 640
955 801
955 1518
955 1844
955 2130
955 2142
955 2630
955 2850
955 3893
955 5759
955 5773
956 53
956 412
956 430
956 478
956 603
956 993
956 1158
956 1330
956 1414
956 1462
956 1541
956 2508
956 3691
956 4583
956 5457
956 5774
957 122
957 159
957 182
957 420
957 444
957 622
957 804
957 882
957 1033
957 1413
957 3344
957 3766
957 4252
957 4319
957 4541
958 28
958 615
958 616
958 673
958 716
958 935
958 997
958 1131
958 1142
958 2715
958 2897
958 2913
958 2923
958 3468
958 4064
958 4520
958 5197
958 5287
958 5435
958 5775
958 5776
958 5777
959 2608
959 5775
959 5778
959 5779
960 45
960 88
960 363
960 383
960 435
960 488
960 686
960 878
960 891
960 1004
960 1540
960 1730
960 1740
960 2676
960 2826
960 3140
960 5171
960 5780
960 5781
960 5782
961 68
961 263
961 528
961 621
961 689
961 757
961 1033
961 1196
961 1305
961 2003
961 2113
961 2316
961 2727
961 3223
961 3554
961 3644
961 3798
961 4598
961 4955
961 5783
961 5784
961 5785
961 5786
962 13
962 167
962 482
962 640
962 1668
962 2312
962 2686
962 4475
962 5759
962 5787
963 189
963 386
963 617
963 5026
963 5434
963 5658
964 68
964 155
964 187
964 278
964 282
964 320
964 544
964 688
964 1030
964 1279
964 1564
964 1729
964 1792
964 2021
964 2263
964 2470
964 3155
964 4060
964 4150
964 5788
965 60
965 323
965 542
965 698
965 812
965 1259
965 1309
965 2009
965 4247
965 4843
965 5789
965 5790
966 134
966 288
966 364
966 376
966 599
966 1636
966 1815
966 5613
966 5791
966 5792
967 228
967 891
967 1150
967 1617
967 1816
967 2143
967 4334
967 5666
967 5793
967 5794
968 57
968 88
968 185
968 1392
968 1577
968 1801
968 2328
968 2894
968 3002
968 5795
968 5796
969 80
969 131
969 186
969 273
969 386
969 574
969 694
969 887
969 1108
969 1466
969 1541
969 1731
969 1825
969 1866
969 3265
969 4059
969 5797
970 84
970 464
970 2744
970 3145
970 5798
970 5799
971 168
971 340
971 435
971 1829
971 1892
971 2193
971 3169
971 5800
971 5801
972 63
972 404
972 517
972 532
972 1409
972 1599
972 1608
972 2478
972 3093
972 3702
972 5802
972 5803
973 28
973 45
973 134
973 184
973 187
973 211
973 340
973 461
973 611
973 660
973 679
973 929
973 1341
973 1366
973 1407
973 1498
973 1547
973 1742
973 1783
973 1796
973 2552
973 2663
973 2928
973 3253
973 5584
973 5804
974 734
974 924
974 5794
974 5805
974 5806
975 41
975 48
975 73
975 78
975 254
975 415
975 1415
975 1835
975 2097
975 2689
975 5807
975 5808
975 5809
975 5810
976 10
976 26
976 52
976 169
976 277
976 426
976 573
976 588
976 1352
976 1974
976 4950
976 5568
976 5811
976 5812
977 46
977 256
977 338
977 380
977 684
977 931
977 1347
977 1587
977 2814
977 5677
977 5813
977 5814
978 25
978 35
978 83
978 100
978 645
978 774
978 983
978 994
978 1031
978 1095
978 2051
978 2309
978 2413
978 2640
978 3304
978 5815
978 5816
979 52
979 86
979 203
979 243
979 324
979 334
979 711
979 782
979 1466
979 2004
979 2110
979 2118
979 2444
979 3008
979 3087
979 4348
979 4960
979 5542
979 5817
979 5818
980 121
980 138
980 187
980 538
980 1057
980 1058
980 1428
980 3101
980 4947
980 5819
980 5820
981 34
981 37
981 64
981 79
981 103
981 154
981 165
981 191
981 313
981 401
981 437
981 526
981 648
981 775
981 776
981 794
981 927
981 1239
981 1280
981 1356
981 1369
981 1395
981 1406
981 1527
981 1556
981 1577
981 1627
981 1678
981 1758
981 2078
981 2081
981 2439
981 2440
981 2447
981 2454
981 2523
981 2546
981 2635
981 2790
981 2839
981 3286
981 3378
981 3484
981 3541
982 47
982 54
982 59
982 67
982 80
982 114
982 702
982 1213
982 1313
982 1337
982 1556
982 1849
982 5545
982 5821
983 36
983 153
983 293
983 719
983 978
983 1456
983 1579
983 3817
983 5747
983 5822
983 5823
983 5824
984 30
984 33
984 46
984 76
984 79
984 123
984 160
984 168
984 181
984 194
984 208
984 211
984 299
984 363
984 455
984 671
984 885
984 898
984 1153
984 1509
984 1533
984 2323
984 2609
984 3330
984 3552
984 3906
984 5825
984 5826
985 44
985 2371
985 2771
985 3559
985 3562
985 5827
985 5828
986 256
986 687
986 749
986 816
986 1303
986 3278
986 3562
986 5206
986 5829
986 5830
987 20
987 55
987 173
987 272
987 405
987 431
987 760
987 892
987 1081
987 1330
987 1670
987 1822
987 1947
987 2280
987 2282
987 2350
987 2426
987 2571
987 3532
987 5831
987 5832
988 296
988 303
988 867
988 1228
988 1549
988 2316
988 2387
988 2965
988 3537
988 4817
988 5833
989 681
989 878
989 1030
989 1538
989 1859
989 1993
989 4059
989 4073
989 4628
989 5834
989 5835
990 31
990 467
990 503
990 524
990 1049
990 1353
990 1723
990 1953
990 1996
990 2020
990 3401
990 4132
990 4812
990 5573
990 5836
990 5837
991 43
991 196
991 201
991 381
991 548
991 676
991 702
991 1672
991 1677
991 1727
991 1752
991 1857
991 2764
991 4625
991 5838
991 5839
991 6615
992 1171
992 3795
992 5604
992 5840
993 60
993 83
993 85
993 123
993 170
993 196
993 262
993 334
993 354
993 585
993 592
993 676
993 774
993 896
993 956
993 1280
993 1441
993 1514
993 1517
993 1718
993 1760
993 1927
993 1934
993 1942
993 1946
993 1979
993 2051
993 2134
993 2425
993 2643
993 2648
993 2679
993 2945
993 3067
993 3120
993 3130
993 4722
993 5649
993 5841
993 5842
993 5843
994 18
994 88
994 212
994 289
994 589
994 629
994 645
994 733
994 795
994 911
994 978
994 1068
994 1358
994 1395
994 1589
994 1605
994 1700
994 1902
994 2068
994 2072
994 2368
994 2422
994 3092
994 3423
994 5649
995 19
995 64
995 115
995 165
995 196
995 203
995 274
995 333
995 531
995 664
995 1206
995 1300
995 1423
995 1727
995 1751
995 2053
995 2125
995 3659
995 5649
996 50
996 83
996 86
996 201
996 301
996 721
996 792
996 802
996 814
996 881
996 1223
996 1660
996 1846
996 2096
996 2543
996 2602
996 2765
996 2797
996 3073
996 5844
996 5845
997 84
997 273
997 437
997 532
997 958
997 2117
997 2715
997 5846
998 42
998 88
998 134
998 150
998 179
998 544
998 925
998 1075
998 1144
998 1243
998 1308
998 2245
998 2817
998 5847
998 5848
998 5849
999 1051
999 5127
999 5579
999 5850
999 5851
1000 1745
1000 3388
1000 5384
1000 5852
1001 619
1001 786
1001 885
1001 1376
1001 2144
1001 2678
1001 3275
1002 276
1002 324
1002 1510
1002 1686
1002 1703
1002 5853
1002 5854
1003 169
1003 277
1003 688
1003 1325
1003 1534
1003 1587
1003 1740
1003 1741
1003 1782
1003 1974
1003 2198
1003 5855
1004 76
1004 325
1004 522
1004 601
1004 960
1004 1221
1004 1540
1004 1862
1004 3380
1004 3747
1004 4696
1004 5856
1005 38
1005 50
1005 67
1005 71
1005 75
1005 83
1005 85
1005 511
1005 513
1005 581
1005 589
1005 641
1005 2572
1005 2827
1005 4009
1005 5857
1006 77
1006 103
1006 175
1006 371
1006 605
1006 750
1006 788
1006 1097
1006 1465
1006 1825
1006 2103
1006 2883
1006 3010
1006 3017
1006 5858
1007 122
1007 277
1007 305
1007 449
1007 565
1007 699
1007 1064
1007 1221
1007 1274
1007 1539
1007 1716
1007 1955
1007 3305
1007 3735
1007 5726
1008 256
1008 1621
1008 1927
1008 4784
1008 5859
1009 76
1009 80
1009 173
1009 174
1009 192
1009 263
1009 336
1009 611
1009 798
1009 1388
1009 1835
1009 3331
1009 3435
1009 5859
1010 172
1010 217
1010 263
1010 342
1010 449
1010 1132
1010 1164
1010 1225
1010 1425
1010 3166
1010 3277
1010 3343
1010 3805
1010 5400
1011 71
1011 87
1011 212
1011 224
1011 537
1011 648
1011 743
1011 1404
1011 1441
1011 1671
1011 2755
1012 81
1012 87
1012 167
1012 170
1012 201
1012 405
1012 647
1012 930
1012 2309
1012 2774
1012 3413
1013 127
1013 213
1013 371
1013 611
1013 660
1013 923
1013 941
1013 1153
1013 3152
1013 4172
1013 4303
1014 62
1014 213
1014 256
1014 261
1014 297
1014 394
1014 410
1014 679
1014 4454
1014 4815
1014 5854
1014 5860
1015 282
1015 693
1015 925
1015 3496
1015 4172
1015 5449
1016 1553
1016 3751
1016 6914
1017 88
1017 302
1017 314
1017 607
1017 781
1017 1173
1017 1227
1017 1732
1017 2634
1017 3280
1018 80
1018 133
1018 436
1018 537
1018 788
1018 892
1018 1885
1018 3172
1018 3637
1018 4154
1019 276
1019 563
1019 822
1019 1326
1019 1582
1019 3899
1019 4057
1020 180
1020 413
1020 823
1020 1831
1020 2099
1020 2580
1020 2710
1020 3407
1020 4283
1020 5862
1020 5863
1021 70
1021 81
1021 87
1021 304
1021 733
1021 844
1021 1253
1021 2580
1021 3727
1021 5368
1021 5864
1022 22
1022 28
1022 48
1022 81
1022 133
1022 167
1022 254
1022 537
1022 553
1022 629
1022 676
1022 743
1022 925
1022 1336
1022 1834
1022 2179
1022 2755
1023 81
1023 84
1023 86
1023 260
1023 640
1023 951
1023 1122
1023 1373
1023 1589
1023 2755
1023 5768
1024 1028
1024 3766
1024 5207
1024 5439
1025 919
1025 2500
1025 4748
1025 5865
1026 14
1026 26
1026 45
1026 80
1026 88
1026 211
1026 283
1026 374
1026 410
1026 415
1026 1151
1026 1228
1026 1234
1026 1623
1026 1897
1026 1975
1026 2154
1026 2659
1026 2664
1026 3552
1026 3702
1026 5439
1026 5866
1027 290
1027 788
1027 1053
1027 1452
1027 1492
1027 4126
1027 5530
1027 5867
1028 117
1028 468
1028 1024
1028 1897
1028 4091
1028 4447
1028 5439
1028 5868
1029 72
1029 88
1029 108
1029 153
1029 739
1029 1037
1029 1386
1029 2058
1029 2813
1029 3682
1030 62
1030 122
1030 272
1030 386
1030 621
1030 661
1030 844
1030 924
1030 964
1030 989
1030 1182
1030 1458
1030 1464
1030 1540
1030 1739
1030 1743
1030 2385
1030 2395
1030 3106
1030 4180
1030 4508
1030 4620
1030 4703
1031 123
1031 140
1031 216
1031 417
1031 645
1031 649
1031 978
1031 1258
1031 1282
1031 1302
1031 1605
1031 1799
1031 2100
1031 2426
1031 2630
1031 2888
1031 4006
1031 5252
1031 5869
1032 1163
1032 2540
1032 2655
1032 2865
1032 4138
1033 212
1033 260
1033 288
1033 382
1033 461
1033 698
1033 882
1033 922
1033 957
1033 961
1033 1465
1033 2220
1033 3330
1033 3377
1033 5273
1033 5872
1034 783
1034 2420
1034 3707
1034 5381
1035 88
1035 332
1035 478
1035 792
1035 2502
1035 3214
1035 3770
1035 3931
1035 4155
1035 4742
1035 5008
1035 5873
1036 211
1036 317
1036 342
1036 393
1036 632
1036 659
1036 698
1036 1088
1036 1189
1036 1340
1036 1483
1036 1947
1036 1986
1036 3144
1036 3252
1036 4180
1037 66
1037 77
1037 78
1037 79
1037 88
1037 94
1037 153
1037 255
1037 311
1037 590
1037 1029
1037 1904
1037 1944
1037 2091
1037 2227
1037 4124
1037 5874
1037 5875
1037 5876
1038 494
1038 557
1038 2045
1038 4124
1038 5877
1038 5878
1039 71
1039 78
1039 171
1039 366
1039 525
1039 598
1039 665
1039 925
1039 1043
1039 1337
1039 1502
1039 1698
1039 1772
1039 2048
1039 2296
1039 2298
1039 2369
1039 2647
1039 4751
1039 5879
1040 59
1040 67
1040 71
1040 201
1040 392
1040 507
1040 1332
1040 1800
1040 1932
1040 2412
1040 3446
1040 3777
1040 3779
1040 4124
1040 4625
1040 5880
1040 5881
1041 431
1041 653
1041 761
1041 816
1041 2974
1041 4695
1041 5013
1041 5882
1042 72
1042 86
1042 115
1042 531
1042 800
1042 868
1042 877
1042 1425
1042 1963
1042 1968
1042 2205
1042 2533
1042 2763
1042 5543
1043 61
1043 86
1043 125
1043 165
1043 170
1043 254
1043 294
1043 901
1043 925
1043 1039
1043 1127
1043 1169
1043 2411
1043 2767
1043 4505
1043 5883
1043 5884
1044 57
1044 185
1044 744
1044 803
1044 1193
1044 1238
1044 1359
1044 1776
1044 1860
1044 2035
1044 2058
1044 5885
1044 5886
1045 7
1045 3422
1045 4217
1045 4505
1045 5887
1046 511
1046 592
1046 921
1046 1146
1046 1493
1046 1678
1046 1831
1046 4283
1046 4614
1047 164
1047 197
1047 707
1047 1056
1047 1659
1047 1804
1047 2187
1047 3365
1047 3399
1047 5888
1048 227
1048 411
1048 442
1048 779
1048 897
1048 1496
1048 2762
1048 4986
1048 5855
1048 5889
1049 267
1049 503
1049 580
1049 990
1049 1177
1049 1601
1049 1797
1049 4905
1050 209
1050 273
1050 394
1050 563
1050 882
1050 2167
1050 3687
1050 3724
1051 999
1051 5127
1051 5890
1052 45
1052 158
1052 611
1052 681
1052 1114
1052 1188
1052 1214
1052 1394
1052 1439
1052 1464
1052 1591
1052 2008
1052 2098
1052 2665
1052 2745
1052 2845
1052 3365
1052 3568
1052 3929
1052 4494
1052 5891
1053 64
1053 120
1053 179
1053 209
1053 214
1053 236
1053 286
1053 403
1053 604
1053 953
1053 1027
1053 1198
1053 1412
1053 1866
1053 2547
1053 3063
1053 3093
1053 3784
1053 3998
1053 5892
1053 5893
1054 8
1054 103
1054 504
1054 620
1054 689
1054 825
1054 1094
1054 1145
1054 1667
1054 1889
1054 1898
1054 3063
1054 3779
1054 5894
1054 5895
1055 879
1055 1654
1055 3598
1055 4180
1055 4208
1055 4886
1055 5470
1056 390
1056 404
1056 731
1056 1047
1056 1056
1056 1601
1056 1914
1056 4901
1056 4905
1057 88
1057 659
1057 980
1057 1221
1057 2877
1057 3101
1057 3340
1057 4794
1057 5135
1058 538
1058 626
1058 711
1058 980
1058 1058
1058 1151
1058 1611
1058 1685
1058 2101
1058 2106
1058 2258
1058 3101
1058 5896
1058 5897
1058 5898
1059 76
1059 84
1059 150
1059 227
1059 303
1059 317
1059 416
1059 736
1059 811
1059 1602
1059 2601
1059 3619
1060 40
1060 162
1060 419
1060 815
1060 848
1060 2883
1060 3285
1060 3363
1060 4377
1060 4379
1060 4656
1060 5899
1061 128
1061 193
1061 325
1061 376
1061 1134
1061 1636
1061 1897
1061 2030
1061 3275
1061 4091
1061 5651
1061 5900
1062 154
1062 928
1062 1219
1062 1380
1062 1408
1062 3069
1062 3285
1062 3357
1062 3934
1062 5130
1062 5901
1062 5902
1063 1175
1063 1617
1063 1906
1063 2345
1063 2808
1063 5903
1064 696
1064 1007
1064 1138
1064 1326
1064 3305
1064 5726
1065 70
1065 88
1065 102
1065 401
1065 489
1065 650
1065 664
1065 830
1065 2753
1065 5904
1065 5905
1066 418
1066 1100
1066 1807
1066 4050
1066 4403
1066 4596
1066 5906
1067 1392
1067 2455
1067 2456
1067 2642
1068 27
1068 64
1068 74
1068 82
1068 87
1068 102
1068 179
1068 234
1068 645
1068 676
1068 770
1068 883
1068 994
1068 1337
1068 1373
1068 1774
1068 2336
1068 5894
1068 5907
1069 35
1069 44
1069 49
1069 74
1069 85
1069 88
1069 212
1069 275
1069 392
1069 585
1069 1180
1069 1535
1069 1963
1069 2069
1069 2176
1069 2208
1069 2642
1069 2857
1069 3619
1070 411
1070 478
1070 1219
1070 1886
1070 2284
1070 4110
1070 4481
1070 5908
1071 355
1071 536
1071 1072
1071 1182
1071 1390
1071 4292
1071 5909
1071 5910
1072 62
1072 63
1072 135
1072 189
1072 238
1072 536
1072 636
1072 658
1072 736
1072 856
1072 1071
1072 1147
1072 1182
1072 1952
1072 3865
1072 4100
1072 4292
1072 5108
1073 303
1073 372
1073 2146
1073 3889
1073 3999
1074 1607
1074 3433
1074 4874
1074 5248
1074 5911
1075 88
1075 137
1075 146
1075 508
1075 545
1075 611
1075 615
1075 647
1075 714
1075 998
1075 1290
1075 1534
1075 1611
1075 1632
1075 1677
1075 1836
1075 2095
1075 2383
1075 3453
1075 4138
1075 5912
1076 48
1076 61
1076 64
1076 65
1076 82
1076 88
1076 293
1076 354
1076 603
1076 4138
1076 4156
1076 5895
1076 5913
1076 5914
1077 301
1077 598
1077 1698
1077 4139
1077 4163
1077 5079
1077 5915
1078 601
1078 617
1078 687
1078 708
1078 3939
1078 5540
1078 5853
1078 5916
1079 80
1079 156
1079 210
1079 353
1079 404
1079 410
1079 455
1079 562
1079 668
1079 1279
1079 1459
1079 1559
1079 1576
1079 2027
1079 3060
1079 3319
1079 4230
1079 4710
1079 5853
1080 209
1080 550
1080 1159
1080 2257
1080 2280
1080 5917
1081 60
1081 65
1081 74
1081 171
1081 185
1081 294
1081 415
1081 422
1081 591
1081 700
1081 702
1081 883
1081 987
1081 1244
1081 1580
1081 1751
1081 2337
1081 2748
1081 3069
1081 4670
1082 53
1082 209
1082 211
1082 288
1082 353
1082 356
1082 404
1082 630
1082 669
1082 694
1082 865
1082 1251
1082 1586
1082 1788
1082 2029
1082 2163
1082 3197
1082 4048
1082 4393
1082 5647
1083 109
1083 126
1083 1878
1083 1879
1083 3211
1083 4737
1083 4774
1083 5858
1084 172
1084 217
1084 263
1084 342
1084 1164
1084 1338
1084 1422
1084 1906
1084 5918
1084 5919
1085 617
1085 1632
1085 2171
1085 2709
1085 3020
1085 3144
1085 4065
1085 4391
1085 5142
1085 5920
1086 168
1086 225
1086 2097
1086 2681
1086 3287
1086 4100
1086 5522
1086 5706
1087 36
1087 94
1087 514
1087 667
1087 676
1087 926
1087 1167
1087 1406
1087 1909
1087 3287
1087 3588
1087 5717
1088 192
1088 229
1088 231
1088 347
1088 432
1088 874
1088 888
1088 1036
1088 1088
1088 1147
1088 1469
1088 2151
1088 2469
1088 3156
1088 3532
1088 4189
1088 4331
1088 5167
1089 88
1089 173
1089 261
1089 353
1089 432
1089 701
1089 2389
1089 4001
1089 4048
1089 5921
1089 5922
1090 57
1090 66
1090 68
1090 87
1090 133
1090 134
1090 141
1090 155
1090 166
1090 179
1090 215
1090 363
1090 411
1090 416
1090 487
1090 583
1090 704
1090 772
1090 854
1090 898
1090 1124
1090 1210
1090 1522
1090 1536
1090 1652
1090 1829
1090 1848
1090 2145
1090 2778
1090 2890
1090 2967
1090 3421
1090 3756
1090 4347
1090 4626
1090 4672
1090 5286
1090 5871
1090 5897
1090 5923
1090 5924
1091 88
1091 4018
1091 4481
1091 4577
1091 5925
1092 301
1092 378
1092 823
1092 1229
1092 1377
1092 1518
1092 1770
1092 1774
1092 3447
1092 4008
1092 4156
1092 4606
1092 5703
1093 88
1093 212
1093 564
1093 739
1093 1196
1093 1222
1093 1376
1093 3216
1093 3755
1093 4672
1094 917
1094 946
1094 1054
1094 1145
1094 1431
1094 1694
1094 2396
1094 3893
1094 5703
1095 88
1095 243
1095 330
1095 404
1095 678
1095 978
1095 3328
1095 3554
1095 5897
1096 49
1096 80
1096 121
1096 322
1096 371
1096 379
1096 384
1096 488
1096 610
1096 620
1096 626
1096 797
1096 1275
1096 1599
1096 1954
1096 2664
1096 2859
1096 4499
1096 4882
1096 5926
1097 103
1097 183
1097 200
1097 1006
1097 1410
1097 3526
1097 3527
1097 4080
1097 4081
1097 4882
1097 5201
1097 5927
1098 163
1098 288
1098 303
1098 313
1098 328
1098 490
1098 1462
1098 1655
1098 1667
1098 1722
1098 2553
1098 3759
1098 4243
1098 5928
1099 283
1099 1224
1099 1287
1099 3275
1099 4091
1099 5929
1100 1066
1100 1476
1100 1480
1100 4696
1100 5906
1100 5930
1101 1590
1101 3486
1101 5320
1101 5931
1102 88
1102 182
1102 210
1102 625
1102 920
1102 4159
1102 5932
1103 449
1103 798
1103 1179
1103 2397
1103 3514
1103 5933
1103 5934
1104 390
1104 1346
1104 1526
1104 1805
1104 4338
1104 5648
1105 184
1105 416
1105 434
1105 537
1105 1405
1105 1511
1105 3787
1105 3990
1105 5218
1105 5933
1105 5935
1106 88
1106 96
1106 134
1106 576
1106 1156
1106 1184
1106 2369
1106 3387
1106 3576
1106 4040
1106 4647
1106 5936
1107 67
1107 427
1107 924
1107 1362
1107 2466
1107 3655
1107 5937
1108 106
1108 969
1108 4040
1108 4447
1108 5938
1108 5939
1108 5940
1109 304
1109 1119
1109 2603
1109 4949
1109 5217
1109 5941
1110 1110
1110 1611
1110 2211
1110 3712
1110 4500
1111 46
1111 88
1111 209
1111 515
1111 543
1111 2656
1111 3724
1111 5208
1111 5643
1111 5942
1112 125
1112 170
1112 3154
1112 3666
1112 4587
1112 4603
1112 5537
1112 5943
1113 214
1113 253
1113 1552
1113 3808
1113 5944
1113 5945
1113 5946
1113 5947
1114 106
1114 819
1114 1052
1114 1179
1114 1783
1114 4513
1114 5557
1114 5948
1115 356
1115 862
1115 898
1115 1413
1115 1632
1115 1639
1115 2489
1115 3227
1115 3364
1115 3380
1115 3867
1115 4044
1115 4215
1115 4242
1115 5949
1116 25
1116 301
1116 419
1116 737
1116 793
1116 1606
1116 1747
1116 2126
1116 2456
1116 4167
1116 4672
1117 99
1117 111
1117 135
1117 1819
1117 1869
1117 2403
1117 2956
1117 3167
1117 3177
1117 4008
1117 4198
1117 4325
1117 4569
1117 5802
1117 5950
1117 6142
1118 1368
1118 1538
1118 5347
1118 5951
1119 32
1119 40
1119 151
1119 172
1119 189
1119 263
1119 602
1119 844
1119 924
1119 1109
1119 1455
1119 1599
1119 2017
1119 2024
1119 2394
1119 2589
1119 3339
1119 4182
1119 4886
1119 5714
1119 5952
1120 155
1120 158
1120 687
1120 864
1120 1224
1120 1255
1120 1275
1120 2778
1120 5714
1120 5781
1120 5953
1121 88
1121 109
1121 193
1121 305
1121 359
1121 669
1121 3999
1121 5954
1121 5955
1122 35
1122 47
1122 50
1122 51
1122 59
1122 67
1122 75
1122 77
1122 78
1122 85
1122 208
1122 302
1122 392
1122 401
1122 421
1122 531
1122 578
1122 706
1122 711
1122 712
1122 801
1122 1023
1122 1181
1122 1206
1122 1221
1122 1755
1122 1962
1122 2075
1122 2175
1122 2225
1122 2227
1122 2404
1122 2464
1122 2526
1122 3040
1122 5545
1122 5625
1123 451
1123 2214
1123 2361
1123 2523
1123 2898
1123 3291
1123 3298
1123 4747
1123 5111
1124 288
1124 308
1124 383
1124 1090
1124 1341
1124 1681
1124 3002
1124 5111
1124 5956
1125 21
1125 70
1125 366
1125 403
1125 451
1125 589
1125 1291
1125 1312
1125 1477
1125 1496
1125 1515
1125 1518
1125 4311
1125 4748
1125 4749
1125 5957
1126 88
1126 368
1126 665
1126 919
1126 1458
1126 2285
1126 4748
1126 5589
1126 5704
1126 5706
1127 24
1127 39
1127 55
1127 65
1127 66
1127 85
1127 154
1127 196
1127 316
1127 321
1127 1043
1127 1244
1127 1594
1127 1681
1127 1903
1127 2062
1127 2273
1127 2337
1127 2430
1127 3267
1127 3638
1127 4100
1128 48
1128 79
1128 278
1128 281
1128 300
1128 355
1128 857
1128 871
1128 932
1128 1388
1128 1590
1128 2016
1128 2233
1128 2391
1128 3087
1128 3228
1128 3316
1128 4109
1128 4391
1128 4392
1128 5659
1128 5958
1129 280
1129 314
1129 412
1129 629
1129 810
1129 1628
1129 1868
1129 1928
1129 2224
1129 2245
1129 2391
1129 2510
1129 2718
1129 3485
1129 3529
1129 3681
1129 4041
1129 4073
1129 4075
1129 5256
1129 5817
1130 1374
1130 1636
1130 4905
1130 5959
1130 5960
1131 53
1131 229
1131 373
1131 404
1131 922
1131 958
1131 1274
1131 1484
1131 1686
1131 2253
1131 5961
1132 6
1132 146
1132 168
1132 300
1132 529
1132 862
1132 922
1132 1010
1132 1223
1132 1508
1132 1622
1132 1632
1132 1834
1132 2687
1132 2956
1132 2990
1132 5938
1132 5962
1132 5963
1133 204
1133 1623
1133 1965
1133 2172
1133 2850
1133 3083
1133 4361
1133 5964
1134 42
1134 298
1134 376
1134 634
1134 691
1134 777
1134 1061
1134 1286
1134 1530
1134 1546
1134 1997
1134 2609
1134 3768
1134 4905
1134 5965
1134 5966
1135 37
1135 175
1135 201
1135 203
1135 205
1135 321
1135 700
1135 794
1135 1330
1135 1337
1135 1845
1135 1883
1135 1941
1135 2068
1135 2698
1135 5652
1135 5838
1135 5967
1136 378
1136 677
1136 1223
1136 2530
1136 4463
1136 5404
1136 5855
1136 5968
1137 254
1137 926
1137 2467
1137 5718
1137 5719
1138 151
1138 1064
1138 3313
1138 3520
1138 3766
1138 5969
1139 209
1139 2014
1139 2274
1139 2947
1139 5686
1139 5712
1139 5897
1139 5970
1140 16
1140 49
1140 68
1140 189
1140 686
1140 841
1140 1338
1140 1430
1140 1581
1140 2192
1140 2956
1140 3355
1140 5864
1140 5971
1141 76
1141 84
1141 168
1141 354
1141 398
1141 688
1141 2644
1141 2734
1141 2793
1141 3423
1141 4379
1141 4985
1141 5972
1141 5973
1142 228
1142 265
1142 372
1142 563
1142 583
1142 958
1142 1934
1142 2353
1142 2828
1142 3142
1142 3582
1142 4628
1142 5331
1143 43
1143 55
1143 57
1143 70
1143 74
1143 79
1143 81
1143 308
1143 502
1143 684
1143 700
1143 743
1143 1308
1143 1749
1143 1751
1143 2124
1143 3448
1143 4614
1143 5817
1144 16
1144 80
1144 82
1144 123
1144 133
1144 203
1144 217
1144 542
1144 791
1144 998
1144 1475
1144 1602
1144 1764
1144 2490
1144 2954
1144 3453
1144 4513
1144 5478
1144 5548
1145 14
1145 81
1145 495
1145 526
1145 851
1145 1054
1145 1094
1145 1667
1145 1898
1145 2503
1145 3014
1145 3486
1145 5974
1146 17
1146 25
1146 47
1146 59
1146 67
1146 123
1146 255
1146 702
1146 776
1146 900
1146 948
1146 1046
1146 1400
1146 1988
1146 2010
1146 2215
1146 2223
1146 3162
1146 4086
1146 4652
1146 5724
1146 5766
1147 62
1147 149
1147 160
1147 161
1147 192
1147 238
1147 343
1147 373
1147 404
1147 414
1147 420
1147 508
1147 717
1147 734
1147 741
1147 742
1147 832
1147 1072
1147 1088
1147 1500
1147 1545
1147 1572
1147 1639
1147 2022
1147 2326
1147 2388
1147 2395
1147 3276
1147 3277
1147 4457
1147 5975
1148 63
1148 859
1148 888
1148 944
1148 1476
1148 1537
1148 1710
1148 2283
1148 2402
1148 5141
1148 5539
1148 5906
1148 5976
1149 80
1149 203
1149 382
1149 449
1149 562
1149 1576
1149 1835
1149 4453
1149 5977
1150 398
1150 432
1150 565
1150 859
1150 891
1150 967
1150 1765
1150 2403
1150 3398
1150 4453
1150 4634
1150 5666
1150 5794
1150 5978
1150 5979
1150 5980
1151 26
1151 33
1151 52
1151 133
1151 187
1151 198
1151 259
1151 260
1151 324
1151 334
1151 338
1151 410
1151 540
1151 548
1151 586
1151 709
1151 1026
1151 1058
1151 1151
1151 1158
1151 1166
1151 1188
1151 1276
1151 1463
1151 1634
1151 1714
1151 1715
1151 1762
1151 1764
1151 1917
1151 2151
1151 2326
1151 2479
1151 2482
1151 2664
1151 2665
1151 3552
1151 3644
1151 3654
1151 3993
1151 4055
1151 4453
1151 5165
1151 5981
1152 727
1152 1301
1152 1654
1152 2917
1152 3078
1152 3309
1152 3512
1152 5982
1153 80
1153 149
1153 156
1153 172
1153 193
1153 213
1153 288
1153 402
1153 455
1153 667
1153 686
1153 724
1153 811
1153 819
1153 941
1153 984
1153 1013
1153 1276
1153 1345
1153 2438
1153 3387
1153 3434
1153 3435
1153 3714
1153 3758
1153 3768
1153 3889
1153 5035
1153 5416
1153 5459
1153 5939
1153 5983
1154 42
1154 126
1154 429
1154 759
1154 867
1154 2115
1154 2277
1154 4628
1154 4858
1154 5521
1154 5603
1154 5984
1155 312
1155 4628
1155 5432
1155 5985
1156 15
1156 87
1156 88
1156 123
1156 215
1156 389
1156 608
1156 1106
1156 1193
1156 1351
1156 1487
1156 1736
1156 1775
1156 1876
1156 2081
1156 2348
1156 2518
1156 2791
1156 2858
1156 2898
1156 4753
1156 5871
1157 3417
1157 6945
1158 76
1158 123
1158 124
1158 155
1158 263
1158 342
1158 436
1158 727
1158 839
1158 871
1158 956
1158 1151
1158 3112
1158 3740
1158 5280
1158 5981
1159 138
1159 335
1159 408
1159 410
1159 672
1159 873
1159 894
1159 1080
1159 1196
1159 1219
1159 1431
1159 1597
1159 1822
1159 1870
1159 2548
1159 3331
1159 3552
1159 5981
1160 272
1160 303
1160 415
1160 515
1160 571
1160 938
1160 1169
1160 1276
1160 1597
1160 1976
1160 2004
1160 2112
1160 2602
1160 2702
1160 3009
1160 3592
1160 5980
1160 5987
1161 169
1161 2289
1161 3399
1161 3403
1161 4340
1161 5803
1162 468
1162 485
1162 571
1162 617
1162 1169
1162 1583
1162 2236
1162 2395
1162 2873
1162 3319
1162 3767
1162 3929
1162 5988
1163 542
1163 687
1163 691
1163 1032
1163 1228
1163 1424
1163 2540
1163 2655
1163 3469
1163 3646
1163 4602
1163 5239
1163 5989
1164 170
1164 172
1164 182
1164 412
1164 435
1164 929
1164 1010
1164 1084
1164 1639
1164 2095
1164 5919
1164 5990
1165 193
1165 352
1165 380
1165 663
1165 685
1165 1954
1165 2167
1165 3145
1165 3320
1165 3609
1165 5098
1165 5366
1166 127
1166 215
1166 402
1166 906
1166 1151
1166 1475
1166 1547
1166 2245
1166 2990
1166 3242
1166 3348
1166 3871
1166 3930
1166 5337
1166 5991
1167 34
1167 36
1167 50
1167 69
1167 72
1167 77
1167 79
1167 171
1167 191
1167 294
1167 548
1167 676
1167 706
1167 1087
1167 1515
1167 1737
1167 1755
1167 1909
1167 2441
1167 3917
1168 140
1168 733
1168 930
1168 1223
1168 3556
1168 5572
1169 27
1169 280
1169 334
1169 358
1169 483
1169 1043
1169 1160
1169 1162
1169 1210
1169 1211
1169 1643
1169 1695
1169 2135
1169 2951
1169 3011
1169 3114
1169 4306
1169 5992
1169 5993
1169 5994
1170 485
1170 579
1170 1255
1170 3398
1170 3553
1170 3871
1170 4596
1170 5147
1170 5939
1170 5995
1170 5996
1170 5997
1170 6244
1171 161
1171 863
1171 911
1171 992
1171 1416
1171 1470
1171 1792
1171 1984
1171 2716
1171 3231
1171 3338
1171 4631
1171 5987
1171 5998
1171 5999
1172 35
1172 71
1172 87
1172 103
1172 157
1172 179
1172 203
1172 205
1172 254
1172 274
1172 478
1172 526
1172 619
1172 676
1172 769
1172 801
1172 824
1172 1263
1172 1415
1172 1875
1172 3373
1172 3485
1172 3666
1172 4852
1173 69
1173 88
1173 94
1173 255
1173 296
1173 314
1173 1017
1173 1436
1173 1660
1173 1661
1173 1704
1173 1735
1173 2462
1173 2561
1173 2639
1173 3977
1173 4213
1174 715
1174 1174
1174 2117
1174 5539
1174 6000
1175 140
1175 572
1175 881
1175 1063
1175 2808
1175 3832
1175 4814
1175 5903
1175 6001
1176 1506
1176 1644
1176 2149
1176 3570
1176 5629
1176 6002
1177 396
1177 887
1177 1049
1177 1258
1177 4503
1177 5003
1177 5816
1177 6003
1178 20
1178 51
1178 204
1178 300
1178 313
1178 350
1178 803
1178 830
1178 1845
1178 2091
1178 2302
1178 2424
1178 2893
1178 3587
1178 3655
1179 88
1179 343
1179 375
1179 449
1179 583
1179 590
1179 690
1179 716
1179 1103
1179 1114
1179 1399
1179 1688
1179 2027
1179 5098
1179 5606
1179 5712
1180 94
1180 144
1180 254
1180 367
1180 460
1180 559
1180 581
1180 1069
1180 1402
1180 1535
1180 1963
1180 2975
1180 2982
1180 3216
1180 3619
1180 6004
1180 6005
1181 83
1181 399
1181 401
1181 421
1181 510
1181 1122
1181 1381
1181 1735
1181 1791
1181 2330
1181 2443
1181 2627
1181 2639
1181 2781
1181 2822
1181 4213
1181 4964
1182 32
1182 151
1182 429
1182 493
1182 536
1182 621
1182 827
1182 844
1182 1030
1182 1071
1182 1072
1182 1624
1182 2003
1182 3227
1182 3355
1182 5108
1182 5215
1183 88
1183 355
1183 400
1183 593
1183 687
1183 1274
1183 1289
1183 1739
1183 1871
1183 2012
1183 3093
1183 3368
1183 3600
1183 3701
1183 4445
1183 5181
1183 5856
1184 31
1184 106
1184 134
1184 230
1184 241
1184 372
1184 536
1184 661
1184 879
1184 1106
1184 1218
1184 1559
1184 1711
1184 1713
1184 3181
1184 3690
1184 3908
1184 4445
1185 59
1185 531
1185 2041
1185 2582
1185 2750
1185 2857
1185 2893
1185 3441
1185 3590
1185 5821
1186 633
1186 1235
1186 1589
1186 2543
1186 2734
1186 2761
1186 3167
1186 4168
1186 5142
1186 5204
1186 5205
1187 22
1187 38
1187 77
1187 235
1187 336
1187 761
1187 1361
1187 1369
1187 1685
1187 1867
1187 2074
1187 2570
1187 2584
1187 2920
1187 3162
1187 3458
1187 5550
1187 6006
1187 6007
1188 145
1188 207
1188 400
1188 915
1188 1052
1188 1151
1188 3102
1188 3426
1188 3458
1188 3543
1188 3720
1188 3738
1188 6008
1189 88
1189 111
1189 1036
1189 1295
1189 2382
1189 5573
1189 6009
1190 211
1190 632
1190 1411
1190 2678
1190 3433
1190 3749
1190 6010
1191 49
1191 58
1191 179
1191 197
1191 218
1191 336
1191 380
1191 416
1191 447
1191 501
1191 597
1191 684
1191 723
1191 797
1191 1199
1191 1508
1191 1549
1191 1896
1191 2328
1191 2870
1191 3525
1191 4132
1191 4469
1191 5999
1192 35
1192 38
1192 59
1192 194
1192 201
1192 294
1192 451
1192 465
1192 646
1192 1556
1192 2060
1192 2486
1192 2526
1192 4171
1192 4819
1192 5296
1192 6011
1193 1044
1193 1156
1193 1277
1193 3515
1193 4218
1193 6012
1193 6013
1194 865
1194 4064
1194 6014
1195 147
1195 169
1195 343
1195 371
1195 920
1195 1196
1195 1200
1195 2823
1195 3027
1195 3402
1195 3661
1195 5274
1195 5280
1195 6015
1196 169
1196 181
1196 182
1196 230
1196 420
1196 672
1196 872
1196 961
1196 1093
1196 1159
1196 1195
1196 1488
1196 1637
1196 2659
1196 2823
1196 3060
1196 3374
1196 3402
1196 5320
1196 5955
1196 6016
1197 211
1197 398
1197 4391
1197 5710
1197 6017
1198 281
1198 409
1198 1053
1198 1219
1198 2710
1198 4078
1198 4082
1198 5858
1198 6018
1199 243
1199 796
1199 1191
1199 1203
1199 1595
1199 1667
1199 2970
1199 5036
1199 5858
1199 6019
1200 207
1200 444
1200 544
1200 1195
1200 4022
1200 5916
1200 6020
1201 35
1201 60
1201 77
1201 176
1201 342
1201 405
1201 514
1201 664
1201 774
1201 779
1201 1247
1201 1308
1201 1421
1201 1514
1201 1734
1201 2306
1201 2820
1201 4622
1202 39
1202 48
1202 51
1202 71
1202 78
1202 82
1202 84
1202 88
1202 108
1202 254
1202 289
1202 333
1202 334
1202 411
1202 585
1202 608
1202 695
1202 743
1202 807
1202 835
1202 925
1202 1229
1202 1393
1202 1625
1202 1910
1202 2553
1202 3638
1203 55
1203 83
1203 173
1203 193
1203 317
1203 538
1203 601
1203 660
1203 884
1203 1199
1203 2083
1203 2832
1203 3890
1203 5155
1203 5338
1203 6021
1204 72
1204 2534
1204 2535
1204 3520
1204 3971
1205 11
1205 275
1205 443
1205 509
1205 606
1205 769
1205 1830
1205 1832
1205 2438
1205 2724
1205 2860
1205 3121
1205 4732
1205 6022
1205 6023
1206 21
1206 24
1206 36
1206 50
1206 478
1206 676
1206 995
1206 1122
1206 1256
1206 1752
1206 1880
1206 2130
1206 2331
1206 2519
1206 4563
1207 41
1207 67
1207 86
1207 88
1207 175
1207 191
1207 316
1207 640
1207 769
1207 1396
1207 1685
1207 3092
1207 3390
1207 5943
1208 307
1208 929
1208 1865
1208 4005
1208 5854
1208 6003
1208 6024
1208 6025
1209 69
1209 102
1209 110
1209 190
1209 290
1209 478
1209 525
1209 552
1209 653
1209 675
1209 693
1209 721
1209 802
1209 930
1209 942
1209 1237
1209 1535
1209 1625
1209 1678
1209 1910
1209 2189
1209 2409
1209 4139
1209 5382
1209 6026
1210 280
1210 358
1210 926
1210 1090
1210 1169
1210 1446
1210 3395
1210 5719
1211 727
1211 1169
1211 1303
1211 1484
1211 1675
1211 2734
1211 5911
1211 6027
1212 61
1212 262
1212 351
1212 371
1212 611
1212 839
1212 1523
1212 2026
1212 2078
1212 2365
1212 3350
1212 3362
1212 3786
1212 4523
1212 5911
1212 6028
1213 37
1213 47
1213 51
1213 59
1213 85
1213 88
1213 154
1213 202
1213 295
1213 306
1213 664
1213 767
1213 982
1213 1461
1213 1515
1213 1692
1213 1932
1213 1940
1213 2082
1213 2575
1213 2742
1213 4485
1214 77
1214 81
1214 86
1214 905
1214 921
1214 1052
1214 1360
1214 1613
1214 1720
1214 3413
1214 4940
1214 6029
1214 6030
1215 70
1215 83
1215 133
1215 257
1215 1228
1215 1427
1215 1441
1215 1645
1215 1829
1215 1841
1215 1967
1215 3759
1215 6031
1216 4
1216 1252
1216 1268
1216 2821
1216 2892
1216 2918
1216 3936
1216 5849
1216 6032
1216 6033
1216 6034
1217 4
1217 1217
1217 1250
1217 1271
1217 1328
1217 2821
1217 2949
1217 2966
1217 3936
1217 5192
1217 5480
1217 6035
1217 6036
1218 147
1218 677
1218 708
1218 717
1218 1184
1218 1649
1218 2022
1218 4545
1218 4627
1218 5951
1218 6037
1218 6038
1218 6039
1219 76
1219 325
1219 367
1219 630
1219 690
1219 1062
1219 1070
1219 1159
1219 1198
1219 1808
1219 2106
1219 4255
1219 4752
1219 5951
1219 6040
1219 6041
1219 6042
1220 18
1220 67
1220 123
1220 177
1220 338
1220 363
1220 378
1220 398
1220 419
1220 591
1220 625
1220 683
1220 849
1220 893
1220 938
1220 1418
1220 1983
1220 2051
1220 2191
1220 2352
1220 2353
1220 2356
1220 2718
1220 3269
1220 3388
1220 3521
1220 4548
1220 5552
1221 23
1221 30
1221 32
1221 63
1221 215
1221 631
1221 653
1221 659
1221 816
1221 1004
1221 1007
1221 1057
1221 1122
1221 2422
1221 2708
1221 3171
1221 3269
1221 4390
1221 4965
1221 5409
1221 6043
1222 42
1222 201
1222 212
1222 281
1222 290
1222 441
1222 507
1222 779
1222 814
1222 1093
1222 1313
1222 1535
1222 2114
1222 2975
1222 3486
1222 4088
1222 6004
1222 6044
1223 115
1223 215
1223 378
1223 742
1223 996
1223 1132
1223 1136
1223 1168
1223 2467
1223 4008
1223 4387
1223 4463
1223 6045
1224 120
1224 122
1224 211
1224 383
1224 588
1224 615
1224 689
1224 871
1224 1099
1224 1120
1224 1315
1224 1534
1224 1894
1224 2479
1224 3129
1224 3165
1224 3401
1224 3751
1224 3768
1224 3891
1224 4340
1224 5953
1224 6046
1225 80
1225 109
1225 127
1225 173
1225 233
1225 416
1225 663
1225 893
1225 1010
1225 1225
1225 1226
1225 1255
1225 1491
1225 3343
1225 3751
1225 3887
1225 3990
1225 5067
1225 5154
1225 5346
1225 6047
1226 211
1226 691
1226 726
1226 1225
1226 1813
1226 3319
1226 3749
1226 3927
1226 4715
1226 6048
1227 37
1227 41
1227 51
1227 196
1227 926
1227 942
1227 1017
1227 1358
1227 1514
1227 2070
1227 2081
1227 2219
1227 2494
1227 4221
1227 4523
1227 5254
1227 5329
1227 6049
1228 16
1228 155
1228 819
1228 988
1228 1026
1228 1163
1228 1215
1228 1270
1228 1470
1228 1763
1228 1896
1228 2678
1228 2875
1228 3305
1228 3312
1228 3522
1228 3623
1228 4229
1228 5119
1228 6050
1228 6051
1229 88
1229 295
1229 743
1229 760
1229 1092
1229 1202
1229 1645
1229 1718
1229 1892
1229 2469
1229 5582
1229 6052
1230 2725
1230 2922
1230 3152
1230 4809
1230 6053
1231 35
1231 42
1231 166
1231 203
1231 264
1231 752
1231 788
1231 906
1231 2228
1231 2694
1231 2882
1231 3376
1231 3852
1232 1631
1232 3253
1232 6054
1232 6055
1232 6056
1232 6057
1233 15
1233 40
1233 60
1233 68
1233 72
1233 76
1233 84
1233 298
1233 321
1233 430
1233 551
1233 743
1233 745
1233 815
1233 941
1233 1302
1233 1629
1233 1876
1233 2820
1233 3134
1233 4771
1233 5616
1234 70
1234 325
1234 798
1234 846
1234 1026
1234 1322
1234 1352
1234 1484
1234 1539
1234 1710
1234 1925
1234 2250
1234 4773
1234 5476
1235 389
1235 419
1235 633
1235 706
1235 1186
1235 4377
1235 5879
1236 79
1236 87
1236 150
1236 354
1236 2094
1236 2358
1236 3039
1237 511
1237 608
1237 706
1237 721
1237 921
1237 1209
1237 2189
1237 2409
1237 4139
1238 74
1238 88
1238 350
1238 585
1238 1044
1238 2033
1238 2306
1238 2574
1238 2880
1239 6
1239 11
1239 15
1239 61
1239 201
1239 551
1239 608
1239 646
1239 648
1239 900
1239 981
1239 1299
1239 1579
1239 1760
1239 2033
1239 2432
1239 2498
1239 2776
1239 3589
1239 3616
1239 5913
1239 6058
1240 80
1240 106
1240 233
1240 238
1240 488
1240 533
1240 686
1240 892
1240 1270
1240 1383
1240 4229
1240 6059
1241 83
1241 185
1241 201
1241 255
1241 313
1241 776
1241 1578
1241 1791
1241 2052
1241 2334
1241 3976
1241 6060
1242 1295
1242 1296
1242 1820
1242 4621
1242 5074
1242 5661
1243 167
1243 194
1243 998
1243 2407
1243 2594
1243 4368
1244 79
1244 204
1244 419
1244 525
1244 1081
1244 1127
1244 1758
1244 1923
1244 2052
1244 6062
1245 73
1245 81
1245 215
1245 260
1245 268
1245 405
1245 752
1245 1253
1245 1282
1245 1720
1245 3092
1246 262
1246 300
1246 1496
1246 1799
1246 1827
1246 2360
1246 2624
1246 2698
1246 2753
1246 3688
1246 4156
1247 641
1247 863
1247 1201
1247 2087
1247 5222
1248 1252
1248 2918
1248 6033
1248 6035
1248 6063
1249 4
1249 1252
1249 6036
1249 6063
1249 6064
1250 1217
1250 1252
1250 1328
1250 3822
1250 6063
1250 6065
1250 6066
1250 6067
1251 195
1251 235
1251 288
1251 302
1251 360
1251 687
1251 920
1251 1082
1251 1261
1251 1564
1251 1686
1251 1729
1251 1842
1251 3382
1251 4392
1251 5287
1252 88
1252 628
1252 751
1252 1216
1252 1248
1252 1249
1252 1250
1252 2918
1252 3936
1252 5188
1252 5189
1252 5482
1252 6034
1252 6035
1252 6036
1252 6063
1253 647
1253 823
1253 1021
1253 1245
1253 1592
1253 1835
1253 2982
1253 4989
1254 74
1254 334
1254 597
1254 694
1254 763
1254 1728
1254 1842
1254 1983
1254 2083
1254 2119
1254 2364
1254 2801
1254 3127
1254 3421
1254 5252
1255 127
1255 215
1255 264
1255 280
1255 761
1255 1120
1255 1170
1255 1225
1255 1355
1255 1422
1255 1512
1255 1594
1255 1841
1255 2468
1255 3871
1255 4242
1255 4464
1256 36
1256 78
1256 88
1256 153
1256 263
1256 268
1256 294
1256 331
1256 398
1256 652
1256 1206
1256 1752
1256 2649
1256 2985
1256 3578
1256 4551
1256 5721
1257 5
1257 364
1257 390
1257 777
1257 809
1257 1286
1257 1346
1257 1804
1257 1916
1258 83
1258 155
1258 305
1258 385
1258 736
1258 1031
1258 1177
1258 1677
1258 2706
1258 2726
1258 3240
1258 4074
1258 4878
1258 5735
1258 6068
1259 965
1259 1545
1259 1780
1259 2252
1259 4878
1259 6069
1260 1564
1260 3243
1260 3700
1260 4447
1260 6070
1260 6071
1261 68
1261 195
1261 426
1261 429
1261 1251
1261 1632
1261 3789
1261 4863
1262 5074
1262 6967
1263 203
1263 248
1263 281
1263 544
1263 604
1263 1172
1263 1325
1263 2276
1263 3372
1264 1547
1264 3714
1264 3758
1264 3854
1265 1440
1265 1747
1265 1776
1265 2173
1265 2290
1265 6073
1266 15
1266 60
1266 84
1266 110
1266 175
1266 318
1266 421
1266 926
1266 1310
1266 1644
1266 1774
1266 1901
1266 5353
1266 6074
1267 722
1267 946
1267 1550
1267 1926
1267 2502
1267 4269
1267 5761
1268 88
1268 1216
1268 1269
1268 5188
1268 6032
1268 6067
1268 6075
1268 6110
1269 628
1269 1268
1269 1329
1269 2949
1269 6032
1269 6075
1269 6110
1270 885
1270 1228
1270 1240
1270 1383
1270 4229
1270 5021
1270 6076
1271 1217
1271 5188
1271 6032
1271 6077
1272 484
1272 2004
1272 3574
1272 4048
1272 6078
1273 358
1273 811
1273 1521
1273 1748
1273 1865
1273 3140
1273 3240
1273 5572
1274 62
1274 248
1274 373
1274 521
1274 693
1274 866
1274 1007
1274 1131
1274 1183
1274 1464
1274 1573
1274 1587
1274 1870
1274 2666
1274 3073
1274 3250
1274 3643
1274 5541
1274 6042
1275 56
1275 149
1275 162
1275 586
1275 625
1275 724
1275 899
1275 1096
1275 1120
1275 2204
1275 2235
1275 2290
1275 2928
1275 3358
1275 3700
1275 3719
1275 4309
1275 5145
1275 6079
1276 33
1276 52
1276 68
1276 80
1276 160
1276 186
1276 187
1276 324
1276 374
1276 383
1276 521
1276 540
1276 554
1276 630
1276 822
1276 872
1276 893
1276 1151
1276 1153
1276 1160
1276 1484
1276 1522
1276 1980
1276 2386
1276 3358
1276 4390
1276 6080
1276 6081
1277 72
1277 79
1277 87
1277 366
1277 849
1277 1193
1277 1291
1277 1938
1277 2126
1277 2210
1277 3515
1277 4380
1277 4619
1278 204
1278 682
1278 791
1278 930
1278 1331
1278 2581
1278 2602
1278 3443
1278 4028
1278 4380
1278 5725
1279 156
1279 338
1279 384
1279 388
1279 556
1279 668
1279 681
1279 964
1279 1079
1279 1522
1279 1590
1279 3243
1279 4005
1280 72
1280 75
1280 81
1280 82
1280 85
1280 650
1280 942
1280 981
1280 993
1280 1527
1280 2331
1280 2574
1280 6082
1281 359
1281 651
1281 1852
1281 1886
1281 2903
1281 5728
1282 81
1282 83
1282 86
1282 165
1282 526
1282 649
1282 683
1282 1031
1282 1245
1282 1936
1282 2633
1282 5354
1283 310
1283 680
1283 1298
1283 1659
1283 2026
1283 3489
1283 5342
1284 5
1284 344
1284 809
1284 1284
1284 1286
1284 4336
1284 4524
1284 4951
1285 5
1285 344
1285 364
1285 523
1285 524
1285 1384
1285 1526
1285 1723
1285 3572
1285 6083
1285 6084
1286 5
1286 1134
1286 1257
1286 1284
1286 3159
1286 4338
1286 5465
1286 6085
1287 88
1287 131
1287 329
1287 367
1287 688
1287 759
1287 817
1287 912
1287 1099
1287 1394
1287 3312
1287 4882
1287 5239
1287 6086
1288 488
1288 880
1288 906
1288 5239
1288 6087
1289 49
1289 463
1289 1183
1289 1342
1289 2806
1289 4202
1289 5239
1289 5909
1290 148
1290 192
1290 195
1290 203
1290 439
1290 455
1290 488
1290 562
1290 583
1290 661
1290 888
1290 924
1290 1075
1290 1469
1290 1651
1290 2278
1290 3237
1290 4331
1290 4661
1291 72
1291 185
1291 366
1291 1125
1291 1277
1291 1450
1291 2126
1291 2278
1291 2285
1291 3672
1291 4282
1292 193
1292 370
1292 630
1292 3126
1292 4431
1292 6088
1293 88
1293 373
1293 387
1293 404
1293 428
1293 516
1293 583
1293 677
1293 887
1293 1574
1293 1865
1293 2474
1293 2897
1293 3201
1293 4041
1293 5651
1293 5961
1293 6089
1294 4307
1294 4635
1294 6948
1295 230
1295 496
1295 1189
1295 1242
1295 1785
1295 2726
1295 3317
1295 3350
1295 3463
1295 3652
1295 4570
1295 6091
1295 6092
1296 915
1296 1242
1296 1721
1296 1796
1296 2205
1296 4341
1296 6093
1297 61
1297 88
1297 608
1297 1923
1297 2787
1297 2860
1297 3407
1298 203
1298 542
1298 548
1298 640
1298 662
1298 883
1298 1283
1298 3262
1298 6094
1299 150
1299 904
1299 1239
1299 1475
1299 1612
1299 1883
1299 2776
1299 3262
1299 3268
1299 4755
1299 5499
1300 39
1300 51
1300 64
1300 389
1300 413
1300 502
1300 735
1300 995
1300 1584
1300 1892
1300 2081
1300 2543
1300 2635
1300 3262
1300 5109
1300 5817
1301 192
1301 215
1301 446
1301 492
1301 536
1301 759
1301 924
1301 1152
1301 1864
1301 3909
1301 4120
1301 4627
1302 72
1302 86
1302 767
1302 836
1302 1031
1302 1233
1302 1349
1302 1424
1302 1666
1302 1682
1302 1764
1302 1967
1302 2309
1302 3012
1302 4269
1303 27
1303 556
1303 634
1303 986
1303 1211
1303 1642
1303 1745
1303 2919
1303 3899
1303 4264
1304 43
1304 56
1304 88
1304 185
1304 520
1304 1448
1304 2122
1304 2288
1304 2767
1304 4269
1305 88
1305 159
1305 512
1305 650
1305 861
1305 961
1305 1325
1305 1390
1305 1515
1305 2024
1305 6095
1306 58
1306 133
1306 179
1306 203
1306 881
1306 3773
1306 5903
1306 6096
1307 159
1307 164
1307 276
1307 280
1307 621
1307 670
1307 1338
1307 1383
1307 1429
1307 1633
1307 1792
1307 2018
1307 3329
1307 4464
1307 5548
1308 42
1308 78
1308 82
1308 203
1308 413
1308 700
1308 883
1308 998
1308 1143
1308 1201
1308 1557
1308 2594
1308 3292
1308 3297
1308 5883
1309 303
1309 371
1309 655
1309 715
1309 784
1309 965
1309 2549
1309 2727
1309 3251
1309 6097
1310 86
1310 88
1310 330
1310 1266
1310 1423
1310 1615
1310 1873
1310 1934
1310 3297
1310 5353
1311 36
1311 47
1311 54
1311 57
1311 69
1311 79
1311 87
1311 88
1311 2042
1311 2334
1311 2809
1311 3162
1312 67
1312 83
1312 88
1312 334
1312 548
1312 1125
1312 1377
1312 1477
1312 1672
1312 2371
1312 3297
1312 4368
1313 82
1313 85
1313 88
1313 982
1313 1222
1313 2415
1313 2942
1313 3064
1313 3684
1313 5462
1314 9
1314 54
1314 102
1314 202
1314 204
1314 604
1314 739
1314 1362
1314 1496
1314 1777
1314 1910
1314 2738
1314 2933
1314 3694
1314 4622
1314 4626
1315 23
1315 122
1315 492
1315 785
1315 840
1315 1224
1315 1409
1315 2031
1315 3272
1315 3789
1315 5463
1315 6098
1316 82
1316 135
1316 179
1316 182
1316 193
1316 203
1316 217
1316 238
1316 686
1316 821
1316 1437
1316 1508
1316 1710
1316 1764
1316 1782
1316 2528
1316 3453
1316 3789
1316 4053
1316 6099
1317 2943
1317 2985
1317 2987
1318 2267
1318 6100
1318 6101
1319 83
1319 84
1319 413
1319 489
1319 2220
1319 2721
1319 6102
1320 46
1320 88
1320 253
1320 2260
1320 2847
1320 3119
1320 5016
1321 28
1321 33
1321 84
1321 155
1321 379
1321 468
1321 632
1321 679
1321 726
1321 756
1321 894
1321 1586
1321 3643
1321 6103
1322 261
1322 291
1322 372
1322 1234
1322 1342
1322 3456
1322 3658
1322 5067
1322 5584
1322 6092
1322 6104
1322 6105
1323 27
1323 62
1323 81
1323 175
1323 188
1323 629
1323 715
1323 786
1323 1486
1323 1751
1323 1968
1323 2011
1323 2353
1323 2360
1323 3651
1323 4514
1323 5067
1324 122
1324 155
1324 474
1324 687
1324 1927
1324 1956
1324 2438
1324 2793
1324 3256
1324 3292
1324 3367
1324 4188
1324 4500
1324 5067
1324 6106
1325 20
1325 80
1325 181
1325 556
1325 1003
1325 1263
1325 1305
1325 1541
1325 1939
1325 2055
1325 2801
1325 3169
1325 4617
1325 6070
1325 6107
1326 1019
1326 1064
1326 1509
1326 3104
1326 3904
1326 4198
1326 6108
1327 785
1327 4960
1327 5743
1327 6109
1328 4
1328 88
1328 1217
1328 1250
1328 1329
1328 6035
1329 1269
1329 1328
1329 2892
1329 3633
1329 6035
1329 6110
1329 6111
1330 116
1330 431
1330 719
1330 956
1330 987
1330 1135
1330 1890
1330 3501
1330 4626
1330 5006
1331 168
1331 848
1331 1278
1331 3031
1331 3289
1331 4626
1331 6107
1332 37
1332 47
1332 88
1332 513
1332 1040
1332 1527
1332 1777
1332 2447
1332 5090
1333 87
1333 88
1333 603
1333 700
1333 1459
1333 2366
1333 2518
1333 3264
1333 5850
1333 6112
1334 42
1334 61
1334 87
1334 88
1334 298
1334 328
1334 648
1334 835
1334 1933
1334 2359
1334 2367
1334 2435
1334 3264
1334 4156
1334 5554
1335 716
1335 773
1335 1783
1335 2401
1335 4627
1335 4872
1336 65
1336 194
1336 354
1336 1022
1336 2343
1336 2578
1336 3408
1336 6070
1336 6113
1337 38
1337 43
1337 171
1337 204
1337 208
1337 313
1337 555
1337 982
1337 1039
1337 1068
1337 1135
1337 1606
1337 1726
1337 1800
1337 1868
1337 2594
1337 2850
1338 146
1338 189
1338 272
1338 530
1338 674
1338 829
1338 1084
1338 1140
1338 1307
1338 1521
1338 1916
1338 3642
1338 3717
1338 3903
1338 4086
1338 4464
1338 6114
1339 698
1339 2659
1339 2974
1339 3042
1339 3948
1339 5856
1339 6115
1339 6116
1340 199
1340 707
1340 827
1340 1036
1340 1575
1340 1581
1340 3104
1340 3627
1340 3644
1340 5349
1340 5360
1341 32
1341 281
1341 521
1341 938
1341 973
1341 1124
1341 1394
1341 1659
1341 2549
1341 2843
1341 4505
1341 6117
1341 6118
1342 783
1342 1289
1342 1322
1342 3181
1342 5938
1342 6119
1343 88
1343 1770
1343 2008
1343 2963
1343 3368
1343 3627
1343 3740
1343 5283
1343 6120
1343 6121
1344 302
1344 374
1344 669
1344 808
1344 1430
1344 1490
1344 2008
1344 3245
1344 4986
1345 42
1345 169
1345 197
1345 212
1345 244
1345 364
1345 656
1345 1153
1345 1545
1345 1797
1345 2109
1345 2110
1345 3180
1345 3403
1345 5035
1345 5859
1346 390
1346 503
1346 1104
1346 1257
1346 3401
1346 3572
1346 4524
1347 81
1347 201
1347 232
1347 256
1347 620
1347 650
1347 871
1347 977
1347 1634
1347 2847
1347 3978
1347 3984
1347 6122
1347 6123
1348 471
1348 1382
1348 1600
1348 1852
1348 2847
1348 2914
1348 5635
1348 5944
1349 69
1349 84
1349 88
1349 136
1349 287
1349 405
1349 735
1349 1302
1349 1427
1349 1589
1349 1608
1349 2168
1349 3897
1349 4387
1349 5506
1350 24
1350 57
1350 73
1350 79
1350 185
1350 315
1350 392
1350 1979
1350 2079
1350 2789
1350 3070
1351 15
1351 51
1351 92
1351 553
1351 629
1351 648
1351 695
1351 801
1351 1156
1351 1351
1351 1393
1351 1673
1351 2179
1351 2354
1351 2355
1351 2362
1351 2367
1351 2370
1351 2371
1351 2722
1351 4378
1352 325
1352 364
1352 573
1352 976
1352 1234
1352 4556
1352 4812
1352 5837
1353 378
1353 990
1353 4812
1353 5133
1353 6124
1354 134
1354 288
1354 387
1354 408
1354 796
1354 880
1354 2032
1354 6125
1355 53
1355 166
1355 170
1355 436
1355 671
1355 1255
1355 1763
1355 1771
1355 1835
1355 1858
1355 2838
1355 3207
1355 3629
1355 4185
1355 5485
1355 6126
1356 19
1356 61
1356 86
1356 108
1356 194
1356 354
1356 389
1356 981
1356 1990
1356 2351
1356 2648
1356 2679
1356 3194
1356 3998
1356 4548
1356 5261
1357 81
1357 88
1357 114
1357 318
1357 411
1357 721
1357 2348
1357 2352
1357 2974
1357 3207
1357 3242
1358 24
1358 39
1358 40
1358 994
1358 1227
1358 1967
1358 2782
1358 3207
1358 5894
1359 88
1359 437
1359 531
1359 1044
1359 1367
1359 2056
1359 2485
1359 2538
1359 3416
1359 3580
1359 4718
1359 6127
1360 107
1360 437
1360 952
1360 1214
1360 1798
1360 2044
1360 3581
1360 4718
1360 5069
1361 73
1361 78
1361 88
1361 122
1361 133
1361 542
1361 556
1361 616
1361 711
1361 745
1361 885
1361 1187
1361 1427
1361 1441
1361 1452
1361 1685
1361 1785
1361 1984
1361 2118
1361 2231
1361 3090
1361 3205
1361 3270
1361 3426
1361 3517
1362 30
1362 55
1362 68
1362 82
1362 184
1362 328
1362 416
1362 631
1362 653
1362 938
1362 1107
1362 1314
1362 1710
1362 2481
1362 3426
1362 3634
1363 14
1363 23
1363 46
1363 223
1363 355
1363 414
1363 529
1363 783
1363 1394
1363 1410
1363 1770
1363 1993
1363 2166
1363 3456
1363 3661
1363 4941
1364 196
1364 366
1364 478
1364 616
1364 657
1364 1709
1364 2088
1364 2230
1364 3194
1364 3476
1364 3663
1364 5583
1364 6128
1365 28
1365 55
1365 69
1365 71
1365 81
1365 86
1365 87
1365 299
1365 332
1365 711
1365 719
1365 724
1365 1627
1365 2316
1365 2732
1365 4904
1365 5356
1365 6129
1365 6130
1365 6131
1365 6132
1365 6451
1366 195
1366 973
1366 1730
1366 2760
1366 3231
1366 3532
1366 4962
1366 5356
1366 5767
1366 6133
1366 6134
1367 652
1367 675
1367 776
1367 1359
1367 1794
1367 2215
1367 5226
1367 5228
1367 5243
1368 343
1368 1118
1368 1770
1368 2632
1368 3144
1368 3167
1368 3721
1368 5714
1369 79
1369 87
1369 88
1369 706
1369 884
1369 981
1369 1187
1369 2215
1369 2295
1369 4312
1369 5128
1370 58
1370 239
1370 372
1370 632
1370 1411
1370 3161
1370 3387
1370 4256
1370 4293
1370 6135
1371 58
1371 88
1371 166
1371 184
1371 786
1371 826
1371 1980
1371 2232
1371 2401
1371 3368
1371 3468
1371 3867
1371 4756
1371 4941
1371 6136
1372 17
1372 75
1372 86
1372 88
1372 665
1372 732
1372 778
1372 2217
1372 5297
1373 61
1373 154
1373 188
1373 194
1373 548
1373 877
1373 883
1373 1023
1373 1068
1373 1441
1373 2059
1373 2429
1373 2685
1373 2734
1373 4368
1373 5718
1373 6137
1374 63
1374 344
1374 367
1374 390
1374 1130
1374 1573
1374 1585
1374 1911
1374 4340
1374 5726
1374 6138
1375 3195
1375 6139
1375 6140
1376 88
1376 348
1376 1001
1376 1093
1376 1797
1376 3195
1376 4706
1376 6141
1376 6142
1377 41
1377 56
1377 78
1377 149
1377 227
1377 300
1377 307
1377 415
1377 436
1377 537
1377 653
1377 740
1377 823
1377 948
1377 1092
1377 1312
1377 2113
1377 2132
1377 2159
1377 2586
1377 2652
1377 3651
1378 307
1378 357
1378 902
1378 1412
1378 2903
1378 4192
1378 6143
1379 88
1379 109
1379 279
1379 323
1379 756
1379 932
1379 1388
1379 1412
1379 1586
1379 2563
1379 3876
1379 4297
1379 4469
1379 5728
1379 6144
1380 76
1380 153
1380 167
1380 227
1380 413
1380 702
1380 793
1380 824
1380 907
1380 927
1380 1062
1380 1461
1380 2219
1380 2592
1380 2807
1380 3443
1380 3593
1380 4297
1381 314
1381 650
1381 1181
1381 1527
1381 1791
1381 1801
1381 2424
1381 2513
1381 2568
1381 2926
1381 5081
1381 5425
1382 332
1382 338
1382 415
1382 504
1382 907
1382 1348
1382 2165
1382 3087
1382 3479
1382 3998
1382 4591
1382 5634
1383 149
1383 159
1383 233
1383 310
1383 536
1383 885
1383 1240
1383 1270
1383 1307
1383 1783
1383 2166
1383 2862
1383 5987
1384 373
1384 390
1384 731
1384 857
1384 1285
1384 1601
1384 1746
1384 2011
1384 3572
1384 4339
1384 5074
1384 6145
1385 32
1385 49
1385 1402
1385 1803
1385 2055
1385 2841
1385 6082
1385 6146
1386 901
1386 1029
1386 1661
1386 2037
1386 2063
1386 2447
1386 2546
1386 2816
1386 2857
1386 4261
1387 489
1387 909
1387 2316
1387 4603
1387 6147
1388 199
1388 373
1388 1009
1388 1128
1388 1379
1388 1586
1388 1796
1388 3606
1388 3911
1388 5173
1388 6081
1389 74
1389 213
1389 283
1389 324
1389 335
1389 818
1389 872
1389 915
1389 1539
1389 1716
1389 2234
1389 3227
1389 3911
1389 4051
1389 4098
1389 5282
1390 1071
1390 1305
1390 3911
1390 5910
1390 6148
1391 2919
1391 3235
1391 4508
1391 5667
1391 5941
1392 29
1392 66
1392 78
1392 153
1392 202
1392 302
1392 381
1392 399
1392 421
1392 459
1392 510
1392 582
1392 712
1392 901
1392 968
1392 1067
1392 1732
1392 2334
1392 2444
1392 2574
1393 61
1393 87
1393 123
1393 616
1393 1202
1393 1351
1393 1423
1393 1513
1393 1903
1393 2358
1393 2436
1393 5542
1394 63
1394 160
1394 166
1394 324
1394 329
1394 521
1394 785
1394 885
1394 891
1394 1052
1394 1287
1394 1341
1394 1363
1394 1500
1394 1770
1394 1876
1394 4209
1394 4265
1394 4371
1394 4439
1394 4941
1394 5340
1394 5781
1395 36
1395 44
1395 48
1395 74
1395 82
1395 85
1395 108
1395 116
1395 125
1395 128
1395 165
1395 589
1395 900
1395 981
1395 994
1395 1704
1395 1937
1395 2125
1395 2158
1395 2180
1395 2893
1395 2936
1395 3067
1395 4233
1395 6149
1396 86
1396 92
1396 168
1396 1207
1396 4232
1396 5505
1396 5810
1397 88
1397 330
1397 506
1397 4314
1397 4908
1397 5954
1398 632
1398 1891
1398 4314
1398 4598
1398 4778
1398 4898
1399 192
1399 208
1399 373
1399 416
1399 496
1399 580
1399 1179
1399 2009
1399 4314
1399 4337
1399 5465
1400 25
1400 54
1400 69
1400 75
1400 78
1400 82
1400 88
1400 185
1400 202
1400 306
1400 399
1400 421
1400 775
1400 781
1400 1146
1400 1652
1400 1880
1400 1908
1400 1909
1400 1970
1400 2043
1400 2334
1400 2857
1400 4562
1400 6150
1401 564
1401 2473
1401 2906
1401 6151
1402 212
1402 1180
1402 1385
1402 2841
1402 3614
1402 4088
1402 6061
1402 6082
1403 1431
1403 3018
1403 3087
1403 6152
1403 6153
1404 34
1404 81
1404 189
1404 293
1404 403
1404 483
1404 1011
1404 1873
1404 1968
1404 2524
1404 2633
1404 2654
1404 3594
1405 634
1405 670
1405 1105
1405 1822
1405 2024
1405 3381
1405 4211
1405 5428
1405 5525
1406 34
1406 61
1406 67
1406 88
1406 981
1406 1087
1406 1700
1406 1835
1406 1855
1406 1934
1406 2039
1406 2091
1406 2296
1406 2486
1406 2520
1406 2570
1406 2600
1406 3162
1406 4124
1406 5579
1407 973
1407 1509
1407 3081
1407 3201
1407 5066
1407 6154
1408 1062
1408 3357
1408 3621
1408 5130
1408 5902
1409 23
1409 63
1409 106
1409 400
1409 435
1409 533
1409 759
1409 972
1409 1315
1409 1476
1409 1778
1409 2031
1409 2243
1409 4611
1409 5179
1409 5312
1409 5398
1410 211
1410 1097
1410 1363
1410 1607
1410 1736
1410 3717
1410 5312
1410 6155
1411 278
1411 400
1411 632
1411 872
1411 1190
1411 1370
1411 3243
1411 3536
1411 6156
1412 307
1412 604
1412 663
1412 1053
1412 1378
1412 1379
1412 2252
1412 3178
1412 3372
1412 4192
1412 6157
1413 166
1413 177
1413 324
1413 653
1413 864
1413 915
1413 957
1413 1115
1413 2108
1413 2244
1413 3098
1413 5736
1414 308
1414 956
1414 1460
1414 2098
1414 2244
1414 3229
1414 6158
1415 73
1415 88
1415 120
1415 124
1415 202
1415 205
1415 366
1415 413
1415 548
1415 948
1415 975
1415 1172
1415 1844
1415 2287
1415 3373
1415 3390
1415 5810
1416 85
1416 676
1416 911
1416 1171
1416 1849
1416 2087
1416 2359
1416 2516
1417 299
1417 597
1417 626
1417 1784
1417 1896
1417 2844
1417 4155
1417 6121
1417 6159
1418 88
1418 490
1418 1220
1418 1898
1418 3269
1418 4155
1419 281
1419 620
1419 867
1419 875
1419 3726
1419 4867
1420 22
1420 82
1420 179
1420 308
1420 338
1420 788
1420 1954
1420 2556
1420 2711
1420 3172
1420 3932
1421 34
1421 60
1421 589
1421 598
1421 1201
1421 1458
1421 1554
1421 2467
1421 2667
1421 2782
1421 4140
1422 189
1422 1084
1422 1255
1422 1741
1422 1770
1422 3476
1422 3871
1422 5919
1423 20
1423 351
1423 995
1423 1310
1423 1393
1423 2667
1423 2761
1423 5228
1424 81
1424 84
1424 87
1424 88
1424 123
1424 304
1424 648
1424 799
1424 1163
1424 1302
1424 1584
1424 1614
1424 2540
1424 2655
1424 2667
1424 5253
1424 5857
1425 32
1425 124
1425 182
1425 403
1425 1010
1425 1042
1425 1915
1425 1996
1425 2975
1425 4341
1426 33
1426 69
1426 237
1426 467
1426 571
1426 586
1426 780
1426 2609
1426 3634
1426 4230
1427 215
1427 262
1427 791
1427 1215
1427 1349
1427 1361
1427 1497
1427 2507
1427 3364
1427 3690
1427 3897
1427 4387
1428 88
1428 462
1428 659
1428 980
1428 1505
1428 1610
1428 1948
1428 2586
1429 276
1429 1307
1429 1724
1429 2479
1429 2756
1429 4860
1429 5315
1430 184
1430 192
1430 598
1430 1140
1430 1344
1430 1437
1430 1778
1430 2756
1430 2826
1430 3421
1430 5470
1430 5539
1431 542
1431 932
1431 1094
1431 1159
1431 1403
1431 1951
1431 2272
1431 3708
1431 6160
1432 437
1432 746
1432 1604
1432 1943
1432 2313
1432 2414
1432 2570
1432 3615
1432 3669
1433 249
1433 450
1433 857
1433 887
1433 1885
1433 2528
1433 3435
1433 3708
1433 5738
1434 128
1434 170
1434 1623
1434 1841
1434 1935
1434 2091
1434 2135
1434 3708
1434 3992
1434 5409
1435 472
1435 1435
1435 1453
1435 2000
1435 3708
1435 4822
1435 6161
1436 255
1436 296
1436 594
1436 1173
1436 1663
1436 1733
1436 2790
1436 3976
1436 5018
1437 372
1437 552
1437 579
1437 612
1437 1316
1437 1430
1437 2240
1438 540
1438 618
1438 1484
1438 1522
1438 1715
1438 3459
1438 3644
1439 248
1439 291
1439 322
1439 560
1439 1052
1439 1938
1439 3499
1439 3567
1439 6162
1440 13
1440 47
1440 57
1440 75
1440 108
1440 185
1440 702
1440 1265
1440 1726
1440 1962
1440 1965
1440 2227
1440 2307
1440 2330
1441 73
1441 254
1441 259
1441 321
1441 667
1441 834
1441 993
1441 1011
1441 1215
1441 1361
1441 1373
1441 2641
1441 2933
1441 4614
1442 61
1442 150
1442 318
1442 608
1442 2355
1442 5499
1442 6054
1443 762
1443 1599
1443 5376
1443 5433
1443 6079
1444 61
1444 778
1444 1927
1444 2343
1444 2355
1444 2907
1444 3015
1444 6163
1445 19
1445 150
1445 331
1445 591
1445 1681
1445 2421
1445 2553
1445 2589
1445 6164
1446 72
1446 510
1446 579
1446 863
1446 1210
1446 1508
1446 1678
1446 1764
1446 3720
1446 5409
1446 5843
1447 383
1447 1665
1447 3021
1447 3033
1447 5457
1447 6165
1448 196
1448 214
1448 295
1448 1304
1448 1845
1448 1889
1448 2642
1448 2745
1448 3002
1448 3065
1449 175
1449 409
1449 1852
1449 1889
1449 2036
1449 2050
1449 2311
1449 4587
1449 4592
1449 6166
1450 70
1450 77
1450 366
1450 664
1450 721
1450 776
1450 1291
1450 2036
1450 2221
1451 674
1451 886
1451 1494
1451 3512
1451 4503
1451 5433
1451 6167
1451 6168
1451 6169
1452 273
1452 290
1452 395
1452 414
1452 579
1452 788
1452 1027
1452 1361
1452 1492
1452 4126
1452 4189
1452 5530
1453 68
1453 392
1453 1435
1453 4264
1453 4822
1453 4823
1453 6161
1454 1454
1454 2028
1454 2195
1454 5359
1454 5465
1455 88
1455 211
1455 378
1455 460
1455 550
1455 736
1455 786
1455 1119
1455 1590
1455 1917
1455 2028
1455 2528
1456 70
1456 421
1456 930
1456 983
1456 1661
1456 2542
1456 2546
1456 3441
1457 20
1457 76
1457 87
1457 455
1457 1873
1457 3009
1457 4242
1457 4766
1457 5164
1457 5317
1458 40
1458 152
1458 168
1458 774
1458 814
1458 848
1458 919
1458 921
1458 1030
1458 1126
1458 1421
1458 1618
1458 1678
1458 1967
1458 2788
1458 2855
1458 3194
1459 65
1459 71
1459 87
1459 133
1459 298
1459 307
1459 416
1459 603
1459 711
1459 788
1459 1079
1459 1333
1459 1463
1459 1938
1459 1950
1459 2699
1459 3567
1460 147
1460 208
1460 846
1460 893
1460 1414
1460 1811
1460 3459
1460 4491
1461 21
1461 34
1461 39
1461 43
1461 50
1461 55
1461 70
1461 71
1461 74
1461 77
1461 85
1461 154
1461 289
1461 648
1461 1213
1461 1380
1461 1652
1461 1934
1461 1988
1461 2121
1461 2122
1461 2134
1461 2466
1461 2566
1461 4121
1461 5238
1461 5259
1462 170
1462 413
1462 956
1462 1098
1462 1839
1462 2394
1462 3076
1462 5583
1462 5895
1463 127
1463 217
1463 277
1463 528
1463 759
1463 760
1463 867
1463 1151
1463 1459
1463 1868
1463 1950
1463 3029
1463 3505
1463 3567
1463 6170
1464 1030
1464 1052
1464 1274
1464 1498
1464 2528
1464 6171
1465 178
1465 411
1465 435
1465 1006
1465 1033
1465 1694
1465 3306
1465 3625
1465 4042
1465 5613
1465 6172
1466 162
1466 969
1466 979
1466 1564
1466 1721
1466 4042
1466 6173
1466 6174
1467 163
1467 211
1467 276
1467 404
1467 412
1467 414
1467 432
1467 611
1467 671
1467 726
1467 806
1467 822
1467 839
1467 2098
1467 2628
1467 3749
1468 70
1468 259
1468 580
1468 736
1468 847
1468 934
1468 1632
1468 2628
1468 3343
1468 6175
1468 6176
1468 6177
1469 33
1469 73
1469 426
1469 690
1469 694
1469 1088
1469 1290
1469 1541
1469 1617
1469 1664
1469 3588
1469 4074
1469 4333
1470 40
1470 1171
1470 1228
1470 1471
1470 2762
1470 3452
1470 3736
1470 4074
1470 5152
1470 5703
1471 88
1471 169
1471 182
1471 344
1471 420
1471 550
1471 580
1471 777
1471 1470
1471 1914
1471 1915
1471 4074
1471 4874
1471 5248
1472 421
1472 3441
1472 6178
1473 73
1473 179
1473 215
1473 250
1473 417
1473 683
1473 895
1473 1734
1473 1846
1473 2723
1473 5633
1474 190
1474 281
1474 3652
1474 5572
1474 5733
1475 79
1475 122
1475 601
1475 785
1475 864
1475 1144
1475 1166
1475 1299
1475 1676
1475 1871
1475 2843
1475 3652
1475 4490
1475 5919
1475 6179
1475 6180
1476 49
1476 163
1476 707
1476 843
1476 1100
1476 1148
1476 1409
1476 1584
1476 1713
1476 1770
1476 1782
1476 2283
1476 2947
1476 3398
1476 4596
1476 4874
1476 5997
1477 6
1477 36
1477 83
1477 196
1477 227
1477 650
1477 1125
1477 1312
1477 1518
1477 5748
1478 731
1478 1916
1478 4341
1478 5281
1479 88
1479 206
1479 716
1479 787
1479 812
1479 932
1479 3316
1479 3320
1479 4527
1479 4589
1479 5619
1479 6181
1480 363
1480 668
1480 669
1480 922
1480 1100
1480 3320
1480 5906
1481 88
1481 2371
1481 2565
1481 3284
1481 6182
1482 119
1482 495
1482 1504
1482 2258
1482 3799
1482 6183
1483 168
1483 174
1483 185
1483 520
1483 862
1483 906
1483 1036
1483 2390
1483 3642
1483 5433
1483 6184
1484 46
1484 63
1484 147
1484 160
1484 229
1484 252
1484 343
1484 371
1484 391
1484 583
1484 669
1484 679
1484 690
1484 816
1484 866
1484 931
1484 1131
1484 1211
1484 1234
1484 1276
1484 1438
1484 1490
1484 1545
1484 1816
1484 2154
1484 2233
1484 3160
1484 5433
1484 5516
1484 5647
1484 6185
1484 6186
1485 54
1485 71
1485 88
1485 399
1485 1965
1485 2213
1485 2704
1485 2894
1486 61
1486 421
1486 616
1486 629
1486 1323
1486 1531
1486 1902
1486 1910
1486 2219
1486 2788
1486 3417
1486 5014
1486 5096
1486 5721
1486 6187
1487 81
1487 84
1487 86
1487 314
1487 1156
1487 2294
1487 2732
1487 2788
1487 2800
1487 3681
1487 3709
1487 6188
1488 62
1488 158
1488 175
1488 341
1488 656
1488 749
1488 935
1488 1196
1488 2811
1488 2842
1488 3430
1488 3526
1488 3785
1489 213
1489 288
1489 663
1489 1559
1489 2811
1489 3219
1489 3235
1489 3533
1489 5689
1490 30
1490 63
1490 160
1490 192
1490 305
1490 536
1490 690
1490 818
1490 872
1490 885
1490 1344
1490 1484
1490 1572
1490 1813
1490 2339
1490 2811
1490 3596
1490 4583
1491 411
1491 1225
1491 1711
1491 1713
1491 1810
1491 2811
1491 6043
1492 273
1492 290
1492 788
1492 864
1492 865
1492 929
1492 1027
1492 1452
1492 1667
1492 2811
1492 4126
1492 5341
1492 5671
1492 6189
1493 358
1493 526
1493 723
1493 767
1493 794
1493 942
1493 1046
1493 1709
1493 1887
1493 1890
1493 2412
1493 2738
1494 385
1494 397
1494 674
1494 1451
1494 1503
1494 4503
1494 5978
1495 670
1495 2586
1495 2878
1495 3592
1495 5536
1496 24
1496 72
1496 73
1496 80
1496 82
1496 185
1496 214
1496 282
1496 358
1496 834
1496 883
1496 905
1496 1048
1496 1125
1496 1246
1496 1314
1496 2411
1496 2745
1496 4781
1497 6
1497 318
1497 645
1497 1427
1497 2384
1497 3193
1497 4989
1497 6112
1498 209
1498 408
1498 460
1498 843
1498 973
1498 1464
1498 1533
1498 4388
1498 4962
1498 5926
1499 189
1499 325
1499 343
1499 529
1499 677
1499 717
1499 760
1499 774
1499 879
1499 1500
1499 1809
1499 3939
1499 4334
1499 6016
1500 203
1500 206
1500 343
1500 661
1500 741
1500 742
1500 885
1500 906
1500 1147
1500 1394
1500 1499
1500 1703
1500 2601
1500 3344
1500 4059
1500 4334
1501 179
1501 203
1501 214
1501 321
1501 823
1501 902
1501 1592
1501 2532
1501 3474
1501 3775
1501 3893
1501 4603
1501 5699
1501 6190
1502 27
1502 68
1502 88
1502 299
1502 719
1502 1039
1502 1903
1502 3989
1502 4086
1502 5007
1502 5014
1503 385
1503 396
1503 1494
1503 1503
1503 2726
1503 3844
1503 4503
1503 4885
1503 5775
1503 5978
1503 6191
1504 41
1504 462
1504 1482
1504 1936
1504 2258
1504 5786
1505 1428
1505 2258
1505 2996
1505 6192
1506 476
1506 590
1506 1176
1506 1659
1506 1706
1506 2258
1506 5169
1506 6193
1506 6194
1507 809
1507 1701
1507 1813
1507 3033
1507 4956
1507 6195
1508 615
1508 1132
1508 1191
1508 1316
1508 1446
1508 3033
1508 3657
1508 5711
1508 6196
1509 49
1509 435
1509 550
1509 632
1509 871
1509 984
1509 1326
1509 1407
1509 2020
1509 2151
1509 2235
1509 2806
1509 3081
1509 3084
1509 5416
1509 6197
1510 130
1510 663
1510 1002
1510 2151
1510 4830
1510 5379
1510 5853
1511 86
1511 647
1511 823
1511 911
1511 1105
1511 3691
1511 6198
1512 695
1512 1255
1512 1947
1512 3081
1512 3278
1512 3871
1512 4604
1513 60
1513 78
1513 200
1513 403
1513 1393
1513 1846
1513 2051
1513 2371
1513 3407
1514 37
1514 75
1514 85
1514 86
1514 124
1514 196
1514 315
1514 415
1514 419
1514 774
1514 884
1514 993
1514 1201
1514 1227
1514 1523
1514 1535
1514 1682
1514 1748
1514 1758
1514 2062
1514 2133
1514 5228
1515 48
1515 110
1515 212
1515 392
1515 801
1515 1125
1515 1167
1515 1213
1515 1305
1515 1751
1515 1844
1515 2062
1515 2121
1515 2209
1515 5992
1516 133
1516 651
1516 737
1516 2515
1516 2543
1516 2654
1516 2764
1516 3658
1516 6199
1517 993
1517 2127
1517 3003
1518 6
1518 36
1518 57
1518 58
1518 69
1518 72
1518 83
1518 86
1518 167
1518 316
1518 650
1518 790
1518 955
1518 1092
1518 1125
1518 1477
1519 63
1519 322
1519 382
1519 1590
1519 1611
1519 1632
1519 1868
1519 2031
1519 3736
1519 4613
1519 6174
1519 6200
1520 88
1520 256
1520 4439
1520 4476
1520 4630
1521 84
1521 161
1521 182
1521 277
1521 647
1521 1273
1521 1338
1521 1569
1521 1916
1521 2020
1521 3858
1521 5359
1521 5731
1522 156
1522 516
1522 601
1522 681
1522 817
1522 1090
1522 1276
1522 1279
1522 1438
1522 4450
1522 6037
1522 6201
1523 40
1523 87
1523 170
1523 196
1523 422
1523 511
1523 585
1523 740
1523 1212
1523 1514
1523 1557
1523 1950
1523 2227
1523 2331
1523 2466
1523 3120
1523 4923
1524 54
1524 85
1524 88
1524 102
1524 202
1524 274
1524 289
1524 314
1524 513
1524 585
1524 2063
1524 2905
1524 3635
1525 350
1525 646
1525 2061
1525 2301
1525 2529
1525 2572
1525 2905
1525 5904
1526 169
1526 344
1526 364
1526 390
1526 524
1526 777
1526 876
1526 1104
1526 1285
1526 1536
1526 1914
1526 2014
1526 3572
1526 4230
1526 4338
1527 37
1527 57
1527 59
1527 66
1527 74
1527 85
1527 108
1527 296
1527 561
1527 646
1527 781
1527 981
1527 1280
1527 1332
1527 1381
1527 1562
1527 1737
1527 1759
1527 1791
1527 1837
1527 1944
1527 2073
1527 2336
1527 2405
1527 2439
1527 2454
1527 2627
1527 2762
1527 2784
1527 3291
1527 5755
1528 411
1528 421
1528 592
1528 863
1528 1935
1528 2226
1528 2380
1528 3395
1529 242
1529 949
1529 1562
1529 2303
1529 2912
1529 5175
1529 5178
1529 5718
1530 416
1530 1134
1530 5359
1530 5587
1530 5630
1530 5966
1531 7
1531 321
1531 705
1531 804
1531 1486
1531 1707
1531 1918
1531 2283
1531 6202
1531 6203
1532 244
1532 267
1532 364
1532 673
1532 770
1532 2207
1532 3027
1532 5221
1532 5283
1532 5359
1533 193
1533 625
1533 984
1533 1498
1533 2474
1533 4515
1533 4962
1533 5658
1533 6204
1533 6205
1534 106
1534 126
1534 223
1534 249
1534 300
1534 429
1534 678
1534 688
1534 759
1534 1003
1534 1075
1534 1224
1534 1740
1534 1952
1534 1975
1534 2155
1534 2609
1534 3106
1534 3398
1534 3509
1534 3954
1534 5367
1534 5802
1534 5997
1535 86
1535 705
1535 721
1535 1069
1535 1180
1535 1209
1535 1222
1535 1514
1535 2218
1535 2975
1535 2982
1535 3368
1535 6206
1536 88
1536 390
1536 503
1536 1090
1536 1526
1536 1587
1536 2483
1536 3225
1536 4129
1536 5651
1537 166
1537 228
1537 631
1537 1148
1537 2588
1537 4044
1537 5283
1537 6207
1538 356
1538 989
1538 1118
1538 1538
1538 2913
1538 3140
1538 3767
1538 3915
1538 5283
1538 6208
1539 435
1539 656
1539 688
1539 1007
1539 1234
1539 1389
1539 1780
1539 2204
1539 3336
1539 3649
1539 4619
1539 4773
1539 6105
1539 6209
1540 122
1540 146
1540 173
1540 193
1540 278
1540 283
1540 383
1540 400
1540 429
1540 486
1540 510
1540 806
1540 915
1540 960
1540 1004
1540 1030
1540 2200
1540 4189
1540 4388
1540 6210
1540 6211
1541 33
1541 237
1541 244
1541 273
1541 400
1541 518
1541 671
1541 730
1541 754
1541 878
1541 898
1541 935
1541 956
1541 969
1541 1325
1541 1469
1541 2198
1541 4189
1541 4569
1541 5463
1542 334
1542 388
1542 413
1542 668
1542 1956
1542 2237
1542 2771
1542 3129
1542 3800
1542 6121
1542 6212
1543 213
1543 235
1543 238
1543 317
1543 432
1543 694
1543 1716
1543 1811
1543 2154
1543 3459
1543 3552
1543 6213
1544 193
1544 3689
1544 5651
1544 6214
1545 10
1545 33
1545 149
1545 565
1545 656
1545 818
1545 843
1545 871
1545 874
1545 1147
1545 1259
1545 1345
1545 1484
1545 1783
1545 2003
1545 2702
1545 2897
1545 4422
1545 4569
1545 5415
1545 5651
1545 6215
1545 6216
1546 46
1546 259
1546 324
1546 376
1546 599
1546 1134
1546 5540
1546 5651
1546 6217
1547 80
1547 194
1547 273
1547 393
1547 414
1547 460
1547 642
1547 681
1547 691
1547 696
1547 811
1547 973
1547 1166
1547 1264
1547 1632
1547 1939
1547 2149
1547 2152
1547 2206
1547 2730
1547 3306
1547 3398
1547 3596
1547 3888
1547 4795
1547 5339
1547 5398
1548 75
1548 85
1548 87
1548 403
1548 406
1548 591
1548 683
1548 900
1548 3318
1548 3536
1548 5847
1549 146
1549 197
1549 208
1549 216
1549 483
1549 507
1549 698
1549 832
1549 988
1549 1191
1549 2328
1549 2385
1549 2484
1549 4333
1550 13
1550 240
1550 269
1550 330
1550 557
1550 881
1550 909
1550 1267
1550 2484
1550 5022
1551 103
1551 483
1551 2484
1551 5688
1551 6218
1552 572
1552 935
1552 954
1552 1113
1552 2484
1552 3919
1552 4145
1552 4589
1552 6219
1553 1016
1553 2975
1553 3471
1553 3555
1553 6220
1554 896
1554 1421
1554 1695
1554 2734
1554 6221
1555 254
1555 1873
1555 2066
1555 2136
1555 3782
1555 4900
1555 5810
1556 35
1556 51
1556 79
1556 87
1556 88
1556 153
1556 170
1556 254
1556 287
1556 289
1556 306
1556 652
1556 927
1556 981
1556 982
1556 1192
1556 1751
1556 1856
1556 2066
1556 2225
1556 6222
1557 34
1557 55
1557 77
1557 87
1557 339
1557 589
1557 1308
1557 1523
1557 2066
1557 2559
1557 2570
1557 2617
1557 6223
1558 81
1558 86
1558 107
1558 201
1558 483
1558 2287
1558 2295
1558 2313
1559 63
1559 372
1559 420
1559 455
1559 518
1559 602
1559 1079
1559 1184
1559 1489
1559 1984
1559 3984
1559 4445
1559 4658
1560 16
1560 134
1560 155
1560 213
1560 435
1560 759
1560 809
1560 1804
1560 2287
1560 2573
1560 3027
1560 3106
1560 5326
1561 23
1561 88
1561 377
1561 552
1561 705
1561 864
1561 922
1561 935
1561 3180
1561 3315
1561 4773
1562 70
1562 88
1562 838
1562 849
1562 1527
1562 1529
1562 2079
1562 2440
1562 4747
1562 5087
1562 6224
1563 363
1563 3555
1563 4952
1563 5524
1564 174
1564 480
1564 964
1564 1251
1564 1260
1564 1466
1564 3365
1564 3555
1564 3655
1565 413
1565 1691
1565 2034
1565 2216
1565 2487
1565 5716
1566 2819
1566 3144
1566 3555
1566 3760
1566 5356
1566 6225
1567 88
1567 286
1567 380
1567 543
1567 593
1567 620
1567 728
1567 902
1567 1590
1567 2547
1567 3724
1567 3782
1568 85
1568 88
1568 214
1568 380
1568 440
1568 901
1568 1886
1568 3665
1568 3771
1568 6226
1569 76
1569 393
1569 733
1569 930
1569 1521
1569 2095
1569 3642
1569 6227
1570 481
1570 2981
1570 3642
1570 4040
1570 4849
1570 4850
1570 6228
1571 501
1571 1571
1571 1597
1571 2814
1571 5475
1571 6219
1572 30
1572 299
1572 317
1572 343
1572 527
1572 562
1572 742
1572 887
1572 1147
1572 1490
1572 1651
1572 1745
1572 1782
1572 3217
1572 6229
1573 197
1573 317
1573 832
1573 1274
1573 1374
1573 1816
1573 2289
1573 3217
1573 5855
1574 88
1574 208
1574 317
1574 410
1574 532
1574 741
1574 1293
1574 1782
1574 2723
1574 3217
1575 88
1575 149
1575 172
1575 540
1575 813
1575 948
1575 1340
1575 3168
1575 3887
1575 3890
1576 51
1576 391
1576 446
1576 455
1576 562
1576 681
1576 1079
1576 1149
1576 2029
1576 3217
1576 3738
1576 4513
1577 50
1577 59
1577 77
1577 88
1577 118
1577 154
1577 191
1577 224
1577 646
1577 712
1577 729
1577 895
1577 940
1577 968
1577 981
1577 1772
1577 2054
1577 2131
1577 3589
1578 153
1578 201
1578 204
1578 255
1578 526
1578 901
1578 942
1578 1241
1578 1851
1578 2502
1578 2624
1578 2762
1578 3589
1578 3976
1578 6230
1579 25
1579 201
1579 293
1579 299
1579 682
1579 983
1579 1239
1579 1748
1579 1760
1579 2521
1579 3289
1579 3589
1579 4168
1579 5561
1579 6231
1580 294
1580 306
1580 795
1580 1081
1580 1849
1580 1938
1580 1943
1580 2111
1580 2576
1580 3007
1580 3444
1580 6232
1581 123
1581 661
1581 1140
1581 1340
1581 3627
1581 4001
1581 4329
1581 6233
1581 6234
1582 79
1582 291
1582 687
1582 743
1582 761
1582 1019
1582 1633
1582 1927
1582 3484
1582 6235
1583 45
1583 73
1583 74
1583 924
1583 1162
1583 1598
1583 2339
1583 3533
1583 3627
1583 6236
1584 78
1584 114
1584 180
1584 608
1584 1300
1584 1424
1584 1476
1584 1704
1584 2655
1584 2687
1584 5851
1584 6237
1585 184
1585 210
1585 395
1585 931
1585 1374
1585 1779
1585 3327
1585 3363
1585 3627
1585 6238
1585 6239
1585 6240
1586 63
1586 88
1586 291
1586 435
1586 660
1586 797
1586 1082
1586 1321
1586 1379
1586 1388
1586 1870
1586 4392
1586 5106
1586 6241
1587 278
1587 372
1587 515
1587 529
1587 977
1587 1003
1587 1274
1587 1536
1587 1686
1587 3155
1587 3533
1587 4392
1587 4444
1587 6242
1588 142
1588 371
1588 1867
1588 3533
1588 4194
1588 6243
1589 47
1589 69
1589 83
1589 84
1589 100
1589 179
1589 254
1589 315
1589 834
1589 994
1589 1023
1589 1186
1589 1349
1589 1719
1589 2080
1589 2761
1589 3076
1590 26
1590 60
1590 209
1590 286
1590 460
1590 501
1590 576
1590 806
1590 873
1590 1101
1590 1128
1590 1279
1590 1455
1590 1519
1590 1567
1590 1972
1590 2588
1590 2946
1590 4081
1590 5450
1590 5617
1591 76
1591 148
1591 255
1591 687
1591 885
1591 1052
1591 1899
1591 2588
1591 3460
1591 6244
1591 6245
1592 38
1592 50
1592 79
1592 154
1592 262
1592 295
1592 321
1592 489
1592 702
1592 793
1592 1253
1592 1501
1592 1752
1592 1949
1592 1991
1592 2415
1592 2798
1593 84
1593 120
1593 150
1593 823
1593 1751
1593 2384
1593 6246
1594 85
1594 357
1594 411
1594 892
1594 1127
1594 1255
1594 1645
1594 2345
1594 2648
1594 2828
1594 4665
1595 697
1595 1199
1595 2814
1595 2846
1595 3697
1595 4469
1595 6247
1595 6248
1596 2814
1596 2844
1596 2900
1596 6249
1597 88
1597 501
1597 1159
1597 1160
1597 1571
1597 2814
1597 2900
1597 6250
1597 6251
1598 63
1598 235
1598 279
1598 365
1598 530
1598 586
1598 688
1598 798
1598 1583
1598 2390
1598 3707
1598 3768
1598 3890
1598 4094
1598 5005
1598 6252
1599 156
1599 172
1599 182
1599 193
1599 353
1599 382
1599 503
1599 694
1599 972
1599 1096
1599 1119
1599 1443
1599 2888
1599 3890
1599 3984
1599 4060
1599 6253
1600 88
1600 248
1600 380
1600 590
1600 679
1600 1348
1600 1865
1600 3643
1600 3890
1601 344
1601 1049
1601 1056
1601 1384
1601 2205
1601 3223
1601 5074
1601 6254
1602 49
1602 63
1602 146
1602 1059
1602 1144
1602 1676
1602 1905
1602 3223
1602 6102
1603 195
1603 301
1603 533
1603 560
1603 770
1603 924
1603 1624
1603 3020
1603 3223
1603 4967
1603 5570
1603 6255
1604 746
1604 896
1604 1432
1604 1943
1604 2313
1604 2570
1604 3280
1604 3615
1605 83
1605 140
1605 649
1605 712
1605 994
1605 1031
1605 2100
1605 2369
1605 5244
1605 5252
1606 215
1606 793
1606 900
1606 1116
1606 1337
1606 2369
1606 2543
1606 4242
1606 6029
1607 393
1607 1074
1607 1410
1607 1635
1607 2473
1607 3106
1607 3552
1608 86
1608 321
1608 972
1608 1349
1608 3106
1608 4240
1609 78
1609 85
1609 88
1609 205
1609 378
1609 405
1609 411
1609 419
1609 607
1609 2648
1609 4985
1609 6256
1610 495
1610 1428
1610 2871
1610 3483
1610 3942
1610 6257
1610 6258
1611 299
1611 508
1611 545
1611 647
1611 714
1611 840
1611 915
1611 1058
1611 1075
1611 1110
1611 1519
1611 2383
1611 3504
1611 4184
1612 86
1612 88
1612 1299
1612 1774
1612 2346
1612 2734
1612 4989
1612 6259
1613 71
1613 607
1613 1214
1613 1937
1613 2094
1613 2515
1613 2687
1613 3221
1614 11
1614 56
1614 65
1614 83
1614 84
1614 86
1614 189
1614 275
1614 284
1614 592
1614 1424
1614 1618
1614 1837
1614 2179
1614 2316
1614 2687
1615 42
1615 65
1615 73
1615 87
1615 175
1615 330
1615 689
1615 863
1615 924
1615 1310
1615 1824
1615 2216
1615 2607
1615 3015
1615 6260
1615 6261
1616 42
1616 938
1616 3327
1616 3806
1616 3925
1616 4109
1617 967
1617 1063
1617 1469
1617 1813
1617 2607
1617 3413
1617 3885
1617 6262
1617 6263
1618 56
1618 115
1618 537
1618 921
1618 1458
1618 1614
1618 2607
1618 2736
1618 3805
1618 6264
1619 151
1619 686
1619 707
1619 720
1619 829
1619 1620
1619 3528
1619 5047
1620 88
1620 617
1620 720
1620 1619
1620 3403
1620 3528
1620 4459
1621 46
1621 213
1621 336
1621 374
1621 894
1621 1008
1621 2009
1621 2996
1621 3528
1621 4774
1621 6265
1622 7
1622 823
1622 1132
1622 1624
1622 1804
1622 1834
1622 3244
1622 5110
1622 5555
1623 7
1623 237
1623 300
1623 469
1623 630
1623 705
1623 1026
1623 1133
1623 1434
1623 1707
1623 1897
1623 2711
1623 2874
1623 3720
1623 3954
1623 5498
1623 5781
1623 6266
1623 6267
1624 7
1624 88
1624 447
1624 1182
1624 1603
1624 1622
1624 2098
1624 4695
1624 6200
1625 85
1625 88
1625 110
1625 185
1625 1202
1625 1209
1625 1934
1625 2734
1625 3391
1626 21
1626 170
1626 2041
1626 2649
1626 2786
1626 4191
1627 87
1627 649
1627 706
1627 791
1627 981
1627 1365
1627 2649
1627 2749
1628 65
1628 330
1628 1129
1628 2245
1628 2384
1628 3867
1628 4505
1629 20
1629 60
1629 86
1629 282
1629 334
1629 1233
1629 2384
1629 2426
1629 3089
1629 4038
1629 4949
1629 5604
1630 81
1630 512
1630 788
1630 2670
1630 3483
1630 6268
1631 282
1631 1232
1631 3318
1631 5159
1631 5710
1631 6056
1632 127
1632 759
1632 827
1632 1075
1632 1085
1632 1115
1632 1132
1632 1261
1632 1468
1632 1519
1632 1547
1632 1978
1632 3318
1632 6020
1632 6269
1633 431
1633 1307
1633 1582
1633 1927
1633 3067
1633 3484
1633 5883
1633 5938
1634 119
1634 371
1634 410
1634 450
1634 562
1634 853
1634 931
1634 1151
1634 1347
1634 1789
1634 3984
1634 4482
1635 41
1635 68
1635 73
1635 186
1635 208
1635 367
1635 590
1635 612
1635 679
1635 701
1635 716
1635 871
1635 1607
1635 2106
1635 2234
1635 2257
1635 2259
1635 2275
1635 3984
1635 4455
1635 5494
1636 169
1636 376
1636 966
1636 1061
1636 1130
1636 3403
1636 4230
1636 5830
1637 414
1637 420
1637 1196
1637 1638
1637 1723
1637 1805
1637 1817
1637 3403
1637 4025
1637 4026
1637 6084
1637 6270
1637 6271
1638 134
1638 169
1638 348
1638 376
1638 404
1638 420
1638 503
1638 523
1638 777
1638 1637
1638 1723
1638 2011
1638 3403
1638 4025
1638 4569
1638 5363
1639 126
1639 161
1639 238
1639 658
1639 665
1639 886
1639 1115
1639 1147
1639 1164
1639 1640
1639 1816
1639 2499
1639 4184
1639 4703
1639 5359
1640 32
1640 84
1640 122
1640 195
1640 304
1640 386
1640 931
1640 1639
1640 2193
1640 2385
1640 2399
1640 2955
1640 4184
1640 4662
1640 5333
1640 6272
1641 81
1641 197
1641 921
1641 1744
1641 1758
1641 2409
1641 2765
1641 3903
1641 5801
1642 88
1642 1303
1642 2552
1642 2589
1642 3903
1642 5412
1642 6273
1642 6274
1643 27
1643 358
1643 416
1643 1169
1643 1876
1643 1975
1643 2438
1643 3310
1643 4602
1643 6275
1643 6276
1644 255
1644 1176
1644 1266
1644 2095
1644 2438
1644 3969
1644 5353
1645 61
1645 126
1645 229
1645 490
1645 630
1645 793
1645 813
1645 900
1645 1215
1645 1229
1645 1594
1645 1646
1645 1647
1645 1867
1645 2345
1645 6277
1645 6278
1645 6279
1646 68
1646 84
1646 724
1646 925
1646 1645
1646 1647
1646 1841
1646 5345
1647 86
1647 321
1647 911
1647 925
1647 1645
1647 1646
1647 1647
1647 1753
1648 210
1648 312
1648 432
1648 1809
1648 3732
1648 3768
1648 5272
1649 166
1649 1218
1649 1809
1649 3768
1649 4831
1649 6280
1649 6281
1650 155
1650 161
1650 209
1650 503
1650 647
1650 742
1650 1694
1650 3237
1650 5467
1650 6233
1651 146
1651 192
1651 343
1651 414
1651 671
1651 742
1651 1290
1651 1572
1651 2947
1651 3226
1651 3237
1652 57
1652 175
1652 585
1652 743
1652 940
1652 1090
1652 1400
1652 1461
1652 1726
1652 1944
1652 1970
1652 2067
1652 2408
1652 2505
1652 2797
1652 3040
1652 3421
1653 262
1653 1918
1653 2213
1653 2760
1653 5458
1654 435
1654 474
1654 797
1654 1055
1654 1152
1654 1654
1654 2598
1654 3699
1654 4829
1654 5981
1654 6282
1654 6283
1655 72
1655 643
1655 894
1655 1098
1655 1656
1655 1985
1655 2598
1655 2963
1655 3205
1655 4172
1655 5257
1655 6284
1656 749
1656 1655
1656 1888
1656 2598
1656 6285
1657 227
1657 2598
1657 6286
1658 2598
1658 6944
1659 88
1659 211
1659 291
1659 680
1659 1047
1659 1283
1659 1341
1659 1506
1659 3020
1659 3744
1659 4085
1659 5342
1660 88
1660 94
1660 152
1660 327
1660 350
1660 399
1660 842
1660 996
1660 1173
1660 1663
1660 1733
1660 1735
1660 1922
1660 2229
1660 2822
1661 9
1661 94
1661 153
1661 327
1661 676
1661 1173
1661 1386
1661 1456
1661 1663
1661 1735
1661 1922
1661 2178
1661 2513
1661 2568
1661 3066
1661 4555
1662 94
1662 153
1662 255
1662 1663
1662 1922
1662 3975
1663 94
1663 842
1663 1436
1663 1660
1663 1661
1663 1662
1663 1922
1663 3975
1663 6288
1664 213
1664 312
1664 375
1664 1469
1664 1715
1664 2029
1664 2197
1664 3251
1664 3736
1664 6289
1665 26
1665 199
1665 602
1665 1447
1665 2776
1665 4656
1665 6290
1666 182
1666 194
1666 212
1666 376
1666 632
1666 804
1666 1302
1666 2199
1666 2776
1666 3012
1666 3257
1666 3720
1666 5236
1667 8
1667 123
1667 253
1667 286
1667 419
1667 853
1667 954
1667 1054
1667 1098
1667 1145
1667 1199
1667 1492
1667 1898
1667 1976
1667 2255
1667 2883
1667 3771
1667 3779
1667 3950
1667 4243
1667 5892
1667 6291
1668 8
1668 60
1668 962
1668 1851
1668 2853
1668 3064
1668 5944
1669 8
1669 766
1669 6292
1670 8
1670 179
1670 407
1670 946
1670 987
1670 1845
1670 6293
1671 25
1671 78
1671 88
1671 94
1671 202
1671 272
1671 411
1671 502
1671 585
1671 664
1671 1011
1671 1904
1671 2617
1671 2626
1671 4508
1671 6294
1672 36
1672 61
1672 79
1672 88
1672 125
1672 157
1672 179
1672 196
1672 289
1672 294
1672 315
1672 441
1672 664
1672 676
1672 991
1672 1312
1672 1902
1672 2128
1672 2617
1672 3300
1673 61
1673 83
1673 125
1673 190
1673 196
1673 339
1673 548
1673 646
1673 700
1673 926
1673 1351
1673 1682
1673 1774
1673 1902
1673 2183
1674 62
1674 88
1674 109
1674 471
1674 853
1674 857
1674 1766
1674 2198
1674 2241
1674 2814
1674 2859
1675 360
1675 904
1675 1211
1675 2224
1675 3263
1676 58
1676 115
1676 146
1676 170
1676 202
1676 417
1676 1475
1676 1602
1676 1895
1676 3175
1676 3224
1676 4100
1676 5788
1677 84
1677 86
1677 92
1677 657
1677 805
1677 921
1677 991
1677 1075
1677 1258
1677 1846
1677 3001
1677 3051
1677 4100
1678 88
1678 122
1678 510
1678 790
1678 981
1678 1046
1678 1209
1678 1446
1678 1458
1678 1966
1678 2541
1679 193
1679 209
1679 297
1679 865
1679 1702
1679 1703
1679 3546
1679 3606
1679 4073
1680 48
1680 1757
1680 3277
1680 3702
1680 5107
1680 6295
1681 27
1681 54
1681 64
1681 66
1681 67
1681 75
1681 77
1681 87
1681 153
1681 165
1681 215
1681 578
1681 589
1681 648
1681 676
1681 883
1681 949
1681 1124
1681 1127
1681 1445
1681 1734
1681 1910
1681 2566
1681 3977
1682 180
1682 262
1682 413
1682 608
1682 700
1682 745
1682 1302
1682 1514
1682 1673
1682 2131
1682 2199
1682 5250
1683 9
1683 54
1683 66
1683 88
1683 489
1683 1737
1683 2405
1683 2546
1683 2714
1683 2856
1683 2920
1684 509
1684 578
1684 639
1684 952
1684 1837
1684 2405
1684 2568
1684 2618
1684 2812
1685 41
1685 176
1685 512
1685 1058
1685 1187
1685 1207
1685 1361
1685 1856
1685 2104
1685 2262
1685 4085
1685 5478
1685 6296
1686 187
1686 279
1686 308
1686 324
1686 1002
1686 1131
1686 1251
1686 1587
1686 2664
1686 4085
1686 4228
1686 6297
1687 54
1687 89
1687 3062
1687 3205
1687 3942
1687 4085
1687 6129
1687 6298
1688 173
1688 206
1688 410
1688 562
1688 672
1688 797
1688 1179
1688 1689
1688 1756
1688 2245
1688 2259
1688 2349
1688 3096
1688 3186
1688 3661
1688 4198
1688 4512
1688 5646
1689 336
1689 811
1689 853
1689 874
1689 1688
1689 2092
1689 3338
1689 3661
1689 5646
1689 5866
1690 86
1690 88
1690 2352
1690 2630
1690 4810
1690 5211
1691 24
1691 69
1691 70
1691 1565
1691 1957
1691 2630
1691 2820
1692 167
1692 175
1692 294
1692 315
1692 900
1692 1213
1692 2412
1692 2630
1692 2993
1692 6299
1692 6300
1693 88
1693 149
1693 376
1693 590
1693 630
1693 660
1693 2144
1693 2379
1693 3611
1693 5093
1693 6301
1694 83
1694 208
1694 209
1694 414
1694 867
1694 897
1694 1094
1694 1465
1694 1650
1694 2005
1694 2379
1694 3134
1694 5338
1694 6302
1695 76
1695 88
1695 195
1695 382
1695 405
1695 481
1695 619
1695 1169
1695 1554
1695 2197
1695 5219
1695 5999
1696 52
1696 303
1696 410
1696 713
1696 759
1696 2197
1696 3142
1696 5427
1697 51
1697 180
1697 2199
1697 2696
1697 3507
1697 3671
1697 5828
1698 6
1698 85
1698 110
1698 153
1698 585
1698 591
1698 712
1698 1039
1698 1077
1698 1964
1698 2235
1698 2530
1698 2629
1698 3671
1698 4751
1698 5284
1699 82
1699 188
1699 735
1699 1833
1699 2456
1699 2594
1699 2707
1699 2857
1699 3120
1699 5226
1700 66
1700 75
1700 87
1700 170
1700 334
1700 339
1700 381
1700 399
1700 548
1700 595
1700 994
1700 1406
1700 1727
1700 1969
1700 2066
1700 2682
1700 2857
1701 41
1701 261
1701 342
1701 785
1701 1507
1701 2838
1701 3606
1701 5472
1702 58
1702 193
1702 297
1702 865
1702 1679
1702 1703
1702 3027
1702 3514
1702 3606
1702 6303
1702 6304
1703 122
1703 148
1703 163
1703 193
1703 209
1703 261
1703 276
1703 297
1703 476
1703 532
1703 853
1703 865
1703 1002
1703 1500
1703 1679
1703 1702
1703 2012
1703 2663
1703 2981
1703 3606
1703 5503
1703 5504
1703 5854
1703 6305
1704 37
1704 43
1704 401
1704 790
1704 1173
1704 1395
1704 1584
1704 1718
1704 1937
1704 5393
1704 5845
1705 806
1705 1706
1705 1937
1705 2012
1705 3370
1705 4460
1706 325
1706 806
1706 1506
1706 1705
1706 1937
1706 2012
1706 2712
1706 3370
1706 4460
1706 5012
1706 6193
1707 18
1707 299
1707 619
1707 1531
1707 1623
1707 1937
1707 1994
1707 4443
1707 6306
1708 200
1708 216
1708 591
1708 1747
1708 2294
1708 2760
1708 6307
1709 28
1709 42
1709 173
1709 336
1709 431
1709 528
1709 648
1709 663
1709 784
1709 824
1709 1364
1709 1493
1709 1985
1709 2613
1709 4166
1709 5249
1709 5460
1709 5526
1710 455
1710 532
1710 533
1710 647
1710 703
1710 1148
1710 1234
1710 1316
1710 1362
1710 2192
1710 3457
1710 4333
1710 4460
1710 4845
1710 6308
1711 192
1711 241
1711 257
1711 879
1711 1184
1711 1491
1711 1713
1711 3457
1711 3909
1712 58
1712 417
1712 2004
1712 2346
1712 2503
1712 3008
1712 3009
1712 3457
1713 63
1713 192
1713 241
1713 257
1713 343
1713 527
1713 660
1713 879
1713 924
1713 1184
1713 1476
1713 1491
1713 1711
1713 1995
1713 2339
1713 3457
1713 6309
1714 338
1714 363
1714 677
1714 678
1714 786
1714 1151
1714 1716
1714 4001
1714 5335
1715 235
1715 241
1715 391
1715 540
1715 1151
1715 1438
1715 1664
1715 1816
1715 2106
1715 2234
1715 2393
1715 3228
1715 4001
1716 88
1716 241
1716 261
1716 480
1716 915
1716 1007
1716 1389
1716 1543
1716 1714
1716 1796
1716 1812
1716 4001
1717 533
1717 4001
1717 6310
1717 6311
1718 60
1718 81
1718 83
1718 321
1718 585
1718 900
1718 993
1718 1229
1718 1704
1718 1845
1718 2224
1718 2342
1718 2797
1718 5652
1719 74
1719 85
1719 289
1719 415
1719 1589
1719 1856
1719 1857
1719 1946
1719 2183
1719 4311
1719 5569
1720 603
1720 618
1720 831
1720 860
1720 1214
1720 1245
1720 3114
1720 3626
1720 3658
1720 3974
1721 146
1721 396
1721 397
1721 674
1721 1296
1721 1466
1721 2917
1721 3512
1721 4503
1722 358
1722 409
1722 490
1722 683
1722 815
1722 1098
1722 2910
1722 3512
1722 3691
1723 3
1723 5
1723 390
1723 524
1723 809
1723 876
1723 990
1723 1285
1723 1637
1723 1638
1723 3159
1723 3465
1723 3512
1723 3718
1723 4338
1724 68
1724 122
1724 201
1724 237
1724 439
1724 1429
1724 1874
1724 2451
1724 6312
1725 78
1725 88
1725 202
1725 392
1725 1881
1725 1908
1725 2175
1725 2444
1725 2451
1725 2637
1725 3682
1725 3974
1726 71
1726 185
1726 201
1726 254
1726 314
1726 366
1726 779
1726 884
1726 1337
1726 1440
1726 1652
1726 1748
1726 2451
1726 2737
1726 3672
1727 71
1727 82
1727 194
1727 422
1727 465
1727 585
1727 991
1727 995
1727 1700
1727 2128
1727 2451
1727 2581
1727 2839
1728 87
1728 124
1728 330
1728 403
1728 700
1728 767
1728 1254
1728 2373
1728 4269
1728 6313
1729 68
1729 81
1729 86
1729 122
1729 155
1729 288
1729 754
1729 964
1729 1251
1729 2760
1729 3265
1729 3524
1729 3555
1729 3989
1729 4116
1729 6314
1730 135
1730 149
1730 304
1730 960
1730 1366
1730 1802
1730 2394
1730 2760
1730 2963
1730 5433
1731 88
1731 411
1731 694
1731 969
1731 2260
1731 2554
1731 2760
1731 3476
1732 29
1732 54
1732 59
1732 66
1732 78
1732 88
1732 202
1732 225
1732 255
1732 296
1732 399
1732 1017
1732 1392
1732 1989
1732 2920
1732 2942
1732 3411
1732 3677
1732 3977
1732 6315
1733 77
1733 88
1733 255
1733 510
1733 1436
1733 1660
1733 2622
1733 2623
1733 3976
1733 3977
1734 67
1734 68
1734 86
1734 114
1734 154
1734 212
1734 294
1734 296
1734 437
1734 483
1734 949
1734 1201
1734 1473
1734 1681
1734 2057
1734 2540
1734 2858
1734 3977
1734 6011
1735 66
1735 255
1735 313
1735 314
1735 842
1735 949
1735 1173
1735 1181
1735 1660
1735 1661
1735 2568
1735 3977
1735 4669
1735 4922
1736 61
1736 925
1736 1156
1736 1410
1736 1976
1736 2858
1736 2898
1736 5236
1737 9
1737 59
1737 77
1737 548
1737 1167
1737 1527
1737 1683
1737 1961
1737 2568
1737 2714
1737 2932
1737 3694
1738 185
1738 193
1738 195
1738 310
1738 1929
1738 5325
1739 166
1739 181
1739 186
1739 457
1739 1030
1739 1183
1739 1952
1739 2673
1739 3368
1739 5856
1740 579
1740 661
1740 960
1740 1003
1740 1534
1740 1741
1740 1742
1740 1952
1740 2862
1740 3128
1740 3553
1741 1003
1741 1422
1741 1740
1741 1952
1741 6316
1742 384
1742 688
1742 786
1742 973
1742 1740
1742 1952
1742 2254
1742 2913
1742 3386
1742 3763
1742 3954
1742 5630
1742 5767
1742 6317
1742 6318
1743 88
1743 1030
1743 2193
1743 2727
1743 4152
1743 4327
1744 32
1744 151
1744 161
1744 241
1744 661
1744 1641
1744 1877
1744 2193
1744 3028
1744 3595
1744 3901
1745 193
1745 251
1745 261
1745 391
1745 488
1745 686
1745 750
1745 874
1745 882
1745 931
1745 1000
1745 1303
1745 1572
1745 2481
1745 2826
1745 3607
1745 3748
1745 4304
1746 32
1746 186
1746 820
1746 1384
1746 1996
1746 2280
1746 2826
1746 3544
1746 3548
1747 56
1747 78
1747 334
1747 664
1747 916
1747 1116
1747 1265
1747 1708
1747 1858
1747 2133
1747 2629
1747 2705
1748 25
1748 66
1748 185
1748 201
1748 262
1748 644
1748 1273
1748 1514
1748 1579
1748 1726
1748 2133
1748 2268
1748 2295
1748 2301
1749 57
1749 1143
1749 1856
1749 2133
1749 3679
1750 9
1750 155
1750 318
1750 590
1750 859
1750 1750
1750 3245
1751 43
1751 55
1751 61
1751 331
1751 585
1751 629
1751 995
1751 1081
1751 1143
1751 1323
1751 1515
1751 1556
1751 1593
1751 1959
1751 2673
1751 4899
1751 5721
1752 34
1752 36
1752 57
1752 87
1752 170
1752 196
1752 275
1752 795
1752 991
1752 1206
1752 1256
1752 1592
1752 1833
1752 1959
1752 4900
1753 150
1753 358
1753 1647
1753 2632
1753 5365
1754 78
1754 245
1754 254
1754 255
1754 652
1754 2060
1754 2632
1754 3637
1754 6319
1755 50
1755 54
1755 84
1755 88
1755 262
1755 314
1755 514
1755 607
1755 712
1755 930
1755 1122
1755 1167
1755 2632
1756 371
1756 536
1756 681
1756 691
1756 764
1756 1688
1756 1998
1756 2009
1756 3096
1756 3380
1757 284
1757 369
1757 1680
1757 3096
1757 5686
1758 67
1758 79
1758 88
1758 196
1758 664
1758 738
1758 981
1758 1244
1758 1514
1758 1641
1758 1902
1758 2347
1758 6320
1759 88
1759 589
1759 1527
1759 1988
1759 2212
1759 2347
1759 6321
1760 50
1760 682
1760 993
1760 1239
1760 1579
1760 2530
1760 3621
1760 6322
1761 160
1761 164
1761 217
1761 279
1761 915
1761 2086
1761 2092
1761 3347
1761 4184
1762 53
1762 374
1762 597
1762 630
1762 669
1762 691
1762 880
1762 922
1762 1151
1762 1939
1762 1993
1762 2092
1763 49
1763 1228
1763 1355
1763 2092
1763 6188
1764 41
1764 135
1764 176
1764 299
1764 300
1764 650
1764 659
1764 756
1764 839
1764 1144
1764 1151
1764 1302
1764 1316
1764 1446
1764 1770
1764 2203
1764 3453
1764 5548
1764 6054
1765 146
1765 458
1765 673
1765 1150
1765 3453
1765 4994
1765 5494
1766 515
1766 1674
1766 1787
1766 1929
1766 4841
1766 5738
1766 6323
1767 1786
1767 1787
1767 1929
1767 2861
1767 3791
1767 6324
1768 149
1768 186
1768 249
1768 515
1768 580
1768 688
1768 786
1768 2012
1768 2727
1768 3110
1768 3864
1769 677
1769 681
1769 2012
1769 3350
1769 4934
1769 5349
1770 14
1770 63
1770 160
1770 186
1770 300
1770 321
1770 355
1770 377
1770 408
1770 488
1770 544
1770 1092
1770 1343
1770 1363
1770 1368
1770 1394
1770 1422
1770 1476
1770 1764
1770 1868
1770 2020
1770 3508
1770 3702
1770 3887
1771 868
1771 1355
1771 1841
1771 2094
1771 2508
1771 2668
1771 3339
1771 6325
1772 153
1772 224
1772 1039
1772 1577
1772 2500
1772 2668
1772 2787
1772 2809
1772 4979
1773 102
1773 153
1773 1904
1773 1944
1773 2043
1773 6326
1774 47
1774 330
1774 700
1774 951
1774 1068
1774 1092
1774 1266
1774 1612
1774 1673
1774 2362
1774 2490
1774 2759
1775 48
1775 61
1775 479
1775 608
1775 1156
1775 2490
1775 2792
1775 4647
1775 4649
1775 5913
1776 153
1776 190
1776 314
1776 606
1776 776
1776 1044
1776 1265
1776 2408
1776 5129
1777 37
1777 51
1777 70
1777 73
1777 82
1777 114
1777 607
1777 729
1777 739
1777 776
1777 901
1777 1314
1777 1332
1777 2408
1777 4555
1778 63
1778 76
1778 149
1778 452
1778 1409
1778 1430
1778 3344
1778 3566
1779 45
1779 76
1779 126
1779 211
1779 660
1779 1585
1779 3524
1779 5477
1779 6327
1779 6328
1780 53
1780 84
1780 109
1780 259
1780 391
1780 656
1780 698
1780 885
1780 931
1780 1259
1780 1539
1780 1866
1780 1996
1780 3524
1780 5142
1780 6329
1781 613
1781 771
1781 3524
1781 3526
1781 6330
1782 518
1782 1003
1782 1316
1782 1476
1782 1572
1782 1574
1782 1782
1782 3227
1782 3276
1782 3909
1782 6099
1783 32
1783 63
1783 461
1783 493
1783 536
1783 538
1783 611
1783 658
1783 920
1783 973
1783 1114
1783 1335
1783 1383
1783 1545
1783 3276
1783 5333
1783 6331
1784 299
1784 431
1784 1417
1784 1784
1784 2156
1784 2861
1784 3087
1784 3708
1785 138
1785 253
1785 1295
1785 1361
1785 1790
1785 1816
1785 2861
1785 3046
1785 3320
1785 4598
1786 1767
1786 1787
1786 1929
1786 2861
1786 6332
1787 88
1787 352
1787 395
1787 605
1787 756
1787 932
1787 1766
1787 1767
1787 1786
1787 1929
1787 2861
1787 4841
1788 88
1788 605
1788 669
1788 787
1788 1082
1788 2861
1788 3322
1788 5406
1788 6333
1789 1634
1789 2861
1789 5538
1789 6334
1790 319
1790 679
1790 1785
1790 2861
1790 2906
1790 4348
1790 5459
1790 6335
1791 83
1791 1181
1791 1241
1791 1381
1791 1527
1791 2513
1791 3694
1791 6336
1792 77
1792 81
1792 147
1792 278
1792 545
1792 860
1792 895
1792 918
1792 964
1792 1171
1792 1307
1792 2716
1792 3338
1792 3720
1793 82
1793 86
1793 153
1793 202
1793 421
1793 513
1793 2060
1793 2223
1793 2513
1793 3682
1794 50
1794 57
1794 118
1794 154
1794 185
1794 295
1794 405
1794 1367
1794 1881
1794 1919
1794 2175
1794 2513
1794 6337
1795 595
1795 2486
1795 2513
1795 2926
1795 4920
1796 149
1796 198
1796 309
1796 393
1796 442
1796 455
1796 634
1796 973
1796 1296
1796 1388
1796 1716
1796 2588
1796 3139
1796 3547
1796 3568
1796 3927
1796 6318
1797 49
1797 144
1797 420
1797 743
1797 1049
1797 1345
1797 1376
1797 1914
1797 2245
1797 3568
1797 6338
1798 83
1798 521
1798 679
1798 769
1798 1360
1798 1873
1798 2309
1798 2762
1798 6339
1799 83
1799 834
1799 883
1799 895
1799 1031
1799 1246
1799 2633
1799 2697
1799 2705
1799 2757
1799 2762
1800 34
1800 60
1800 321
1800 339
1800 399
1800 421
1800 459
1800 582
1800 1040
1800 1337
1800 1854
1800 2762
1800 5899
1801 350
1801 665
1801 968
1801 1381
1801 2448
1801 2762
1801 3162
1801 4561
1801 6340
1802 40
1802 86
1802 134
1802 237
1802 299
1802 378
1802 552
1802 674
1802 707
1802 1730
1802 2020
1802 2112
1802 2394
1802 3353
1802 3358
1802 3897
1803 172
1803 291
1803 378
1803 770
1803 933
1803 1385
1803 1804
1803 2020
1803 3244
1803 6341
1804 420
1804 1047
1804 1257
1804 1560
1804 1622
1804 1803
1804 2020
1804 2382
1804 3158
1804 6342
1805 10
1805 208
1805 364
1805 373
1805 414
1805 1104
1805 1637
1805 5052
1806 2027
1806 2971
1806 3720
1806 6343
1806 6344
1807 99
1807 656
1807 1066
1807 3595
1807 3720
1807 4002
1807 4510
1807 6345
1807 6346
1808 599
1808 1219
1808 4025
1808 4047
1808 4051
1808 4567
1809 529
1809 846
1809 1499
1809 1648
1809 1649
1809 3331
1809 3495
1809 3551
1809 3939
1809 4051
1809 6280
1809 6347
1810 453
1810 1491
1810 4051
1810 5283
1810 6348
1811 80
1811 111
1811 138
1811 693
1811 1460
1811 1543
1811 3552
1811 4051
1811 4422
1812 1716
1812 1894
1812 4051
1812 6349
1813 239
1813 305
1813 517
1813 677
1813 720
1813 747
1813 773
1813 798
1813 1226
1813 1490
1813 1507
1813 1617
1813 3927
1813 4051
1814 84
1814 339
1814 403
1814 662
1814 1944
1814 2720
1814 2773
1815 10
1815 86
1815 376
1815 467
1815 558
1815 966
1815 1817
1815 5025
1815 6350
1816 10
1816 414
1816 529
1816 708
1816 967
1816 1484
1816 1573
1816 1639
1816 1715
1816 1785
1816 2601
1816 4744
1816 6351
1817 10
1817 88
1817 558
1817 588
1817 696
1817 1637
1817 1815
1817 2806
1817 6352
1818 10
1818 1820
1818 3177
1818 4802
1819 10
1819 279
1819 308
1819 668
1819 708
1819 1117
1819 3027
1819 3370
1819 3543
1819 3546
1820 10
1820 524
1820 1242
1820 1818
1820 4802
1821 107
1821 152
1821 952
1821 1971
1821 2063
1821 2131
1821 2893
1821 2940
1821 5461
1822 101
1822 163
1822 183
1822 353
1822 685
1822 872
1822 987
1822 1159
1822 1405
1822 1980
1822 2859
1822 3108
1822 3910
1823 73
1823 81
1823 86
1823 88
1823 274
1823 316
1823 352
1823 415
1823 740
1823 1852
1823 2132
1823 2419
1823 6353
1824 207
1824 1615
1824 2339
1824 2494
1824 4816
1824 5256
1824 5748
1825 355
1825 586
1825 691
1825 786
1825 969
1825 1006
1825 2339
1825 3326
1825 3532
1826 4156
1826 6354
1827 73
1827 150
1827 200
1827 315
1827 926
1827 1246
1827 4156
1827 5018
1827 5616
1828 61
1828 84
1828 136
1828 648
1828 665
1828 927
1828 1828
1828 2685
1828 4156
1828 5253
1829 76
1829 308
1829 416
1829 971
1829 1090
1829 1215
1829 4156
1829 5825
1829 6355
1830 11
1830 60
1830 87
1830 175
1830 346
1830 443
1830 509
1830 659
1830 769
1830 848
1830 1205
1830 1832
1830 3121
1831 11
1831 84
1831 86
1831 194
1831 405
1831 905
1831 1020
1831 1046
1831 5732
1832 11
1832 65
1832 87
1832 215
1832 419
1832 443
1832 509
1832 606
1832 769
1832 1205
1832 1830
1832 2370
1832 6356
1833 11
1833 795
1833 1699
1833 1752
1833 2587
1833 2707
1833 4113
1834 321
1834 496
1834 1022
1834 1132
1834 1622
1834 2084
1834 2201
1834 3503
1834 4382
1835 28
1835 259
1835 301
1835 333
1835 411
1835 975
1835 1009
1835 1149
1835 1253
1835 1355
1835 1406
1835 1910
1835 2201
1835 2685
1835 5964
1836 76
1836 1075
1836 2201
1836 2668
1836 2752
1836 6357
1837 35
1837 78
1837 153
1837 255
1837 311
1837 595
1837 607
1837 646
1837 652
1837 790
1837 1527
1837 1614
1837 1684
1837 2056
1837 2227
1837 2590
1837 2784
1837 2880
1837 5131
1838 124
1838 429
1838 474
1838 770
1838 1993
1838 2145
1838 6358
1839 168
1839 1462
1839 2145
1839 5353
1839 6359
1840 166
1840 806
1840 2145
1840 4496
1840 5707
1840 5933
1841 115
1841 203
1841 328
1841 403
1841 653
1841 1215
1841 1255
1841 1434
1841 1646
1841 1771
1841 1900
1841 2145
1841 4262
1842 42
1842 592
1842 1251
1842 1254
1842 2145
1842 3136
1842 3507
1842 5682
1842 5988
1843 85
1843 129
1843 698
1843 2145
1843 3657
1843 4042
1843 6360
1844 88
1844 478
1844 548
1844 801
1844 955
1844 1415
1844 1515
1844 2130
1844 2134
1844 3970
1844 4162
1845 179
1845 290
1845 901
1845 1135
1845 1178
1845 1448
1845 1670
1845 1718
1845 1990
1845 2130
1845 2742
1845 5652
1846 69
1846 81
1846 301
1846 330
1846 339
1846 996
1846 1473
1846 1513
1846 1677
1846 2099
1846 2677
1846 2881
1847 27
1847 67
1847 84
1847 254
1847 537
1847 883
1847 2099
1847 2788
1848 88
1848 200
1848 462
1848 495
1848 1090
1848 2099
1848 4368
1848 4797
1849 66
1849 73
1849 86
1849 88
1849 196
1849 331
1849 664
1849 779
1849 911
1849 982
1849 1416
1849 1580
1849 1942
1849 4523
1850 88
1850 214
1850 315
1850 604
1850 761
1850 902
1850 1942
1850 3017
1850 3779
1850 4082
1850 4913
1850 6361
1851 12
1851 54
1851 77
1851 311
1851 1578
1851 1668
1851 5531
1851 6362
1852 12
1852 13
1852 88
1852 214
1852 415
1852 526
1852 748
1852 907
1852 1281
1852 1348
1852 1449
1852 1823
1852 1951
1852 6363
1853 12
1853 2139
1853 6364
1854 12
1854 102
1854 204
1854 399
1854 421
1854 1800
1854 2221
1854 2337
1854 2415
1854 2703
1854 2998
1855 21
1855 57
1855 75
1855 77
1855 170
1855 175
1855 191
1855 489
1855 607
1855 1406
1855 2406
1855 2415
1855 5329
1855 5569
1856 74
1856 260
1856 702
1856 902
1856 1556
1856 1685
1856 1719
1856 1749
1856 2406
1856 3589
1856 5421
1856 6365
1857 17
1857 29
1857 78
1857 88
1857 296
1857 421
1857 489
1857 828
1857 991
1857 1719
1857 2175
1857 2406
1857 3677
1857 6366
1858 47
1858 1355
1858 1747
1858 2059
1858 2558
1858 3907
1859 148
1859 211
1859 228
1859 508
1859 878
1859 887
1859 989
1859 3178
1859 3564
1860 88
1860 190
1860 314
1860 1044
1860 2538
1860 5596
1861 719
1861 930
1861 2212
1861 2538
1861 3573
1861 3586
1861 6367
1862 68
1862 122
1862 435
1862 522
1862 725
1862 950
1862 1004
1862 2389
1862 2548
1862 2897
1862 5434
1863 162
1863 618
1863 720
1863 2897
1863 4795
1863 6368
1864 199
1864 384
1864 432
1864 681
1864 935
1864 1301
1864 2897
1864 4003
1864 6369
1865 88
1865 435
1865 636
1865 677
1865 684
1865 822
1865 1208
1865 1273
1865 1293
1865 1600
1865 2250
1865 2897
1865 3910
1865 5136
1866 53
1866 273
1866 291
1866 461
1866 609
1866 749
1866 766
1866 969
1866 1053
1866 1780
1866 2259
1866 3157
1866 3341
1866 3865
1866 4871
1867 147
1867 213
1867 214
1867 229
1867 484
1867 730
1867 1187
1867 1588
1867 1645
1867 2259
1867 3042
1867 3098
1867 3155
1867 3362
1867 6211
1867 6370
1868 54
1868 227
1868 321
1868 1129
1868 1337
1868 1463
1868 1519
1868 1770
1868 2275
1868 2394
1868 3393
1868 3501
1869 493
1869 714
1869 1117
1869 2394
1869 3142
1869 3647
1870 46
1870 521
1870 1159
1870 1274
1870 1586
1870 2250
1870 3552
1871 133
1871 317
1871 400
1871 412
1871 714
1871 1183
1871 1475
1871 2329
1871 3522
1871 3552
1871 3767
1871 4892
1871 6371
1872 49
1872 150
1872 2589
1872 2674
1872 5075
1872 5193
1872 5951
1872 6372
1873 65
1873 84
1873 154
1873 1310
1873 1404
1873 1457
1873 1555
1873 1798
1873 2589
1873 3300
1873 5020
1873 5510
1874 150
1874 1724
1874 2589
1874 3896
1875 84
1875 526
1875 863
1875 1172
1875 2553
1875 6373
1876 72
1876 123
1876 706
1876 780
1876 840
1876 1156
1876 1233
1876 1394
1876 1643
1876 2429
1876 2553
1876 4523
1876 4955
1877 206
1877 379
1877 501
1877 563
1877 663
1877 853
1877 1744
1877 2156
1877 2664
1877 4373
1878 159
1878 1083
1878 1879
1878 2664
1878 4774
1878 5958
1879 83
1879 455
1879 1083
1879 1878
1879 2613
1879 2664
1879 3374
1879 4392
1880 39
1880 1206
1880 1400
1880 1940
1880 1970
1880 2121
1880 2175
1880 2331
1880 2410
1880 2454
1880 2464
1880 2742
1880 5100
1880 6374
1881 47
1881 85
1881 88
1881 421
1881 652
1881 676
1881 828
1881 1725
1881 1794
1881 1940
1881 1970
1881 2173
1881 6375
1882 99
1882 2142
1882 5490
1883 136
1883 150
1883 1135
1883 1299
1883 2142
1883 6376
1883 6377
1884 88
1884 685
1884 1885
1884 2142
1884 3016
1885 651
1885 824
1885 1018
1885 1433
1885 1884
1885 2142
1885 6378
1886 13
1886 44
1886 149
1886 322
1886 366
1886 488
1886 693
1886 862
1886 892
1886 1070
1886 1281
1886 1568
1886 2200
1886 2251
1886 2891
1886 4146
1887 13
1887 44
1887 73
1887 167
1887 478
1887 651
1887 767
1887 824
1887 1493
1887 2236
1887 5657
1888 13
1888 54
1888 84
1888 88
1888 284
1888 669
1888 792
1888 932
1888 1656
1888 1985
1888 4589
1888 6379
1888 6380
1889 13
1889 88
1889 214
1889 409
1889 1054
1889 1448
1889 1449
1889 2314
1889 2939
1889 3478
1889 3774
1890 300
1890 324
1890 612
1890 1330
1890 1493
1890 2245
1890 5810
1891 14
1891 453
1891 1398
1891 3523
1891 4761
1891 6381
1892 87
1892 88
1892 608
1892 971
1892 1229
1892 1300
1892 2179
1892 6199
1893 14
1893 22
1893 159
1893 172
1893 199
1893 288
1893 772
1893 811
1893 6382
1894 14
1894 383
1894 384
1894 734
1894 1224
1894 1812
1894 3736
1894 4513
1895 88
1895 143
1895 445
1895 723
1895 946
1895 1676
1895 1954
1895 5643
1895 6383
1896 208
1896 213
1896 258
1896 497
1896 626
1896 858
1896 862
1896 935
1896 1191
1896 1228
1896 1417
1896 1898
1896 1954
1896 2901
1896 3227
1896 3986
1896 5038
1897 26
1897 1026
1897 1028
1897 1061
1897 1623
1897 1954
1897 3275
1897 4447
1897 6121
1898 88
1898 285
1898 626
1898 689
1898 825
1898 1054
1898 1145
1898 1418
1898 1667
1898 1896
1898 1954
1898 2272
1899 256
1899 371
1899 605
1899 941
1899 1591
1899 2165
1899 4475
1899 5267
1899 5283
1899 6384
1900 65
1900 180
1900 262
1900 282
1900 300
1900 333
1900 537
1900 653
1900 883
1900 925
1900 1841
1900 2165
1900 2349
1900 3494
1900 3588
1901 15
1901 87
1901 88
1901 419
1901 1266
1901 5205
1902 15
1902 34
1902 48
1902 72
1902 124
1902 154
1902 334
1902 419
1902 649
1902 994
1902 1486
1902 1672
1902 1673
1902 1758
1902 3304
1903 15
1903 27
1903 55
1903 85
1903 87
1903 114
1903 171
1903 204
1903 951
1903 1127
1903 1393
1903 1502
1903 3345
1903 4278
1904 88
1904 1037
1904 1671
1904 1773
1904 2316
1904 4923
1905 1602
1905 2316
1905 6385
1906 84
1906 505
1906 1063
1906 1084
1906 2316
1906 6386
1907 397
1907 647
1907 667
1907 2316
1907 2946
1907 3510
1907 4011
1908 29
1908 59
1908 66
1908 70
1908 88
1908 154
1908 170
1908 381
1908 795
1908 1400
1908 1725
1908 1919
1908 1962
1908 2634
1908 2999
1909 29
1909 44
1909 69
1909 78
1909 185
1909 511
1909 585
1909 678
1909 702
1909 1087
1909 1167
1909 1400
1909 1910
1909 1962
1909 1988
1909 2496
1910 198
1910 332
1910 334
1910 854
1910 1202
1910 1209
1910 1314
1910 1486
1910 1681
1910 1835
1910 1909
1910 1962
1910 2352
1910 2414
1910 2617
1911 16
1911 195
1911 1374
1911 3715
1911 4657
1911 5963
1911 6387
1912 16
1912 2956
1912 3278
1912 5170
1913 16
1913 49
1913 68
1913 2607
1913 6388
1913 6389
1914 16
1914 309
1914 1056
1914 1471
1914 1526
1914 1797
1914 4341
1914 5019
1915 16
1915 638
1915 1425
1915 1471
1915 6390
1916 16
1916 344
1916 1257
1916 1338
1916 1478
1916 1521
1916 3029
1916 3742
1916 6391
1917 16
1917 515
1917 611
1917 791
1917 863
1917 880
1917 910
1917 1151
1917 1455
1917 2647
1917 2963
1917 3727
1917 6392
1918 16
1918 1531
1918 1653
1918 2112
1918 3990
1918 4550
1918 6393
1919 66
1919 72
1919 88
1919 399
1919 405
1919 712
1919 1794
1919 1908
1919 2175
1919 2440
1919 2444
1920 47
1920 153
1920 930
1920 2175
1920 2266
1920 2454
1920 4562
1920 6394
1921 17
1921 51
1921 66
1921 78
1921 392
1921 525
1921 531
1921 790
1921 2064
1921 2634
1921 2932
1922 17
1922 88
1922 401
1922 421
1922 1660
1922 1661
1922 1662
1922 1663
1922 2627
1923 17
1923 35
1923 57
1923 87
1923 88
1923 682
1923 801
1923 1244
1923 1297
1923 2685
1923 5904
1924 17
1924 6395
1925 18
1925 189
1925 300
1925 307
1925 1234
1925 6396
1926 18
1926 214
1926 728
1926 1267
1926 4275
1926 6397
1926 6398
1927 18
1927 52
1927 56
1927 65
1927 80
1927 164
1927 175
1927 181
1927 183
1927 308
1927 324
1927 756
1927 897
1927 993
1927 1008
1927 1324
1927 1444
1927 1582
1927 1633
1927 2335
1927 2656
1927 3023
1927 3347
1927 4928
1928 18
1928 83
1928 1129
1928 2180
1928 2504
1928 5243
1928 5695
1929 18
1929 179
1929 288
1929 766
1929 1738
1929 1766
1929 1767
1929 1786
1929 1787
1929 2139
1930 19
1930 41
1930 56
1930 88
1930 103
1930 125
1930 170
1930 389
1930 700
1930 951
1930 2883
1930 4224
1931 19
1931 87
1931 120
1931 281
1931 293
1931 354
1931 657
1931 1966
1931 5616
1932 19
1932 67
1932 69
1932 88
1932 214
1932 513
1932 942
1932 1040
1932 1213
1932 3297
1933 19
1933 171
1933 555
1933 835
1933 1334
1933 6399
1934 19
1934 48
1934 51
1934 67
1934 71
1934 170
1934 205
1934 801
1934 993
1934 1142
1934 1310
1934 1406
1934 1461
1934 1625
1934 2295
1934 2368
1934 6070
1935 20
1935 88
1935 1434
1935 1528
1935 2807
1936 20
1936 88
1936 869
1936 1282
1936 1504
1936 2877
1937 20
1937 56
1937 88
1937 1395
1937 1613
1937 1704
1937 1705
1937 1706
1937 1707
1938 20
1938 73
1938 74
1938 88
1938 190
1938 263
1938 381
1938 512
1938 561
1938 635
1938 1277
1938 1439
1938 1459
1938 1580
1938 2268
1938 2522
1938 3515
1938 6400
1939 20
1939 163
1939 408
1939 730
1939 929
1939 1325
1939 1547
1939 1762
1939 2801
1939 3790
1939 6401
1940 21
1940 70
1940 85
1940 1213
1940 1880
1940 1881
1940 2627
1940 6375
1941 21
1941 650
1941 1135
1941 2214
1941 2274
1941 6337
1942 21
1942 48
1942 64
1942 65
1942 71
1942 81
1942 102
1942 194
1942 289
1942 926
1942 993
1942 1849
1942 1850
1943 21
1943 70
1943 74
1943 170
1943 746
1943 1432
1943 1580
1943 1604
1944 21
1944 85
1944 88
1944 165
1944 339
1944 662
1944 1037
1944 1527
1944 1652
1944 1773
1944 1814
1945 21
1945 64
1945 70
1945 294
1945 2733
1945 5560
1945 6202
1946 21
1946 41
1946 42
1946 56
1946 64
1946 74
1946 79
1946 81
1946 83
1946 86
1946 87
1946 191
1946 196
1946 205
1946 262
1946 274
1946 281
1946 295
1946 339
1946 483
1946 700
1946 706
1946 884
1946 900
1946 993
1946 1719
1946 5329
1947 22
1947 360
1947 651
1947 653
1947 987
1947 1036
1947 1512
1947 3136
1948 22
1948 203
1948 214
1948 236
1948 290
1948 902
1948 1428
1948 5639
1948 6230
1948 6402
1949 22
1949 64
1949 67
1949 333
1949 589
1949 662
1949 1592
1949 6357
1950 22
1950 551
1950 854
1950 1459
1950 1463
1950 1523
1950 3567
1951 22
1951 88
1951 198
1951 689
1951 740
1951 824
1951 1431
1951 1852
1951 2312
1951 3119
1951 6403
1952 23
1952 76
1952 363
1952 378
1952 1072
1952 1534
1952 1739
1952 1740
1952 1741
1952 1742
1953 23
1953 345
1953 691
1953 874
1953 931
1953 990
1953 3702
1953 4068
1953 4434
1954 23
1954 31
1954 119
1954 307
1954 380
1954 593
1954 626
1954 756
1954 1096
1954 1165
1954 1420
1954 1895
1954 1896
1954 1897
1954 1898
1955 23
1955 678
1955 1007
1955 5515
1956 23
1956 353
1956 418
1956 709
1956 936
1956 1324
1956 1542
1957 24
1957 88
1957 194
1957 1691
1957 2301
1958 24
1958 88
1958 196
1958 331
1958 406
1958 2697
1958 6404
1959 24
1959 29
1959 71
1959 194
1959 421
1959 548
1959 595
1959 721
1959 1751
1959 1752
1960 24
1960 72
1960 589
1960 3051
1961 24
1961 88
1961 1737
1961 2684
1961 5904
1962 25
1962 37
1962 69
1962 78
1962 185
1962 190
1962 392
1962 585
1962 595
1962 706
1962 801
1962 821
1962 1122
1962 1440
1962 1908
1962 1909
1962 1910
1963 25
1963 940
1963 1042
1963 1069
1963 1180
1963 2176
1963 2982
1963 3039
1963 3067
1964 25
1964 86
1964 185
1964 294
1964 682
1964 1698
1964 5894
1965 25
1965 201
1965 682
1965 1133
1965 1440
1965 1485
1965 2213
1966 25
1966 56
1966 118
1966 465
1966 592
1966 790
1966 1678
1966 1931
1966 2036
1966 3291
1966 5652
1966 6405
1967 25
1967 40
1967 76
1967 403
1967 509
1967 598
1967 1215
1967 1302
1967 1358
1967 1458
1967 1968
1967 2091
1967 2095
1967 2352
1967 3476
1967 4167
1968 25
1968 95
1968 167
1968 240
1968 649
1968 1042
1968 1323
1968 1404
1968 1967
1968 4030
1968 6406
1969 25
1969 295
1969 805
1969 1700
1970 25
1970 47
1970 51
1970 71
1970 74
1970 75
1970 85
1970 306
1970 511
1970 682
1970 1400
1970 1652
1970 1880
1970 1881
1971 25
1971 37
1971 381
1971 401
1971 682
1971 1821
1971 6407
1972 26
1972 149
1972 235
1972 371
1972 424
1972 625
1972 873
1972 1590
1972 2393
1972 6408
1973 26
1973 885
1973 4000
1973 5654
1974 26
1974 155
1974 169
1974 277
1974 588
1974 976
1974 1003
1974 4703
1974 5019
1975 26
1975 819
1975 1026
1975 1534
1975 1643
1975 4845
1975 5514
1975 6409
1975 6410
1976 27
1976 86
1976 88
1976 180
1976 711
1976 1160
1976 1667
1976 1736
1976 1982
1976 2213
1977 27
1977 33
1977 3739
1978 27
1978 88
1978 334
1978 1632
1978 4397
1979 27
1979 64
1979 73
1979 700
1979 993
1979 1350
1980 27
1980 180
1980 186
1980 386
1980 423
1980 435
1980 496
1980 660
1980 1276
1980 1371
1980 1822
1981 27
1981 307
1981 6411
1982 27
1982 88
1982 180
1982 562
1982 1976
1982 6412
1983 28
1983 351
1983 436
1983 1220
1983 1254
1983 4626
1984 28
1984 367
1984 371
1984 576
1984 1171
1984 1361
1984 1559
1984 5287
1985 28
1985 120
1985 200
1985 431
1985 1655
1985 1709
1985 1888
1985 2914
1985 6413
1986 28
1986 88
1986 272
1986 612
1986 693
1986 707
1986 1036
1986 2709
1986 6414
1987 29
1987 313
1987 594
1987 842
1988 29
1988 44
1988 47
1988 59
1988 77
1988 85
1988 123
1988 196
1988 204
1988 585
1988 807
1988 1146
1988 1461
1988 1759
1988 1909
1988 2071
1989 29
1989 66
1989 88
1989 114
1989 194
1989 202
1989 242
1989 392
1989 712
1989 1732
1989 6366
1990 29
1990 191
1990 354
1990 421
1990 585
1990 648
1990 1356
1990 1845
1990 3893
1990 4623
1991 29
1991 37
1991 82
1991 85
1991 194
1991 201
1991 392
1991 1592
1992 30
1992 88
1992 278
1992 371
1992 605
1992 660
1992 2838
1992 2870
1992 2979
1992 3609
1992 4542
1993 30
1993 31
1993 45
1993 523
1993 563
1993 590
1993 672
1993 796
1993 797
1993 874
1993 989
1993 1363
1993 1762
1993 1838
1993 2984
1993 4003
1993 4198
1993 5340
1993 5539
1993 6055
1993 6415
1994 30
1994 126
1994 237
1994 299
1994 759
1994 1707
1994 4086
1995 30
1995 261
1995 564
1995 566
1995 874
1995 891
1995 920
1995 1713
1995 2702
1995 3227
1995 3928
1995 5853
1996 30
1996 88
1996 187
1996 325
1996 418
1996 843
1996 918
1996 990
1996 1425
1996 1746
1996 1780
1996 3544
1996 4198
1996 6329
1997 30
1997 88
1997 1134
1997 3747
1997 5909
1998 30
1998 84
1998 86
1998 155
1998 1756
1999 30
1999 208
1999 400
1999 420
2000 30
2000 1435
2000 2000
2000 4371
2000 6161
2001 30
2001 908
2001 5120
2001 5538
2002 31
2002 765
2002 809
2002 874
2003 31
2003 493
2003 496
2003 617
2003 670
2003 887
2003 924
2003 961
2003 1182
2003 1545
2003 2003
2003 4875
2003 6416
2003 6417
2004 31
2004 216
2004 219
2004 330
2004 537
2004 711
2004 979
2004 1160
2004 1272
2004 1712
2004 3009
2004 3117
2005 31
2005 345
2005 1694
2005 5338
2005 6000
2005 6003
2006 31
2006 374
2006 2891
2006 6160
2007 3
2007 31
2007 667
2007 764
2007 3700
2008 31
2008 661
2008 691
2008 1052
2008 1343
2008 1344
2009 31
2009 33
2009 147
2009 207
2009 256
2009 400
2009 435
2009 620
2009 887
2009 965
2009 1399
2009 1621
2009 1756
2009 2557
2009 4393
2009 5008
2010 31
2010 64
2010 82
2010 381
2010 775
2010 1146
2010 2063
2010 6418
2011 31
2011 46
2011 590
2011 857
2011 1323
2011 1384
2011 1638
2012 31
2012 149
2012 181
2012 323
2012 1183
2012 1703
2012 1705
2012 1706
2012 1768
2012 1769
2013 32
2013 88
2013 501
2013 938
2013 2272
2014 32
2014 305
2014 1139
2014 1526
2014 2329
2014 2739
2014 6419
2015 32
2015 4133
2015 6420
2016 32
2016 40
2016 454
2016 900
2016 1128
2016 2237
2016 3228
2016 5339
2017 32
2017 182
2017 503
2017 598
2017 1119
2017 3244
2017 5587
2017 6390
2018 32
2018 88
2018 770
2018 1307
2018 3718
2018 4225
2018 6421
2019 32
2019 367
2019 5732
2020 32
2020 40
2020 933
2020 990
2020 1509
2020 1521
2020 1770
2020 1802
2020 1803
2020 1804
2020 3244
2021 32
2021 689
2021 964
2021 4082
2022 32
2022 58
2022 62
2022 189
2022 266
2022 305
2022 1147
2022 1218
2022 4933
2023 32
2023 227
2023 473
2023 674
2023 4406
2023 6422
2024 32
2024 844
2024 1119
2024 1305
2024 1405
2024 3582
2025 32
2025 161
2025 197
2025 238
2025 304
2026 32
2026 88
2026 195
2026 212
2026 292
2026 1212
2026 1283
2026 2116
2026 3626
2027 33
2027 373
2027 634
2027 1079
2027 1179
2027 1806
2027 2756
2027 3055
2028 33
2028 786
2028 1454
2028 1455
2028 3350
2028 5427
2029 33
2029 80
2029 211
2029 630
2029 642
2029 718
2029 1082
2029 1576
2029 1664
2029 6423
2030 33
2030 256
2030 786
2030 1061
2031 33
2031 237
2031 653
2031 1315
2031 1409
2031 1519
2031 5767
2032 31
2032 33
2032 80
2032 88
2032 630
2032 1354
2033 34
2033 51
2033 646
2033 648
2033 1238
2033 1239
2034 34
2034 87
2034 154
2034 926
2034 1565
2034 2300
2034 2787
2034 6424
2035 34
2035 50
2035 78
2035 334
2035 1044
2036 34
2036 56
2036 88
2036 175
2036 1449
2036 1450
2036 1966
2037 34
2037 59
2037 75
2037 77
2037 1386
2037 2330
2037 2572
2037 6425
2038 34
2038 87
2038 849
2038 4289
2038 4692
2038 5599
2038 6426
2039 34
2039 69
2039 87
2039 863
2039 1406
2039 6427
2040 34
2040 110
2040 206
2040 480
2040 2621
2040 3666
2041 34
2041 1185
2041 1626
2041 2454
2041 4313
2041 6428
2042 34
2042 64
2042 66
2042 87
2042 88
2042 196
2042 729
2042 1311
2042 4892
2042 6429
2043 34
2043 153
2043 313
2043 314
2043 578
2043 1400
2043 1773
2043 2521
2043 2620
2043 3000
2043 3913
2043 6294
2044 34
2044 72
2044 107
2044 152
2044 190
2044 437
2044 952
2044 1360
2044 3038
2044 4718
2045 34
2045 70
2045 85
2045 513
2045 652
2045 1038
2045 4669
2046 34
2046 35
2046 255
2046 769
2046 925
2046 2827
2047 35
2047 70
2047 77
2047 114
2047 154
2047 595
2047 712
2047 3064
2048 35
2048 211
2048 233
2048 358
2048 1039
2049 35
2050 35
2050 203
2050 740
2050 1449
2051 35
2051 86
2051 301
2051 978
2051 993
2051 1220
2051 1513
2052 36
2052 706
2052 1241
2052 1244
2052 2069
2052 2278
2053 36
2053 995
2053 6430
2054 36
2054 776
2054 821
2054 1577
2055 36
2055 57
2055 69
2055 114
2055 161
2055 225
2055 525
2055 598
2055 665
2055 765
2055 844
2055 1325
2055 1385
2055 2233
2055 2331
2055 4221
2056 36
2056 88
2056 437
2056 451
2056 594
2056 646
2056 850
2056 1359
2056 1837
2056 2620
2056 3580
2056 4261
2056 6431
2057 36
2057 57
2057 83
2057 525
2057 1734
2057 2411
2057 4223
2058 36
2058 1029
2058 1044
2058 6432
2059 37
2059 55
2059 76
2059 88
2059 299
2059 315
2059 401
2059 489
2059 548
2059 801
2059 877
2059 1373
2059 1858
2060 37
2060 87
2060 88
2060 639
2060 665
2060 1192
2060 1754
2060 1793
2060 2783
2060 2822
2061 37
2061 68
2061 73
2061 589
2061 1525
2061 2081
2061 2433
2061 5637
2062 37
2062 47
2062 85
2062 366
2062 1127
2062 1514
2062 1515
2063 37
2063 67
2063 411
2063 513
2063 589
2063 775
2063 1386
2063 1524
2063 1821
2063 2010
2063 2330
2064 37
2064 421
2064 561
2064 639
2064 1921
2064 2618
2064 2822
2065 37
2065 47
2065 57
2065 194
2065 392
2065 401
2065 585
2065 662
2065 2447
2066 38
2066 74
2066 87
2066 1555
2066 1556
2066 1557
2066 1700
2066 3284
2067 38
2067 167
2067 205
2067 465
2067 743
2067 803
2067 1652
2067 2295
2067 2304
2068 38
2068 44
2068 85
2068 94
2068 202
2068 381
2068 942
2068 994
2068 1135
2068 2695
2068 3040
2068 3588
2069 38
2069 66
2069 87
2069 88
2069 242
2069 641
2069 739
2069 1069
2069 2052
2069 2214
2069 2697
2070 38
2070 502
2070 1227
2071 38
2071 196
2071 807
2071 1988
2072 38
2072 994
2072 3624
2072 6433
2072 6434
2073 38
2073 85
2073 86
2073 87
2073 88
2073 175
2073 1527
2074 39
2074 71
2074 78
2074 88
2074 585
2074 1187
2074 2750
2075 39
2075 191
2075 648
2075 1122
2075 2077
2075 4312
2076 39
2076 82
2077 39
2077 883
2077 884
2077 2075
2078 39
2078 88
2078 153
2078 981
2078 1212
2078 2515
2078 2626
2078 5259
2079 39
2079 1350
2079 1562
2079 2790
2079 3298
2079 5087
2080 39
2080 60
2080 72
2080 84
2080 157
2080 366
2080 805
2080 1589
2081 39
2081 88
2081 981
2081 1156
2081 1227
2081 1300
2081 2061
2081 2738
2081 6435
2082 39
2082 43
2082 77
2082 154
2082 175
2082 306
2082 1213
2082 2123
2082 2562
2083 40
2083 129
2083 310
2083 435
2083 695
2083 1203
2083 1254
2083 5153
2084 40
2084 1834
2084 2647
2084 4751
2085 40
2085 541
2085 3078
2085 6237
2086 40
2086 162
2086 426
2086 1761
2086 3021
2087 40
2087 541
2087 911
2087 1247
2087 1416
2087 3934
2088 40
2088 84
2088 581
2088 619
2088 848
2088 952
2088 1364
2088 2230
2088 2733
2089 40
2089 75
2089 81
2089 483
2089 541
2089 2800
2089 3020
2089 4647
2090 40
2090 64
2090 81
2090 6436
2091 40
2091 66
2091 77
2091 592
2091 775
2091 793
2091 1037
2091 1178
2091 1406
2091 1434
2091 1967
2091 2720
2092 40
2092 45
2092 88
2092 228
2092 279
2092 281
2092 1689
2092 1761
2092 1762
2092 1763
2093 40
2093 215
2093 281
2093 782
2093 871
2093 2963
2093 3656
2093 5524
2094 40
2094 56
2094 483
2094 700
2094 823
2094 1236
2094 1613
2094 1771
2095 40
2095 68
2095 81
2095 86
2095 152
2095 170
2095 182
2095 834
2095 1075
2095 1164
2095 1569
2095 1644
2095 1967
2095 2383
2095 2887
2095 3652
2095 4699
2096 40
2096 226
2096 757
2096 996
2097 41
2097 57
2097 67
2097 73
2097 74
2097 75
2097 78
2097 85
2097 260
2097 392
2097 415
2097 676
2097 801
2097 975
2097 1086
2098 41
2098 1052
2098 1414
2098 1467
2098 1624
2098 3699
2098 6437
2099 41
2099 56
2099 179
2099 203
2099 268
2099 290
2099 495
2099 802
2099 1020
2099 1846
2099 1847
2099 1848
2099 2141
2100 41
2100 56
2100 83
2100 125
2100 140
2100 392
2100 649
2100 1031
2100 1605
2100 5252
2101 41
2101 65
2101 334
2101 802
2101 1058
2101 2945
2101 3419
2101 3779
2101 5421
2102 41
2102 141
2102 2556
2102 3214
2102 5575
2103 41
2103 83
2103 103
2103 646
2103 1006
2103 4475
2103 6438
2104 41
2104 749
2104 802
2104 1685
2104 6439
2105 41
2105 69
2105 88
2105 802
2106 41
2106 46
2106 47
2106 54
2106 80
2106 121
2106 380
2106 710
2106 920
2106 1058
2106 1219
2106 1635
2106 1715
2106 2699
2106 4572
2107 41
2107 60
2107 676
2108 42
2108 1413
2108 4044
2109 42
2109 88
2109 820
2109 1345
2110 42
2110 612
2110 701
2110 979
2110 1345
2110 3456
2111 42
2111 292
2111 814
2111 1580
2111 3720
2111 3952
2112 42
2112 123
2112 1160
2112 1802
2112 1918
2112 2352
2112 3490
2112 4878
2113 42
2113 178
2113 189
2113 961
2113 1377
2113 2150
2113 4634
2113 5916
2114 42
2114 144
2114 431
2114 1222
2114 5237
2114 5629
2114 6440
2115 42
2115 747
2115 841
2115 1154
2115 5585
2116 42
2116 53
2116 182
2116 2026
2116 6441
2117 42
2117 997
2117 1174
2117 2873
2117 6442
2118 42
2118 177
2118 238
2118 691
2118 899
2118 979
2118 1361
2118 3317
2118 4415
2119 42
2119 172
2119 736
2119 1254
2119 3788
2120 42
2121 43
2121 72
2121 74
2121 75
2121 175
2121 255
2121 415
2121 795
2121 1461
2121 1515
2121 1880
2121 2581
2121 5546
2122 43
2122 51
2122 57
2122 1304
2122 1461
2123 43
2123 54
2123 66
2123 70
2123 74
2123 77
2123 88
2123 102
2123 170
2123 175
2123 339
2123 392
2123 585
2123 2082
2123 2784
2123 2839
2123 3536
2123 6112
2124 43
2124 56
2124 83
2124 84
2124 133
2124 167
2124 608
2124 710
2124 1143
2125 43
2125 56
2125 64
2125 69
2125 88
2125 170
2125 201
2125 289
2125 295
2125 995
2125 1395
2126 43
2126 54
2126 72
2126 366
2126 458
2126 779
2126 1116
2126 1277
2126 1291
2126 2285
2126 2493
2126 2710
2126 5520
2127 43
2127 1517
2128 43
2128 509
2128 541
2128 1672
2128 1727
2128 2301
2128 2460
2128 3671
2128 4398
2129 44
2129 3921
2129 5881
2130 44
2130 88
2130 171
2130 346
2130 409
2130 478
2130 616
2130 801
2130 824
2130 955
2130 1206
2130 1844
2130 1845
2131 44
2131 88
2131 154
2131 224
2131 314
2131 478
2131 1577
2131 1682
2131 1821
2132 44
2132 73
2132 179
2132 823
2132 1377
2132 1823
2133 44
2133 73
2133 88
2133 191
2133 196
2133 262
2133 1514
2133 1747
2133 1748
2133 1749
2134 44
2134 65
2134 86
2134 124
2134 202
2134 392
2134 801
2134 993
2134 1461
2134 1844
2134 2704
2135 44
2135 73
2135 290
2135 1169
2135 1434
2136 44
2136 907
2136 945
2136 1555
2137 44
2137 82
2137 88
2137 114
2137 214
2137 274
2137 419
2137 902
2137 907
2137 2415
2137 3065
2137 6443
2138 44
2138 83
2138 478
2138 5526
2139 44
2139 88
2139 214
2139 285
2139 1853
2139 1929
2139 2363
2139 3784
2139 6364
2140 44
2140 67
2140 114
2140 167
2140 202
2140 203
2140 392
2140 513
2140 3445
2141 44
2141 65
2141 87
2141 88
2141 124
2141 392
2141 483
2141 639
2141 801
2141 849
2141 2099
2141 6444
2141 6445
2142 44
2142 64
2142 76
2142 281
2142 413
2142 478
2142 555
2142 685
2142 756
2142 955
2142 1882
2142 1883
2142 1884
2142 1885
2143 45
2143 967
2144 45
2144 750
2144 1001
2144 1693
2144 3359
2144 5155
2145 45
2145 122
2145 335
2145 637
2145 703
2145 857
2145 1090
2145 1838
2145 1839
2145 1840
2145 1841
2145 1842
2145 1843
2146 45
2146 492
2146 618
2146 874
2146 1073
2146 5155
2146 6446
2147 45
2147 3054
2147 3316
2148 45
2148 210
2148 211
2148 692
2148 3149
2148 5784
2148 6242
2148 6447
2149 45
2149 431
2149 475
2149 1176
2149 1547
2150 45
2150 88
2150 478
2150 552
2150 612
2150 874
2150 2113
2150 2154
2150 3076
2151 45
2151 211
2151 853
2151 1088
2151 1151
2151 1509
2151 1510
2152 45
2152 211
2152 461
2152 590
2152 625
2152 693
2152 1547
2152 4795
2152 5401
2153 45
2153 858
2153 4147
2153 4193
2154 45
2154 122
2154 160
2154 874
2154 1026
2154 1484
2154 1543
2154 2150
2154 3098
2154 4190
2154 5336
2155 45
2155 148
2155 187
2155 661
2155 885
2155 1534
2155 4613
2155 6448
2156 45
2156 237
2156 718
2156 853
2156 862
2156 1784
2156 1877
2156 4373
2157 46
2157 158
2157 206
2157 380
2157 704
2157 4314
2157 4393
2157 4484
2157 6449
2158 46
2158 864
2158 1395
2158 2200
2158 4017
2159 46
2159 68
2159 76
2159 395
2159 563
2159 630
2159 931
2159 1377
2159 6450
2160 46
2160 83
2160 86
2160 120
2160 187
2160 260
2160 483
2160 6451
2161 46
2161 281
2161 810
2161 813
2162 46
2162 3472
2163 46
2163 395
2163 408
2163 634
2163 1082
2164 46
2164 88
2164 291
2164 541
2164 689
2164 6452
2165 46
2165 80
2165 203
2165 210
2165 357
2165 564
2165 604
2165 718
2165 749
2165 772
2165 874
2165 900
2165 1382
2165 1899
2165 1900
2166 46
2166 540
2166 630
2166 1363
2166 1383
2166 2255
2167 46
2167 209
2167 1050
2167 1165
2167 3724
2168 46
2168 88
2168 279
2168 288
2168 592
2168 1349
2168 2250
2168 2462
2168 3570
2168 6452
2169 46
2169 88
2169 4275
2169 6453
2169 6454
2170 47
2170 648
2170 700
2171 47
2171 198
2171 617
2171 1085
2171 2396
2171 3144
2171 5162
2172 47
2172 88
2172 313
2172 392
2172 1133
2173 47
2173 102
2173 1265
2173 1881
2173 6418
2174 47
2174 57
2174 339
2174 421
2174 943
2174 2336
2174 2753
2174 3162
2174 5496
2175 47
2175 75
2175 78
2175 153
2175 170
2175 302
2175 311
2175 313
2175 405
2175 702
2175 1122
2175 1725
2175 1794
2175 1857
2175 1880
2175 1919
2175 1920
2176 47
2176 1069
2176 1963
2176 6004
2177 47
2177 153
2177 180
2177 646
2178 47
2178 67
2178 88
2178 594
2178 1661
2178 2335
2179 48
2179 61
2179 87
2179 179
2179 294
2179 354
2179 366
2179 608
2179 794
2179 905
2179 1022
2179 1351
2179 1614
2179 1892
2179 2707
2180 48
2180 87
2180 88
2180 351
2180 1395
2180 1928
2181 48
2181 3073
2182 48
2183 48
2183 70
2183 71
2183 81
2183 366
2183 483
2183 926
2183 1673
2183 1719
2184 48
2184 53
2184 88
2184 4792
2184 6455
2185 48
2185 86
2185 88
2185 179
2185 260
2185 274
2185 334
2185 502
2185 689
2185 769
2185 5569
2186 48
2186 51
2186 67
2186 170
2186 5871
2186 6456
2187 48
2187 62
2187 84
2187 193
2187 276
2187 717
2187 1047
2187 3144
2187 3489
2187 4452
2187 6280
2188 48
2188 61
2188 71
2188 2355
2188 5365
2189 48
2189 83
2189 204
2189 403
2189 520
2189 625
2189 675
2189 721
2189 733
2189 1209
2189 1237
2189 6457
2190 48
2190 64
2190 124
2190 171
2190 203
2190 688
2190 4653
2191 48
2191 67
2191 120
2191 123
2191 295
2191 413
2191 1220
2191 3322
2192 49
2192 1140
2192 1710
2192 2395
2192 6458
2193 49
2193 172
2193 197
2193 400
2193 481
2193 839
2193 971
2193 1640
2193 1743
2193 1744
2194 49
2195 49
2195 684
2195 1454
2195 4059
2195 6459
2196 49
2196 3130
2196 6260
2197 49
2197 213
2197 460
2197 701
2197 786
2197 1664
2197 1695
2197 1696
2197 2870
2198 49
2198 216
2198 322
2198 330
2198 431
2198 560
2198 620
2198 1003
2198 1541
2198 1674
2198 3807
2198 4119
2199 49
2199 88
2199 201
2199 433
2199 1666
2199 1682
2199 1697
2199 2563
2199 4702
2200 49
2200 88
2200 540
2200 604
2200 1540
2200 1886
2200 2158
2200 4986
2201 49
2201 133
2201 275
2201 321
2201 338
2201 444
2201 644
2201 691
2201 863
2201 1834
2201 1835
2201 1836
2202 49
2202 714
2202 817
2202 863
2203 49
2203 1764
2204 49
2204 431
2204 672
2204 1275
2204 1539
2204 2885
2204 3042
2205 49
2205 343
2205 377
2205 886
2205 1042
2205 1296
2205 1601
2205 2972
2205 3244
2205 4063
2205 6460
2206 49
2206 414
2206 1547
2206 4965
2206 5521
2207 49
2207 134
2207 181
2207 1532
2207 5209
2207 5559
2208 50
2208 1069
2208 3120
2209 50
2209 776
2209 790
2209 1515
2210 50
2210 88
2210 665
2210 1277
2210 3515
2210 4143
2211 50
2211 88
2211 263
2211 303
2211 1110
2212 50
2212 57
2212 744
2212 930
2212 1759
2212 1861
2212 6461
2213 50
2213 86
2213 88
2213 201
2213 426
2213 1485
2213 1653
2213 1965
2213 1976
2213 3018
2213 3138
2213 3497
2214 50
2214 721
2214 1123
2214 1941
2214 2069
2214 6462
2215 50
2215 275
2215 675
2215 1146
2215 1367
2215 1369
2216 50
2216 72
2216 87
2216 88
2216 648
2216 849
2216 1565
2216 1615
2217 50
2217 190
2217 366
2217 665
2217 1372
2217 2574
2218 50
2218 69
2218 86
2218 170
2218 405
2218 776
2218 1535
2219 51
2219 87
2219 653
2219 1227
2219 1380
2219 1486
2219 2456
2220 51
2220 75
2220 202
2220 295
2220 1033
2220 1319
2221 51
2221 1450
2221 1854
2222 51
2222 392
2223 51
2223 125
2223 1146
2223 1793
2224 51
2224 243
2224 405
2224 684
2224 711
2224 823
2224 1129
2224 1675
2224 1718
2225 51
2225 57
2225 64
2225 74
2225 85
2225 646
2225 1122
2225 1556
2225 4804
2226 50
2226 51
2226 71
2226 153
2226 437
2226 675
2226 1528
2227 51
2227 75
2227 78
2227 87
2227 594
2227 607
2227 641
2227 1037
2227 1122
2227 1440
2227 1523
2227 1837
2228 51
2228 85
2228 254
2228 257
2228 685
2228 711
2228 749
2228 791
2228 1231
2228 2435
2228 2556
2228 3072
2228 3076
2228 3938
2228 6463
2229 51
2229 67
2229 88
2229 510
2229 781
2229 1660
2229 2568
2229 2728
2229 6464
2230 51
2230 83
2230 150
2230 194
2230 607
2230 1364
2230 2088
2230 2791
2230 3446
2230 3663
2230 6406
2231 52
2231 78
2231 658
2231 1361
2231 5969
2232 52
2232 826
2232 1371
2233 52
2233 248
2233 599
2233 696
2233 950
2233 1128
2233 1484
2233 2055
2233 4392
2234 52
2234 69
2234 86
2234 187
2234 193
2234 197
2234 609
2234 1389
2234 1635
2234 1715
2234 2396
2234 4859
2235 52
2235 88
2235 173
2235 307
2235 693
2235 1275
2235 1509
2235 1698
2235 2690
2235 3042
2235 6465
2236 52
2236 761
2236 1162
2236 1887
2236 3932
2237 52
2237 199
2237 276
2237 1542
2237 2016
2237 4120
2237 4435
2238 52
2239 52
2239 155
2239 469
2239 5237
2240 52
2240 121
2240 187
2240 372
2240 412
2240 684
2240 1437
2241 52
2241 193
2241 297
2241 379
2241 382
2241 426
2241 668
2241 885
2241 1674
2242 52
2242 88
2242 552
2242 4945
2242 5897
2243 52
2243 211
2243 552
2243 1409
2243 5179
2244 52
2244 162
2244 864
2244 1413
2244 1414
2244 3139
2245 53
2245 280
2245 403
2245 412
2245 431
2245 658
2245 906
2245 998
2245 1129
2245 1166
2245 1628
2245 1688
2245 1797
2245 1890
2245 3529
2246 53
2246 3588
2246 6455
2247 53
2247 88
2247 3774
2247 6466
2248 53
2248 209
2248 547
2249 53
2249 6467
2250 53
2250 382
2250 1234
2250 1865
2250 1870
2250 2168
2251 53
2251 1886
2252 53
2252 88
2252 256
2252 497
2252 1259
2252 1412
2252 3602
2252 6249
2253 53
2253 371
2253 931
2253 1131
2253 2397
2254 53
2254 1742
2254 2563
2254 2946
2255 53
2255 195
2255 320
2255 540
2255 786
2255 1667
2255 2166
2255 4783
2255 4841
2256 53
2256 3893
2256 5918
2256 6468
2257 53
2257 207
2257 213
2257 400
2257 605
2257 1080
2257 1635
2257 4439
2258 53
2258 563
2258 1058
2258 1482
2258 1504
2258 1505
2258 1506
2259 53
2259 88
2259 213
2259 288
2259 300
2259 414
2259 540
2259 620
2259 701
2259 1635
2259 1688
2259 1866
2259 1867
2260 46
2260 53
2260 73
2260 219
2260 1320
2260 1731
2261 39
2261 54
2261 78
2261 82
2261 88
2261 185
2261 202
2262 54
2262 171
2262 416
2262 1685
2263 54
2263 89
2263 120
2263 281
2263 330
2263 352
2263 462
2263 710
2263 964
2263 5766
2263 6469
2263 6470
2264 54
2264 2945
2264 6379
2264 6471
2265 54
2265 87
2265 2363
2266 54
2266 67
2266 87
2266 88
2266 1920
2266 2273
2266 2462
2266 2926
2266 6394
2267 54
2267 88
2267 330
2267 723
2267 946
2267 1318
2268 54
2268 646
2268 1748
2268 1938
2268 6400
2268 6472
2269 54
2269 793
2270 54
2270 127
2270 197
2270 398
2270 2271
2271 54
2271 179
2271 281
2271 2270
2271 6473
2272 54
2272 216
2272 1431
2272 1898
2272 2013
2273 54
2273 1127
2273 2266
2273 3972
2274 54
2274 552
2274 615
2274 859
2274 1139
2274 1941
2274 3127
2274 3361
2274 6474
2274 6475
2275 55
2275 189
2275 262
2275 321
2275 333
2275 592
2275 635
2275 804
2275 918
2275 1635
2275 1868
2275 6318
2275 6476
2276 55
2276 88
2276 1263
2276 3476
2277 55
2277 260
2277 485
2277 529
2277 1154
2277 4858
2278 55
2278 194
2278 1290
2278 1291
2278 2052
2278 4282
2279 55
2279 632
2279 3529
2280 55
2280 987
2280 1080
2280 1746
2280 2282
2281 52
2281 55
2281 393
2281 815
2282 55
2282 199
2282 303
2282 612
2282 701
2282 739
2282 987
2282 2280
2283 55
2283 88
2283 203
2283 864
2283 1148
2283 1476
2283 1531
2284 56
2284 272
2284 534
2284 948
2284 1070
2284 6477
2285 56
2285 72
2285 79
2285 85
2285 366
2285 466
2285 919
2285 1126
2285 1291
2285 2126
2285 2655
2285 4805
2286 56
2286 64
2286 66
2286 70
2286 73
2286 83
2286 157
2286 392
2286 548
2286 884
2287 56
2287 86
2287 413
2287 581
2287 721
2287 1415
2287 1558
2287 1560
2288 56
2288 222
2288 318
2288 790
2288 1304
2288 2295
2288 5533
2289 56
2289 742
2289 1161
2289 1573
2290 56
2290 60
2290 81
2290 334
2290 1265
2290 1275
2291 25
2291 56
2291 74
2291 82
2291 598
2291 700
2291 2880
2292 56
2292 60
2292 165
2292 502
2292 700
2293 6
2293 56
2293 6094
2294 56
2294 88
2294 275
2294 551
2294 1487
2294 1708
2294 3262
2295 56
2295 88
2295 170
2295 294
2295 465
2295 1369
2295 1558
2295 1748
2295 1934
2295 2067
2295 2288
2296 38
2296 57
2296 67
2296 82
2296 167
2296 895
2296 1039
2296 1406
2297 51
2297 57
2297 69
2297 72
2297 79
2297 88
2297 185
2298 57
2298 779
2298 1039
2299 57
2299 366
2300 57
2300 81
2300 170
2300 289
2300 2034
2300 5301
2301 57
2301 71
2301 82
2301 509
2301 1525
2301 1748
2301 1957
2301 2128
2301 6478
2302 57
2302 803
2302 940
2302 1178
2303 57
2303 666
2303 1529
2303 2940
2303 3071
2303 5102
2303 6224
2304 57
2304 88
2304 185
2304 2067
2304 4964
2305 57
2305 185
2305 190
2305 778
2305 2305
2305 4168
2306 57
2306 185
2306 1201
2306 1238
2306 2880
2307 54
2307 57
2307 202
2307 1440
2308 58
2308 699
2309 58
2309 70
2309 150
2309 405
2309 502
2309 978
2309 1012
2309 1302
2309 1798
2309 2774
2309 3098
2309 4377
2310 58
2310 218
2310 953
2310 5161
2310 6479
2311 58
2311 1449
2311 2325
2312 58
2312 88
2312 219
2312 871
2312 962
2312 1951
2312 5633
2313 58
2313 665
2313 746
2313 1432
2313 1558
2313 1604
2313 2570
2314 58
2314 411
2314 619
2314 1889
2314 2999
2314 3003
2315 58
2316 58
2316 88
2316 284
2316 419
2316 485
2316 665
2316 722
2316 961
2316 988
2316 1365
2316 1387
2316 1614
2316 1904
2316 1905
2316 1906
2316 1907
2317 58
2317 88
2317 206
2317 356
2317 380
2317 564
2317 3696
2317 4469
2317 4930
2318 58
2318 150
2318 417
2318 2368
2319 58
2319 88
2319 770
2319 2557
2319 4876
2319 6480
2320 58
2320 6481
2321 58
2321 84
2321 86
2321 2321
2322 58
2322 83
2322 84
2322 88
2322 185
2322 218
2322 644
2322 3214
2322 3799
2322 5634
2323 58
2323 84
2323 208
2323 284
2323 611
2323 678
2323 984
2323 3830
2323 5784
2323 6482
2324 58
2324 3855
2324 6483
2325 58
2325 909
2325 2311
2325 3481
2326 58
2326 402
2326 736
2326 1147
2326 1151
2326 3463
2326 6484
2327 58
2327 909
2327 5761
2327 6485
2328 58
2328 215
2328 218
2328 419
2328 825
2328 968
2328 1191
2328 1549
2328 3708
2329 58
2329 670
2329 1871
2329 2014
2329 4924
2330 59
2330 153
2330 294
2330 1181
2330 1440
2330 2037
2330 2063
2330 5031
2331 59
2331 86
2331 154
2331 181
2331 306
2331 721
2331 1206
2331 1280
2331 1523
2331 1880
2331 2055
2331 2562
2332 59
2332 255
2332 2932
2332 5447
2332 6486
2333 59
2333 66
2333 510
2333 719
2334 59
2334 585
2334 1241
2334 1311
2334 1392
2334 1400
2335 59
2335 88
2335 175
2335 1927
2335 2178
2336 59
2336 77
2336 203
2336 423
2336 652
2336 775
2336 1068
2336 1527
2336 2174
2336 2617
2336 2648
2337 60
2337 88
2337 203
2337 236
2337 883
2337 1081
2337 1127
2337 1854
2338 60
2338 86
2339 60
2339 63
2339 68
2339 73
2339 197
2339 418
2339 696
2339 1490
2339 1583
2339 1713
2339 1824
2339 1825
2340 44
2340 60
2340 82
2340 88
2340 907
2340 942
2341 60
2341 189
2341 329
2342 60
2342 743
2342 938
2342 1718
2343 60
2343 282
2343 316
2343 851
2343 1336
2343 1444
2343 2363
2343 5697
2344 60
2345 60
2345 76
2345 115
2345 234
2345 556
2345 1063
2345 1594
2345 1645
2345 3257
2345 3792
2345 5903
2346 60
2346 150
2346 167
2346 316
2346 374
2346 1612
2346 1712
2346 2503
2346 3801
2346 5478
2346 6487
2347 60
2347 75
2347 149
2347 150
2347 289
2347 381
2347 513
2347 589
2347 1758
2347 1759
2348 60
2348 87
2348 657
2348 794
2348 1156
2348 1357
2348 2795
2348 6246
2349 60
2349 823
2349 1688
2349 1900
2349 5855
2349 6488
2350 53
2350 60
2350 987
2350 4317
2351 60
2351 70
2351 88
2351 274
2351 902
2351 1356
2352 61
2352 72
2352 74
2352 79
2352 176
2352 608
2352 1220
2352 1357
2352 1690
2352 1910
2352 1967
2352 2112
2352 2687
2352 6489
2353 61
2353 87
2353 136
2353 215
2353 234
2353 265
2353 667
2353 1142
2353 1220
2353 1323
2353 2368
2353 3195
2353 5305
2354 61
2354 67
2354 318
2354 389
2354 540
2354 1351
2354 2362
2354 2363
2354 2370
2354 2644
2354 3049
2354 4985
2354 5721
2355 61
2355 71
2355 79
2355 1351
2355 1442
2355 1444
2355 2188
2356 61
2356 207
2356 351
2356 551
2356 924
2356 1220
2356 4672
2356 4900
2357 61
2357 2384
2357 3719
2357 6490
2358 61
2358 401
2358 659
2358 1236
2358 1393
2358 3039
2359 61
2359 743
2359 1334
2359 1416
2360 61
2360 67
2360 83
2360 88
2360 1246
2360 1323
2360 2364
2360 3408
2360 3688
2361 61
2361 72
2361 451
2361 587
2361 706
2361 1123
2361 2649
2361 4753
2361 6491
2362 61
2362 175
2362 608
2362 1351
2362 1774
2362 2354
2362 2363
2362 2644
2362 3049
2362 3798
2362 4352
2362 4985
2362 4989
2363 61
2363 589
2363 2139
2363 2265
2363 2343
2363 2354
2363 2362
2363 2624
2363 2731
2363 4985
2364 61
2364 275
2364 318
2364 1254
2364 2360
2364 3408
2364 5353
2365 61
2365 87
2365 215
2365 354
2365 745
2365 1212
2365 2794
2365 3423
2365 4606
2366 61
2366 560
2366 608
2366 1333
2366 2367
2366 2369
2366 2731
2366 5095
2366 6492
2367 61
2367 607
2367 648
2367 1334
2367 1351
2367 2366
2368 61
2368 64
2368 65
2368 73
2368 86
2368 120
2368 124
2368 137
2368 392
2368 555
2368 650
2368 750
2368 994
2368 1934
2368 2318
2368 2353
2368 2407
2368 3509
2369 61
2369 648
2369 942
2369 1039
2369 1106
2369 1605
2369 1606
2369 2366
2370 61
2370 389
2370 555
2370 608
2370 1351
2370 1832
2370 2354
2370 4379
2371 61
2371 199
2371 254
2371 406
2371 502
2371 774
2371 985
2371 1312
2371 1351
2371 1481
2371 1513
2371 2626
2371 3658
2372 61
2372 3656
2372 3820
2373 61
2373 69
2373 71
2373 75
2373 87
2373 88
2373 548
2373 1728
2373 2411
2374 62
2375 62
2375 3595
2376 62
2376 148
2376 621
2376 2381
2377 62
2377 610
2377 4535
2378 62
2378 544
2378 717
2379 62
2379 83
2379 139
2379 149
2379 180
2379 716
2379 887
2379 1693
2379 1694
2380 62
2380 273
2380 388
2380 414
2380 1528
2380 2393
2381 62
2381 148
2381 487
2381 621
2381 2376
2382 62
2382 148
2382 1189
2382 1804
2382 5172
2383 62
2383 324
2383 508
2383 647
2383 714
2383 742
2383 839
2383 924
2383 1075
2383 1611
2383 2095
2383 3361
2383 5335
2384 62
2384 330
2384 863
2384 1497
2384 1593
2384 1628
2384 1629
2384 2357
2385 62
2385 87
2385 88
2385 687
2385 727
2385 1030
2385 1549
2385 1640
2385 2385
2385 4184
2386 62
2386 404
2386 410
2386 417
2386 690
2386 1276
2386 2396
2386 4331
2386 6493
2387 62
2387 799
2387 988
2387 5786
2388 62
2388 198
2388 238
2388 617
2388 1147
2388 2588
2388 5593
2389 63
2389 432
2389 694
2389 1089
2389 1862
2389 3734
2389 3867
2389 5782
2390 63
2390 88
2390 259
2390 760
2390 1483
2390 1598
2390 6494
2391 63
2391 435
2391 540
2391 1128
2391 1129
2392 63
2392 813
2392 3056
2392 3155
2393 63
2393 273
2393 717
2393 1715
2393 1972
2393 2380
2393 3546
2393 6037
2394 63
2394 68
2394 116
2394 162
2394 172
2394 227
2394 312
2394 922
2394 1119
2394 1462
2394 1730
2394 1802
2394 1868
2394 1869
2395 63
2395 291
2395 1030
2395 1147
2395 1162
2395 2192
2395 2975
2395 3512
2395 5587
2396 63
2396 222
2396 328
2396 668
2396 1094
2396 2171
2396 2234
2396 2386
2396 3189
2396 4826
2397 63
2397 277
2397 1103
2397 2253
2397 6495
2398 53
2398 63
2398 213
2398 342
2398 839
2399 63
2399 304
2399 479
2399 545
2399 1640
2399 3031
2399 3501
2399 3858
2399 5951
2399 6483
2400 63
2401 63
2401 1335
2401 1371
2401 3029
2401 4303
2401 6496
2401 6497
2402 63
2402 1148
2403 63
2403 237
2403 387
2403 450
2403 625
2403 786
2403 1117
2403 1150
2403 2588
2403 4516
2403 5321
2404 64
2404 77
2404 666
2404 719
2404 1122
2405 64
2405 77
2405 87
2405 108
2405 114
2405 949
2405 1527
2405 1683
2405 1684
2406 64
2406 71
2406 74
2406 77
2406 78
2406 205
2406 274
2406 392
2406 489
2406 619
2406 1855
2406 1856
2406 1857
2407 64
2407 84
2407 87
2407 254
2407 1243
2407 2368
2407 2545
2408 64
2408 77
2408 78
2408 85
2408 88
2408 153
2408 652
2408 662
2408 1652
2408 1776
2408 1777
2409 64
2409 82
2409 1209
2409 1237
2409 1641
2409 2765
2410 64
2410 87
2410 102
2410 157
2410 1880
2410 6498
2410 6499
2411 64
2411 82
2411 83
2411 86
2411 262
2411 489
2411 780
2411 1043
2411 1496
2411 2057
2411 2373
2412 64
2412 71
2412 102
2412 1040
2412 1493
2412 1692
2412 3003
2413 64
2413 978
2413 2432
2414 57
2414 64
2414 71
2414 194
2414 1432
2414 1910
2414 4677
2415 64
2415 72
2415 88
2415 514
2415 702
2415 1313
2415 1592
2415 1854
2415 1855
2415 2137
2415 3669
2415 6500
2416 64
2416 88
2416 6501
2417 64
2417 2567
2418 64
2418 65
2418 81
2418 85
2418 87
2418 88
2418 171
2418 175
2418 191
2418 194
2418 260
2418 676
2418 712
2418 884
2418 926
2419 65
2419 73
2419 77
2419 87
2419 124
2419 179
2419 334
2419 403
2419 417
2419 683
2419 769
2419 1823
2420 65
2420 1034
2421 65
2421 88
2421 170
2421 175
2421 289
2421 585
2421 1445
2422 65
2422 79
2422 171
2422 403
2422 854
2422 994
2422 1221
2422 2577
2422 4485
2423 65
2423 88
2423 5842
2424 65
2424 225
2424 743
2424 940
2424 1178
2424 1381
2425 48
2425 65
2425 81
2425 170
2425 260
2425 502
2425 706
2425 926
2425 993
2426 65
2426 170
2426 489
2426 987
2426 1031
2426 1629
2426 5248
2427 65
2427 81
2427 86
2427 88
2427 265
2427 381
2427 695
2427 940
2427 2517
2427 2521
2427 4019
2428 31
2428 65
2428 869
2428 6502
2429 65
2429 116
2429 371
2429 1373
2429 1876
2429 6503
2430 65
2430 316
2430 587
2430 849
2430 1127
2430 2437
2430 2786
2430 4289
2430 6428
2431 65
2431 316
2431 4732
2431 6504
2432 65
2432 71
2432 79
2432 83
2432 303
2432 392
2432 711
2432 1239
2432 2413
2432 2518
2432 2709
2432 2820
2432 3065
2433 65
2433 916
2433 2061
2434 65
2434 86
2434 87
2434 88
2434 124
2434 141
2434 316
2434 502
2434 683
2434 2772
2434 6379
2435 65
2435 188
2435 259
2435 791
2435 835
2435 1334
2435 2228
2435 3072
2435 3561
2435 6505
2436 65
2436 1393
2436 6506
2437 65
2437 88
2437 311
2437 2430
2437 4315
2437 6507
2438 65
2438 334
2438 667
2438 1153
2438 1205
2438 1324
2438 1643
2438 1644
2439 66
2439 949
2439 981
2439 1527
2440 66
2440 88
2440 306
2440 399
2440 803
2440 981
2440 1562
2440 1919
2441 66
2441 88
2441 313
2441 1167
2441 2639
2442 66
2442 88
2442 225
2442 2593
2442 3769
2443 66
2443 294
2443 311
2443 594
2443 1181
2443 2459
2443 3162
2443 6425
2444 66
2444 242
2444 509
2444 979
2444 1392
2444 1725
2444 1919
2444 5509
2445 66
2445 87
2445 639
2446 66
2446 190
2446 194
2446 301
2446 719
2447 66
2447 981
2447 1332
2447 1386
2447 2065
2447 2462
2448 66
2448 1801
2448 6508
2449 39
2449 66
2449 87
2449 88
2449 943
2449 949
2449 2940
2450 66
2450 153
2450 200
2450 201
2450 202
2450 2462
2450 5461
2451 66
2451 201
2451 262
2451 381
2451 463
2451 1724
2451 1725
2451 1726
2451 1727
2452 66
2452 255
2452 421
2452 842
2452 2786
2452 2812
2453 66
2453 107
2453 152
2453 437
2453 803
2453 952
2453 3037
2453 3038
2453 5596
2454 66
2454 79
2454 153
2454 421
2454 981
2454 1527
2454 1880
2454 1920
2454 2041
2454 4531
2455 66
2455 1067
2456 66
2456 153
2456 767
2456 1067
2456 1116
2456 1699
2456 2219
2456 6509
2457 67
2457 75
2458 67
2458 77
2458 79
2458 415
2458 421
2458 949
2458 6510
2459 67
2459 314
2459 561
2459 594
2459 776
2459 2443
2460 48
2460 67
2460 289
2460 769
2460 801
2460 2128
2461 67
2461 828
2461 2852
2461 3770
2462 67
2462 85
2462 313
2462 1173
2462 2168
2462 2266
2462 2447
2462 2450
2463 67
2463 87
2463 509
2463 3066
2463 4917
2463 6511
2464 67
2464 75
2464 88
2464 401
2464 1122
2464 1880
2464 3675
2465 67
2466 67
2466 73
2466 422
2466 1107
2466 1461
2466 1523
2466 2466
2467 67
2467 926
2467 1137
2467 1223
2467 1421
2467 2707
2467 6512
2468 67
2468 211
2468 869
2468 1255
2469 67
2469 75
2469 526
2469 1088
2469 1229
2470 68
2470 964
2470 2793
2470 3056
2470 3057
2471 68
2471 215
2471 759
2471 6359
2472 68
2472 680
2472 2482
2473 68
2473 122
2473 687
2473 1401
2473 1607
2473 3609
2474 68
2474 1293
2474 1533
2474 5188
2474 6513
2475 68
2475 80
2475 4605
2475 6514
2476 68
2476 382
2476 934
2476 5317
2477 68
2477 2525
2478 68
2478 867
2478 893
2478 972
2479 68
2479 149
2479 163
2479 209
2479 213
2479 416
2479 1151
2479 1224
2479 1429
2479 4734
2480 68
2481 68
2481 127
2481 186
2481 385
2481 687
2481 812
2481 1362
2481 1745
2481 2666
2481 3634
2481 3716
2481 5362
2482 68
2482 612
2482 701
2482 1151
2482 2472
2482 4042
2483 68
2483 211
2483 402
2483 634
2483 1536
2483 6253
2484 69
2484 88
2484 557
2484 755
2484 1549
2484 1550
2484 1551
2484 1552
2485 69
2485 1359
2486 69
2486 72
2486 185
2486 392
2486 675
2486 778
2486 1192
2486 1406
2486 1795
2487 69
2487 509
2487 582
2487 1565
2488 69
2488 161
2488 2488
2488 3309
2488 6503
2489 50
2489 69
2489 84
2489 405
2489 1115
2490 69
2490 81
2490 85
2490 125
2490 179
2490 274
2490 423
2490 548
2490 1144
2490 1774
2490 1775
2491 69
2491 561
2491 6515
2492 69
2492 191
2492 640
2492 695
2492 2558
2493 69
2493 72
2493 114
2493 224
2493 479
2493 2126
2493 2533
2493 3755
2494 69
2494 88
2494 1227
2494 1824
2494 5748
2494 5904
2495 69
2495 71
2495 381
2495 801
2495 926
2495 2685
2496 69
2496 190
2496 314
2496 646
2496 1909
2496 6082
2497 69
2497 88
2497 6516
2498 69
2498 70
2498 77
2498 895
2498 1239
2498 3917
2498 6517
2499 69
2499 1639
2499 6272
2500 69
2500 72
2500 541
2500 1025
2500 1772
2500 5725
2500 6518
2501 69
2501 72
2501 483
2502 69
2502 240
2502 557
2502 722
2502 1035
2502 1267
2502 1578
2502 3770
2503 69
2503 1145
2503 1712
2503 2346
2503 4103
2503 5205
2504 70
2504 170
2504 171
2504 175
2504 306
2504 1928
2504 3419
2505 70
2505 87
2505 88
2505 114
2505 607
2505 646
2505 930
2505 1652
2505 2785
2506 67
2506 70
2507 70
2507 187
2507 215
2507 416
2507 658
2507 760
2507 1427
2508 70
2508 78
2508 79
2508 956
2508 1771
2508 6519
2509 70
2509 190
2509 255
2510 70
2510 389
2510 398
2510 409
2510 795
2510 881
2510 902
2510 1129
2510 6520
2511 70
2511 194
2512 70
2512 88
2512 4533
2513 70
2513 421
2513 594
2513 940
2513 1381
2513 1661
2513 1791
2513 1793
2513 1794
2513 1795
2513 2568
2514 56
2514 70
2514 739
2514 776
2515 70
2515 1516
2515 1613
2515 2078
2515 6521
2516 70
2516 911
2516 1416
2516 3690
2517 70
2517 88
2517 199
2517 676
2517 870
2517 940
2517 2427
2517 2791
2517 4282
2517 6522
2518 70
2518 79
2518 86
2518 87
2518 88
2518 401
2518 603
2518 1156
2518 1333
2518 2432
2518 2524
2518 2898
2519 70
2519 75
2519 88
2519 196
2519 1206
2520 70
2520 85
2520 311
2520 594
2520 943
2520 1406
2521 71
2521 88
2521 108
2521 585
2521 930
2521 1579
2521 2043
2521 2427
2521 2703
2521 3289
2521 6523
2522 71
2522 851
2522 914
2522 1938
2523 71
2523 652
2523 981
2523 1123
2523 2704
2523 6524
2524 35
2524 71
2524 1404
2524 2518
2524 2525
2525 71
2525 79
2525 2477
2525 2524
2526 71
2526 88
2526 201
2526 1122
2526 1192
2527 71
2527 87
2527 88
2527 3592
2527 4288
2528 71
2528 598
2528 786
2528 1316
2528 1433
2528 1455
2528 1464
2529 71
2529 594
2529 1525
2530 71
2530 75
2530 82
2530 378
2530 381
2530 399
2530 578
2530 1136
2530 1698
2530 1760
2531 71
2531 87
2531 88
2531 154
2531 351
2531 4883
2531 5871
2532 72
2532 103
2532 204
2532 254
2532 761
2532 1501
2532 3831
2533 72
2533 224
2533 1042
2533 2493
2533 3031
2534 72
2534 188
2534 1204
2534 2535
2534 3520
2534 3971
2535 72
2535 1204
2535 2534
2535 3681
2536 72
2537 72
2537 79
2537 81
2537 215
2537 260
2537 389
2537 403
2537 502
2537 2810
2537 2975
2537 3373
2538 72
2538 88
2538 314
2538 350
2538 582
2538 744
2538 803
2538 850
2538 930
2538 952
2538 1359
2538 1860
2538 1861
2539 72
2539 75
2539 125
2539 176
2539 483
2539 595
2539 3841
2539 6525
2540 72
2540 1032
2540 1163
2540 1424
2540 1734
2540 2655
2541 72
2541 77
2541 88
2541 102
2541 154
2541 171
2541 513
2541 1678
2541 2650
2542 72
2542 255
2542 1456
2543 73
2543 262
2543 633
2543 815
2543 996
2543 1186
2543 1300
2543 1516
2543 1606
2543 2633
2543 6010
2544 73
2544 282
2544 684
2545 73
2545 834
2545 900
2545 2407
2546 73
2546 191
2546 589
2546 683
2546 981
2546 1386
2546 1456
2546 1683
2546 2594
2546 3064
2547 73
2547 286
2547 450
2547 604
2547 685
2547 953
2547 1053
2547 1567
2548 33
2548 73
2548 156
2548 455
2548 563
2548 691
2548 1159
2548 1862
2548 3734
2548 4067
2549 73
2549 334
2549 749
2549 938
2549 1309
2549 1341
2550 54
2550 73
2551 73
2552 73
2552 86
2552 714
2552 973
2552 1642
2552 5412
2553 73
2553 81
2553 86
2553 88
2553 124
2553 179
2553 200
2553 657
2553 901
2553 1098
2553 1202
2553 1445
2553 1875
2553 1876
2554 73
2554 88
2554 89
2554 413
2554 1731
2554 3472
2554 4602
2554 4999
2554 5205
2555 73
2555 86
2555 88
2555 190
2555 2938
2555 5238
2556 73
2556 82
2556 88
2556 179
2556 1420
2556 2102
2556 2228
2557 73
2557 88
2557 2009
2557 2319
2557 6526
2558 73
2558 75
2558 84
2558 179
2558 334
2558 526
2558 1858
2558 2492
2558 3474
2559 55
2559 74
2559 739
2559 1557
2560 74
2561 74
2561 85
2561 1173
2561 2574
2561 6432
2561 6527
2562 74
2562 2082
2562 2331
2563 74
2563 626
2563 858
2563 1379
2563 2199
2563 2254
2563 3831
2563 3986
2563 6528
2564 74
2564 5863
2565 74
2565 78
2565 88
2565 443
2565 509
2565 606
2565 1481
2566 70
2566 74
2566 185
2566 202
2566 801
2566 1461
2566 1681
2567 74
2567 88
2567 124
2567 2417
2567 6232
2568 74
2568 296
2568 302
2568 421
2568 594
2568 842
2568 1381
2568 1661
2568 1684
2568 1735
2568 1737
2568 2229
2568 2513
2568 2785
2569 74
2569 171
2569 2999
2569 6321
2569 6529
2570 74
2570 746
2570 1187
2570 1406
2570 1432
2570 1557
2570 1604
2570 2313
2571 74
2571 79
2571 259
2571 508
2571 987
2571 5875
2571 6530
2572 74
2572 77
2572 88
2572 548
2572 581
2572 1005
2572 1525
2572 2037
2572 3590
2572 4485
2573 53
2573 74
2573 329
2573 1560
2573 4131
2574 74
2574 1238
2574 1280
2574 1392
2574 2217
2574 2561
2575 74
2575 940
2575 1213
2575 3071
2576 74
2576 75
2576 1580
2576 6531
2577 70
2577 74
2577 306
2577 2422
2578 73
2578 74
2578 483
2578 589
2578 815
2578 1336
2579 51
2579 74
2579 662
2580 75
2580 180
2580 413
2580 1020
2580 1021
2581 75
2581 118
2581 1278
2581 1727
2581 2121
2581 2839
2582 75
2582 88
2582 255
2582 1185
2583 75
2584 54
2584 75
2584 1187
2585 75
2585 415
2586 75
2586 338
2586 749
2586 788
2586 1377
2586 1428
2586 1495
2587 56
2587 75
2587 87
2587 1833
2588 75
2588 455
2588 1537
2588 1590
2588 1591
2588 1796
2588 2388
2588 2403
2589 75
2589 87
2589 150
2589 179
2589 298
2589 360
2589 412
2589 669
2589 1119
2589 1445
2589 1642
2589 1872
2589 1873
2589 1874
2590 75
2590 302
2590 1837
2590 6532
2591 24
2591 75
2591 80
2591 788
2591 911
2592 75
2592 1380
2592 2909
2592 3292
2592 6232
2593 75
2593 526
2593 2442
2594 75
2594 1243
2594 1308
2594 1337
2594 1699
2594 2546
2595 75
2595 88
2595 254
2595 3786
2596 76
2596 6533
2597 76
2598 76
2598 263
2598 273
2598 435
2598 1654
2598 1655
2598 1656
2598 1657
2598 1658
2599 76
2599 6534
2600 76
2600 1406
2600 3162
2601 76
2601 1059
2601 1500
2601 1816
2602 76
2602 533
2602 938
2602 996
2602 1160
2602 1278
2603 76
2603 88
2603 211
2603 1109
2603 3078
2604 76
2604 6106
2605 76
2605 177
2605 556
2605 620
2605 3145
2605 6535
2606 76
2606 219
2606 253
2606 342
2606 892
2606 2851
2606 3097
2606 4542
2607 76
2607 224
2607 770
2607 800
2607 1615
2607 1617
2607 1618
2607 1913
2608 76
2608 959
2608 2965
2608 5775
2609 76
2609 182
2609 467
2609 984
2609 1134
2609 1426
2609 1534
2610 49
2610 76
2611 76
2611 419
2611 478
2611 512
2611 635
2612 76
2612 874
2612 3928
2612 4506
2612 6536
2613 76
2613 96
2613 380
2613 612
2613 1709
2613 1879
2613 2914
2613 3479
2613 4092
2614 67
2614 77
2614 88
2614 102
2614 901
2614 2998
2615 77
2616 77
2616 930
2617 77
2617 79
2617 87
2617 478
2617 1557
2617 1671
2617 1672
2617 1910
2617 2336
2618 77
2618 225
2618 311
2618 421
2618 1684
2618 2064
2619 70
2619 74
2619 77
2619 85
2619 171
2619 306
2619 339
2620 77
2620 87
2620 88
2620 664
2620 682
2620 949
2620 2043
2620 2056
2620 4551
2621 77
2621 702
2621 2040
2622 77
2622 1733
2622 2623
2622 6537
2623 77
2623 88
2623 94
2623 255
2623 296
2623 1733
2623 2622
2624 75
2624 77
2624 415
2624 511
2624 1246
2624 1578
2624 2363
2625 78
2625 551
2626 78
2626 1671
2626 2078
2626 2371
2627 78
2627 85
2627 88
2627 202
2627 940
2627 1181
2627 1527
2627 1922
2627 1940
2627 2781
2627 2920
2627 3590
2628 78
2628 83
2628 133
2628 158
2628 392
2628 1467
2628 1468
2629 78
2629 153
2629 321
2629 1698
2629 1747
2629 6519
2630 70
2630 78
2630 289
2630 649
2630 955
2630 1031
2630 1690
2630 1691
2630 1692
2631 78
2631 88
2631 2631
2631 6224
2632 78
2632 79
2632 168
2632 262
2632 299
2632 1368
2632 1753
2632 1754
2632 1755
2632 2640
2633 78
2633 683
2633 1282
2633 1404
2633 1799
2633 2543
2633 5354
2634 78
2634 1017
2634 1908
2634 1921
2634 6464
2635 78
2635 392
2635 682
2635 981
2635 1300
2635 3779
2635 4919
2636 78
2636 415
2636 419
2636 511
2636 702
2637 78
2637 1725
2637 4289
2638 78
2638 327
2638 5132
2639 78
2639 302
2639 1173
2639 1181
2639 2441
2640 78
2640 85
2640 88
2640 978
2640 2632
2640 6538
2641 79
2641 85
2641 203
2641 216
2641 333
2641 925
2641 1441
2642 79
2642 646
2642 1067
2642 1069
2642 1448
2643 79
2643 477
2643 483
2643 794
2643 993
2643 4836
2644 79
2644 263
2644 381
2644 389
2644 398
2644 1141
2644 2354
2644 2362
2644 2709
2644 3563
2645 79
2645 351
2645 366
2645 659
2645 6539
2646 79
2647 79
2647 1039
2647 1917
2647 2084
2648 73
2648 79
2648 775
2648 993
2648 1356
2648 1594
2648 1609
2648 2336
2649 79
2649 646
2649 838
2649 849
2649 1256
2649 1626
2649 1627
2649 2361
2650 79
2650 88
2650 154
2650 706
2650 737
2650 940
2650 2541
2650 2652
2650 2809
2651 79
2651 102
2652 79
2652 737
2652 1377
2652 2650
2653 79
2653 693
2653 4606
2654 73
2654 79
2654 87
2654 648
2654 1404
2654 1516
2655 79
2655 941
2655 1032
2655 1163
2655 1424
2655 1584
2655 2285
2655 2540
2655 2865
2655 5857
2656 80
2656 1111
2656 1927
2656 4841
2657 80
2657 415
2658 80
2659 80
2659 283
2659 788
2659 1026
2659 1196
2659 1339
2660 80
2660 205
2660 576
2660 5715
2661 80
2661 642
2661 2661
2661 4264
2661 6161
2662 80
2662 155
2662 305
2662 697
2662 920
2662 4002
2662 4343
2663 80
2663 136
2663 542
2663 973
2663 1703
2663 5373
2664 80
2664 210
2664 379
2664 480
2664 521
2664 663
2664 932
2664 1026
2664 1096
2664 1151
2664 1686
2664 1877
2664 1878
2664 1879
2665 80
2665 360
2665 416
2665 1052
2665 1151
2666 80
2666 1274
2666 2481
2667 81
2667 87
2667 123
2667 555
2667 1421
2667 1423
2667 1424
2668 81
2668 86
2668 180
2668 203
2668 215
2668 262
2668 721
2668 905
2668 1771
2668 1772
2668 1836
2669 61
2669 81
2669 87
2669 648
2670 81
2670 1630
2670 2671
2671 81
2671 299
2671 823
2671 2670
2671 2771
2671 6540
2672 81
2673 81
2673 181
2673 716
2673 1739
2673 1751
2673 5630
2673 6541
2674 81
2674 1872
2674 6542
2675 68
2675 81
2675 809
2675 836
2676 81
2676 960
2677 81
2677 171
2677 651
2677 1846
2677 5193
2677 6074
2678 81
2678 1001
2678 1190
2678 1228
2678 2963
2679 81
2679 88
2679 403
2679 993
2679 1356
2679 5323
2679 5554
2680 82
2681 82
2681 1086
2682 82
2682 513
2682 1700
2683 82
2683 2683
2684 82
2684 321
2684 1961
2684 6543
2685 77
2685 82
2685 88
2685 289
2685 1373
2685 1828
2685 1835
2685 1923
2685 2495
2686 82
2686 179
2686 200
2686 702
2686 962
2686 2923
2686 3040
2686 5421
2687 82
2687 318
2687 647
2687 1132
2687 1584
2687 1613
2687 1614
2687 2352
2688 82
2688 83
2688 170
2688 6544
2689 82
2689 125
2689 260
2689 975
2690 82
2690 380
2690 445
2690 723
2690 946
2690 2235
2690 3931
2690 5453
2691 79
2691 82
2692 82
2692 88
2692 6545
2693 51
2693 82
2693 942
2693 3292
2694 82
2694 88
2694 366
2694 698
2694 1231
2695 82
2695 2068
2695 3302
2695 3593
2695 5505
2696 83
2696 1697
2697 83
2697 88
2697 154
2697 1799
2697 1958
2697 2069
2697 4722
2698 83
2698 88
2698 334
2698 1135
2698 1246
2698 3688
2699 83
2699 125
2699 133
2699 334
2699 357
2699 538
2699 710
2699 948
2699 1459
2699 2106
2699 2711
2699 6365
2700 83
2701 83
2701 425
2701 5194
2701 6546
2702 83
2702 312
2702 577
2702 610
2702 1160
2702 1545
2702 1995
2702 3201
2702 4252
2703 83
2703 88
2703 334
2703 1854
2703 2521
2703 5292
2703 5845
2704 35
2704 83
2704 1485
2704 2134
2704 2523
2705 83
2705 769
2705 1747
2705 1799
2706 83
2706 413
2706 1258
2707 83
2707 553
2707 1699
2707 1833
2707 2179
2707 2467
2707 3407
2708 83
2708 592
2708 1221
2708 2752
2708 4982
2708 6547
2709 83
2709 1085
2709 1986
2709 2432
2709 2644
2709 3563
2710 83
2710 1020
2710 1198
2710 2126
2710 6311
2711 83
2711 88
2711 721
2711 1420
2711 1623
2711 2699
2711 2945
2711 3084
2711 4308
2711 6365
2712 84
2712 1706
2713 84
2713 121
2713 345
2713 484
2713 670
2713 887
2713 3941
2713 5276
2713 6548
2714 72
2714 84
2714 88
2714 606
2714 646
2714 1683
2714 1737
2715 84
2715 435
2715 958
2715 997
2716 84
2716 88
2716 1171
2716 1792
2716 3338
2716 5315
2716 6549
2717 84
2718 84
2718 165
2718 216
2718 315
2718 629
2718 651
2718 1129
2718 1220
2718 4485
2719 84
2719 551
2719 6550
2720 40
2720 84
2720 358
2720 1814
2720 2091
2721 84
2721 206
2721 1319
2722 81
2722 84
2722 1351
2723 84
2723 133
2723 358
2723 1473
2723 1574
2723 2723
2723 2889
2724 84
2724 1205
2724 2724
2725 84
2725 360
2725 412
2725 414
2725 435
2725 611
2725 708
2725 1230
2725 3927
2725 3941
2725 6215
2726 84
2726 195
2726 496
2726 1258
2726 1295
2726 1503
2726 4696
2726 5152
2727 84
2727 961
2727 1309
2727 1743
2727 1768
2727 5784
2728 54
2728 84
2728 2229
2729 52
2729 84
2729 86
2729 136
2729 303
2730 84
2730 620
2730 701
2730 1547
2730 4228
2731 61
2731 84
2731 88
2731 389
2731 2363
2731 2366
2731 2860
2731 5095
2732 84
2732 1365
2732 1487
2732 6188
2733 84
2733 88
2733 108
2733 294
2733 1945
2733 2088
2733 2886
2734 84
2734 1141
2734 1186
2734 1211
2734 1373
2734 1554
2734 1612
2734 1625
2735 58
2735 84
2735 723
2736 84
2736 88
2736 212
2736 863
2736 1618
2736 6551
2737 85
2737 167
2737 1726
2737 6552
2738 85
2738 204
2738 883
2738 1314
2738 1493
2738 2081
2739 85
2739 2014
2740 85
2741 85
2741 706
2741 3002
2742 85
2742 399
2742 401
2742 1213
2742 1845
2742 1880
2742 6553
2743 56
2743 85
2743 925
2743 5329
2744 85
2744 748
2744 946
2744 970
2745 85
2745 413
2745 502
2745 915
2745 1052
2745 1448
2745 1496
2746 85
2746 88
2746 170
2746 175
2746 6554
2747 85
2747 88
2747 738
2747 774
2748 78
2748 85
2748 175
2748 1081
2749 78
2749 85
2749 87
2749 150
2749 1627
2750 85
2750 94
2750 662
2750 1185
2750 2074
2750 3289
2750 6555
2751 85
2751 88
2751 103
2751 284
2751 290
2752 85
2752 299
2752 321
2752 933
2752 1836
2752 2708
2752 2774
2753 54
2753 85
2753 339
2753 1065
2753 1246
2753 2174
2754 86
2754 2772
2755 86
2755 712
2755 1011
2755 1022
2755 1023
2756 86
2756 412
2756 893
2756 1429
2756 1430
2756 2027
2756 2963
2757 86
2757 665
2757 1799
2758 86
2758 2758
2759 86
2759 212
2759 941
2759 1774
2760 86
2760 204
2760 255
2760 1366
2760 1653
2760 1708
2760 1729
2760 1730
2760 1731
2761 81
2761 86
2761 333
2761 633
2761 1186
2761 1423
2761 1589
2762 86
2762 650
2762 721
2762 1048
2762 1470
2762 1527
2762 1578
2762 1798
2762 1799
2762 1800
2762 1801
2763 86
2763 865
2763 1042
2763 6556
2764 58
2764 86
2764 171
2764 651
2764 706
2764 991
2764 1516
2765 86
2765 88
2765 555
2765 721
2765 996
2765 1641
2765 2409
2766 86
2766 88
2766 834
2766 4899
2767 86
2767 392
2767 598
2767 641
2767 1043
2767 1304
2768 86
2769 64
2769 86
2770 81
2770 86
2771 86
2771 188
2771 985
2771 1542
2771 2671
2771 3559
2771 3560
2771 4138
2772 86
2772 103
2772 689
2772 2434
2772 2754
2772 4970
2773 87
2773 483
2773 721
2773 1814
2773 3257
2773 3268
2774 87
2774 648
2774 1012
2774 2309
2774 2752
2775 87
2775 2777
2775 3315
2775 5536
2776 87
2776 150
2776 657
2776 700
2776 1239
2776 1299
2776 1665
2776 1666
2776 3257
2777 87
2777 2775
2778 87
2778 133
2778 189
2778 1090
2778 1120
2778 6557
2779 87
2779 607
2779 6558
2780 87
2780 88
2780 927
2780 2912
2780 4651
2781 87
2781 180
2781 202
2781 313
2781 594
2781 781
2781 1181
2781 2627
2781 2852
2781 3975
2782 87
2782 1358
2782 1421
2783 87
2783 561
2783 2060
2783 3974
2783 6559
2784 87
2784 175
2784 553
2784 587
2784 666
2784 1527
2784 1837
2784 2123
2784 2790
2784 6560
2785 87
2785 594
2785 2505
2785 2568
2785 2812
2786 75
2786 87
2786 88
2786 607
2786 1626
2786 2430
2786 2452
2787 87
2787 1297
2787 1772
2787 2034
2788 87
2788 262
2788 743
2788 1458
2788 1486
2788 1487
2788 1847
2789 87
2789 949
2789 1350
2789 5496
2790 87
2790 88
2790 94
2790 666
2790 949
2790 981
2790 1436
2790 2079
2790 2784
2790 6425
2791 87
2791 591
2791 1156
2791 2230
2791 2517
2791 4038
2791 5653
2792 87
2792 352
2792 1775
2792 4765
2793 87
2793 112
2793 164
2793 1141
2793 1324
2793 2470
2793 3292
2793 3367
2793 3369
2794 87
2794 2365
2794 6502
2795 87
2795 2348
2795 5748
2795 6246
2796 57
2796 87
2796 88
2796 185
2796 202
2796 2796
2797 87
2797 88
2797 126
2797 650
2797 996
2797 1652
2797 1718
2797 5255
2798 87
2798 125
2798 1592
2798 6561
2798 6562
2799 54
2799 87
2800 67
2800 87
2800 154
2800 175
2800 1487
2800 2089
2801 20
2801 87
2801 690
2801 1254
2801 1325
2801 1939
2802 87
2803 88
2804 88
2804 6563
2805 88
2805 4362
2806 88
2806 558
2806 1289
2806 1509
2806 1817
2806 6134
2807 88
2807 942
2807 1380
2807 1935
2807 2914
2807 3065
2807 5683
2807 6564
2808 88
2808 1063
2808 1175
2808 5328
2808 5903
2809 88
2809 706
2809 1311
2809 1772
2809 2650
2809 3048
2810 88
2810 2537
2810 4664
2811 88
2811 932
2811 1488
2811 1489
2811 1490
2811 1491
2811 1492
2812 88
2812 1684
2812 2452
2812 2785
2813 31
2813 88
2813 153
2813 1029
2814 88
2814 501
2814 977
2814 1571
2814 1595
2814 1596
2814 1597
2814 1674
2815 88
2815 4473
2815 4589
2816 78
2816 88
2816 775
2816 1386
2817 88
2817 188
2817 416
2817 660
2817 998
2817 3021
2817 3207
2817 4084
2818 88
2818 5059
2818 6565
2819 88
2819 528
2819 759
2819 1566
2819 4396
2819 5895
2820 88
2820 180
2820 334
2820 831
2820 883
2820 1201
2820 1233
2820 1691
2820 2432
2820 5748
2821 88
2821 1216
2821 1217
2821 2949
2821 6566
2821 6567
2821 6568
2822 88
2822 1181
2822 1660
2822 2060
2822 2064
2823 88
2823 169
2823 186
2823 195
2823 1195
2823 1196
2823 3402
2824 58
2824 88
2825 88
2825 3872
2826 88
2826 317
2826 488
2826 686
2826 832
2826 891
2826 960
2826 1430
2826 1745
2826 1746
2827 88
2827 108
2827 203
2827 205
2827 416
2827 1005
2827 2046
2828 88
2828 228
2828 279
2828 1142
2828 1594
2828 6273
2828 6570
2828 6571
2829 87
2829 88
2829 6572
2830 87
2830 88
2831 88
2831 6573
2831 6574
2832 88
2832 916
2832 1203
2832 5809
2833 88
2833 3732
2833 5750
2833 6575
2834 80
2834 88
2834 147
2834 816
2835 88
2835 5618
2835 6970
2836 88
2836 3469
2836 6577
2837 53
2837 88
2837 618
2838 88
2838 668
2838 1355
2838 1701
2838 1992
2838 2952
2838 4571
2838 5950
2838 6006
2839 88
2839 170
2839 981
2839 1727
2839 2123
2839 2581
2839 4749
2840 45
2840 88
2841 88
2841 437
2841 470
2841 1385
2841 1402
2841 5963
2841 6082
2842 88
2842 408
2842 446
2842 632
2842 861
2842 1488
2842 6578
2843 88
2843 1341
2843 1475
2843 6579
2844 88
2844 501
2844 1417
2844 1596
2844 5475
2845 88
2845 1052
2845 6580
2846 88
2846 1595
2846 2895
2846 4337
2846 6581
2847 88
2847 1320
2847 1347
2847 1348
2847 2853
2847 6122
2848 49
2848 88
2848 559
2849 88
2849 3494
2849 3965
2850 88
2850 955
2850 1133
2850 1337
2850 5586
2851 88
2851 316
2851 2606
2851 3781
2851 6582
2852 87
2852 88
2852 191
2852 421
2852 2461
2852 2781
2853 88
2853 534
2853 1668
2853 2847
2853 5369
2853 5699
2854 85
2854 88
2854 2908
2855 88
2855 613
2855 653
2855 779
2855 807
2855 1458
2855 6409
2856 88
2856 460
2856 470
2856 489
2856 1683
2856 6521
2857 88
2857 306
2857 513
2857 1069
2857 1185
2857 1386
2857 1400
2857 1699
2857 1700
2858 88
2858 114
2858 215
2858 1156
2858 1734
2858 1736
2858 2898
2858 6517
2859 88
2859 193
2859 208
2859 323
2859 501
2859 701
2859 718
2859 857
2859 894
2859 1096
2859 1674
2859 1822
2859 6583
2860 88
2860 1205
2860 1297
2860 2731
2860 4695
2861 88
2861 297
2861 323
2861 1767
2861 1784
2861 1785
2861 1786
2861 1787
2861 1788
2861 1789
2861 1790
2862 88
2862 174
2862 456
2862 532
2862 1383
2862 1740
2862 3023
2862 4060
2862 6584
2863 88
2863 724
2863 6585
2863 6586
2864 88
2864 330
2864 334
2864 409
2864 676
2864 702
2864 738
2864 909
2864 5753
2865 88
2865 695
2865 1032
2865 2655
2865 3739
2865 5089
2866 88
2866 380
2866 605
2866 630
2866 4154
2866 6587
2867 78
2867 88
2868 88
2868 227
2868 3016
2868 6588
2869 82
2869 88
2870 88
2870 620
2870 954
2870 1191
2870 1992
2870 2197
2870 3042
2870 3846
2870 5667
2871 88
2871 1610
2871 2877
2871 4308
2871 6589
2872 46
2872 88
2872 704
2872 758
2873 88
2873 605
2873 922
2873 1162
2873 2117
2873 4780
2873 4977
2874 88
2874 181
2874 197
2874 210
2874 299
2874 537
2874 659
2874 698
2874 1623
2874 3073
2874 3728
2874 6590
2875 88
2875 780
2875 840
2875 1228
2875 4925
2875 6591
2876 50
2876 88
2876 513
2876 805
2877 88
2877 1057
2877 1936
2877 2871
2877 5418
2878 88
2878 254
2878 868
2878 1495
2878 3062
2878 4039
2878 5627
2879 88
2879 3684
2879 4562
2879 6592
2880 88
2880 153
2880 201
2880 1238
2880 1837
2880 2291
2880 2306
2881 81
2881 88
2881 1846
2882 88
2882 184
2882 1231
2882 4936
2882 6593
2883 88
2883 1006
2883 1060
2883 1667
2883 1930
2883 4592
2883 5819
2883 6132
2884 87
2884 88
2884 2937
2885 88
2885 121
2885 200
2885 236
2885 2204
2885 4270
2885 6324
2886 88
2886 2733
2886 6594
2887 88
2887 263
2887 644
2887 736
2887 844
2887 2095
2887 6595
2888 55
2888 88
2888 653
2888 1031
2888 1599
2889 88
2889 2723
2889 2889
2889 3706
2889 5582
2890 88
2890 461
2890 1090
2890 3128
2890 3460
2890 5409
2891 88
2891 426
2891 810
2891 1886
2891 2006
2891 4297
2891 6526
2891 6596
2892 88
2892 1216
2892 1329
2892 4772
2892 5481
2892 6032
2892 6597
2893 88
2893 646
2893 1178
2893 1185
2893 1395
2893 1821
2893 4919
2894 87
2894 88
2894 968
2894 1485
2895 88
2895 932
2895 2846
2895 6598
2896 88
2896 785
2896 5744
2896 6490
2897 88
2897 186
2897 372
2897 615
2897 677
2897 864
2897 958
2897 1293
2897 1545
2897 1862
2897 1863
2897 1864
2897 1865
2898 88
2898 170
2898 215
2898 451
2898 1123
2898 1156
2898 1736
2898 2518
2898 2858
2898 6231
2899 41
2899 88
2899 330
2899 416
2899 6599
2900 88
2900 379
2900 728
2900 1596
2900 1597
2900 3574
2900 4482
2900 5667
2901 88
2901 605
2901 614
2901 812
2901 858
2901 1896
2901 3145
2901 6600
2901 6601
2902 61
2902 88
2902 3291
2903 46
2903 88
2903 209
2903 948
2903 1281
2903 1378
2904 2
2904 88
2904 359
2904 4155
2904 4401
2905 70
2905 88
2905 190
2905 350
2905 561
2905 1524
2905 1525
2906 88
2906 875
2906 1401
2906 1790
2906 6602
2907 84
2907 88
2907 1444
2907 5203
2908 88
2908 175
2908 191
2908 421
2908 2854
2908 4867
2909 83
2909 88
2909 2592
2910 55
2910 88
2910 1722
2911 88
2911 2949
2911 5480
2911 6603
2912 87
2912 88
2912 587
2912 666
2912 1529
2912 2780
2912 3913
2913 88
2913 958
2913 1538
2913 1742
2913 4229
2913 4406
2914 88
2914 902
2914 1348
2914 1985
2914 2613
2914 2807
2914 6582
2915 88
2915 359
2915 501
2915 4402
2915 4416
2916 70
2916 88
2917 88
2917 284
2917 347
2917 674
2917 1152
2917 1721
2917 3412
2917 6604
2918 88
2918 1216
2918 1248
2918 1252
2918 2966
2918 3936
2918 4772
2918 6063
2919 62
2919 88
2919 888
2919 1303
2919 1391
2919 6474
2920 88
2920 421
2920 594
2920 1187
2920 1683
2920 1732
2920 2627
2920 3780
2921 88
2921 696
2921 4022
2921 6605
2922 88
2922 1230
2922 4950
2922 6119
2922 6606
2923 88
2923 120
2923 179
2923 604
2923 663
2923 788
2923 958
2923 2686
2923 3477
2923 4243
2924 88
2924 266
2924 5847
2924 6607
2925 87
2925 88
2925 6608
2926 88
2926 313
2926 781
2926 1381
2926 1795
2926 2266
2926 6464
2926 6592
2927 88
2927 272
2927 432
2927 4051
2927 6609
2928 88
2928 178
2928 329
2928 973
2928 1275
2928 6610
2929 88
2929 147
2929 199
2929 359
2929 404
2929 414
2929 772
2929 910
2929 3305
2930 88
2930 523
2930 559
2930 599
2930 843
2930 934
2930 5624
2930 6441
2930 6611
2931 88
2931 216
2931 543
2931 624
2931 6480
2931 6612
2932 88
2932 255
2932 1737
2932 1921
2932 2332
2932 2932
2933 75
2933 88
2933 102
2933 114
2933 203
2933 1314
2933 1441
2934 88
2934 650
2934 814
2934 5451
2934 6613
2935 38
2935 88
2935 591
2936 82
2936 88
2936 306
2936 1395
2937 88
2937 2884
2937 5303
2938 86
2938 88
2938 2555
2939 44
2939 88
2939 738
2939 1889
2940 88
2940 578
2940 949
2940 1821
2940 2303
2940 2449
2940 5303
2941 88
2941 245
2941 948
2941 3918
2941 5810
2942 66
2942 88
2942 682
2942 1313
2942 1732
2943 528
2943 1317
2943 4192
2943 6614
2944 6054
2945 334
2945 993
2945 2101
2945 2264
2945 2711
2945 5416
2945 6355
2945 6615
2946 371
2946 1590
2946 1907
2946 2254
2946 2970
2946 6054
2946 6616
2947 173
2947 812
2947 1139
2947 1476
2947 1651
2947 3226
2947 3422
2947 4490
2948 3422
2948 6617
2949 1217
2949 1269
2949 2821
2949 2911
2949 3823
2949 6036
2949 6603
2950 171
2950 3147
2950 4127
2950 5516
2951 676
2951 1169
2951 5869
2951 5913
2952 341
2952 426
2952 797
2952 2838
2952 3761
2952 5646
2953 88
2953 374
2953 679
2953 684
2953 4238
2953 4454
2954 89
2954 119
2954 341
2954 684
2954 931
2954 1144
2954 3797
2955 234
2955 832
2955 860
2955 1640
2955 3737
2955 3792
2955 4257
2955 6618
2956 1117
2956 1132
2956 1140
2956 1912
2956 4257
2956 5434
2956 5750
2957 90
2957 109
2957 379
2957 501
2957 612
2957 701
2957 865
2958 90
2959 91
2960 91
2960 845
2961 91
2961 198
2961 383
2961 412
2961 4059
2961 4618
2962 6034
2963 181
2963 736
2963 1343
2963 1655
2963 1730
2963 1917
2963 2093
2963 2678
2963 2756
2963 3710
2963 4202
2963 5524
2964 417
2964 5731
2964 6619
2965 139
2965 312
2965 413
2965 988
2965 2608
2965 3314
2966 1217
2966 2918
2966 5191
2966 6034
2967 273
2967 345
2967 391
2967 450
2967 1090
2967 2970
2967 3045
2967 6620
2967 6621
2968 113
2968 629
2968 707
2968 4516
2968 4941
2968 6622
2969 6620
2970 322
2970 701
2970 1199
2970 2946
2970 2967
2970 6620
2970 6623
2971 1806
2971 6344
2971 6624
2972 93
2972 344
2972 378
2972 890
2972 2205
2972 2972
2972 4063
2972 5474
2972 6085
2972 6460
2973 88
2973 93
2973 5074
2973 5663
2974 162
2974 168
2974 195
2974 863
2974 1041
2974 1339
2974 1357
2974 5009
2974 6047
2975 94
2975 212
2975 1180
2975 1222
2975 1425
2975 1535
2975 1553
2975 2395
2975 2537
2975 3542
2976 94
2977 4985
2978 3286
2978 6515
2978 6625
2979 104
2979 193
2979 226
2979 283
2979 394
2979 672
2979 749
2979 1992
2979 3527
2979 4537
2979 4843
2979 5117
2980 165
2980 3860
2980 4843
2980 5749
2981 481
2981 1570
2981 1703
2981 3714
2981 3857
2981 4843
2981 5011
2982 203
2982 705
2982 1180
2982 1253
2982 1535
2982 1963
2982 3348
2982 6140
2983 3133
2984 162
2984 593
2984 634
2984 1993
2984 3087
2984 3133
2984 3439
2984 5235
2985 97
2985 214
2985 330
2985 1256
2985 1317
2985 3933
2986 97
2987 97
2987 1317
2988 97
2988 6626
2989 3062
2990 98
2990 163
2990 488
2990 1132
2990 1166
2990 3090
2991 99
2992 99
2992 766
2992 932
2992 6627
2993 99
2993 178
2993 871
2993 1692
2993 6376
2994 100
2995 101
2996 101
2996 273
2996 297
2996 716
2996 882
2996 1505
2996 1621
2996 3084
2996 5641
2997 102
2997 3000
2998 102
2998 114
2998 175
2998 202
2998 295
2998 1854
2998 2614
2998 3000
2999 88
2999 102
2999 1908
2999 2314
2999 2569
3000 102
3000 294
3000 2043
3000 2997
3000 2998
3000 3003
3000 3777
3001 102
3001 419
3001 805
3001 1677
3001 6629
3002 102
3002 968
3002 1124
3002 1448
3002 2741
3002 5111
3003 102
3003 191
3003 801
3003 1517
3003 2314
3003 2412
3003 3000
3004 102
3005 103
3006 103
3006 919
3007 88
3007 103
3007 1580
3008 103
3008 979
3008 1712
3009 103
3009 689
3009 1160
3009 1457
3009 1712
3009 2004
3009 3011
3010 103
3010 1006
3010 6630
3011 103
3011 272
3011 1169
3011 3009
3011 4817
3011 5994
3012 103
3012 1302
3012 1666
3012 3043
3012 5818
3013 60
3013 103
3013 689
3014 103
3014 946
3014 947
3014 1145
3015 88
3015 103
3015 1444
3015 1615
3016 103
3016 1884
3016 2868
3016 5635
3017 103
3017 219
3017 431
3017 824
3017 1006
3017 1850
3017 3799
3017 4705
3018 103
3018 416
3018 483
3018 871
3018 1403
3018 2213
3019 6518
3020 139
3020 155
3020 162
3020 215
3020 560
3020 625
3020 1085
3020 1603
3020 1659
3020 2089
3020 3567
3020 4914
3020 6631
3020 6632
3021 1447
3021 2086
3021 2817
3021 3639
3021 5457
3022 88
3022 6327
3022 6633
3023 431
3023 498
3023 897
3023 950
3023 1927
3023 2862
3023 3054
3023 4433
3023 4831
3023 5676
3023 6097
3023 6634
3024 717
3024 806
3024 3642
3024 4809
3024 4931
3024 5948
3025 6302
3025 6957
3026 6262
3026 6637
3026 6638
3027 207
3027 529
3027 668
3027 1195
3027 1532
3027 1560
3027 1702
3027 1819
3027 4386
3027 6639
3028 661
3028 1744
3028 3595
3028 4687
3028 6417
3029 418
3029 496
3029 912
3029 1463
3029 1916
3029 2401
3029 4549
3029 5022
3030 104
3030 183
3030 5310
3030 6640
3031 481
3031 576
3031 593
3031 1331
3031 2399
3031 2533
3031 6518
3031 6641
3032 105
3033 106
3033 410
3033 734
3033 915
3033 1447
3033 1507
3033 1508
3034 106
3035 107
3036 88
3036 107
3036 952
3037 107
3037 437
3037 848
3037 952
3037 2453
3037 5596
3038 107
3038 152
3038 437
3038 952
3038 2044
3038 2453
3039 61
3039 108
3039 688
3039 1236
3039 1963
3039 2358
3040 108
3040 165
3040 682
3040 1122
3040 1652
3040 2068
3040 2686
3041 108
3042 109
3042 193
3042 232
3042 356
3042 380
3042 538
3042 554
3042 620
3042 671
3042 1339
3042 1867
3042 2204
3042 2235
3042 2870
3042 5859
3043 109
3043 143
3043 814
3043 3012
3043 6251
3043 6642
3044 109
3045 109
3045 875
3045 2967
3045 6644
3046 109
3046 290
3046 445
3046 1785
3046 6645
3047 110
3048 110
3048 202
3048 849
3048 2809
3049 110
3049 274
3049 301
3049 911
3049 2354
3049 2362
3050 85
3050 110
3050 689
3050 5657
3051 110
3051 1677
3051 1960
3052 5721
3053 4012
3053 5779
3053 6646
3054 396
3054 716
3054 2147
3054 3023
3054 3983
3054 4012
3054 5503
3054 6446
3055 111
3055 2027
3055 5900
3056 112
3056 813
3056 2392
3056 2470
3056 3057
3056 5630
3057 88
3057 112
3057 126
3057 2470
3057 3056
3057 4225
3058 112
3059 113
3060 113
3060 192
3060 197
3060 408
3060 1079
3060 1196
3060 3308
3060 5591
3061 114
3062 114
3062 141
3062 689
3062 801
3062 884
3062 1687
3062 2878
3062 2989
3063 88
3063 114
3063 1053
3063 1054
3063 3937
3064 114
3064 482
3064 1313
3064 1668
3064 2047
3064 2546
3065 114
3065 167
3065 191
3065 331
3065 413
3065 748
3065 942
3065 1448
3065 2137
3065 2432
3065 2807
3065 4753
3065 5683
3066 114
3066 349
3066 1661
3066 2463
3067 114
3067 189
3067 357
3067 358
3067 363
3067 413
3067 885
3067 993
3067 1395
3067 1633
3067 1963
3067 3067
3067 5828
3068 114
3068 4526
3069 114
3069 1062
3069 1081
3069 6648
3069 6649
3070 114
3070 1350
3071 114
3071 381
3071 2303
3071 2575
3071 5718
3071 6650
3072 115
3072 179
3072 203
3072 204
3072 791
3072 2228
3072 2435
3072 6455
3073 115
3073 417
3073 839
3073 935
3073 996
3073 1274
3073 2181
3073 2874
3073 3362
3073 3767
3073 6651
3074 115
3075 116
3076 116
3076 512
3076 653
3076 1462
3076 1589
3076 2150
3076 2228
3077 116
3077 904
3077 3910
3077 3926
3078 116
3078 201
3078 1152
3078 2085
3078 2603
3079 117
3080 117
3080 309
3081 52
3081 117
3081 388
3081 1407
3081 1509
3081 1512
3082 118
3083 88
3083 118
3083 201
3083 1133
3083 5124
3084 119
3084 197
3084 402
3084 813
3084 1509
3084 2711
3084 2996
3084 3095
3085 119
3086 88
3086 119
3086 353
3087 119
3087 979
3087 1128
3087 1382
3087 1403
3087 1784
3087 2984
3087 3139
3087 5475
3087 6652
3088 119
3088 6653
3089 120
3089 323
3089 440
3089 932
3089 1629
3089 4242
3089 5057
3090 120
3090 788
3090 1361
3090 2990
3091 120
3092 120
3092 419
3092 905
3092 994
3092 1207
3092 1245
3093 121
3093 189
3093 211
3093 756
3093 972
3093 1053
3093 1183
3093 5699
3094 121
3095 53
3095 121
3095 3084
3096 88
3096 121
3096 536
3096 554
3096 632
3096 677
3096 939
3096 1688
3096 1756
3096 1757
3097 121
3097 352
3097 440
3097 2606
3097 4217
3098 121
3098 625
3098 1413
3098 1867
3098 2154
3098 2309
3098 5736
3099 88
3099 121
3099 620
3099 5200
3099 5892
3100 122
3101 122
3101 351
3101 980
3101 1057
3101 1058
3102 122
3102 182
3102 759
3102 1188
3103 122
3103 678
3103 710
3103 753
3103 4005
3103 4746
3103 5149
3103 5171
3103 6022
3104 122
3104 149
3104 667
3104 798
3104 1326
3104 1340
3105 122
3105 931
3105 5729
3105 6654
3105 6655
3106 122
3106 687
3106 922
3106 1030
3106 1534
3106 1560
3106 1607
3106 1608
3107 122
3107 577
3108 122
3108 1822
3108 5429
3109 123
3110 123
3110 166
3110 530
3110 654
3110 1768
3110 4941
3110 5385
3110 5522
3111 123
3111 351
3111 403
3111 914
3111 925
3111 5920
3112 123
3112 659
3112 1158
3112 5476
3113 123
3113 540
3114 51
3114 123
3114 216
3114 358
3114 767
3114 854
3114 877
3114 1169
3114 1720
3115 124
3116 88
3116 124
3116 483
3117 124
3117 332
3117 824
3117 2004
3117 3807
3117 3840
3117 4281
3117 6656
3118 124
3118 372
3118 552
3118 659
3119 124
3119 1320
3119 1951
3120 124
3120 419
3120 662
3120 676
3120 901
3120 993
3120 1523
3120 1699
3120 2208
3121 124
3121 212
3121 443
3121 1205
3121 1830
3122 68
3122 124
3123 125
3124 125
3124 514
3124 5838
3125 126
3126 126
3126 254
3126 371
3126 684
3126 871
3126 1292
3127 126
3127 184
3127 324
3127 1254
3127 2274
3127 4354
3127 6657
3128 126
3128 413
3128 901
3128 1740
3128 2890
3128 4491
3129 126
3129 678
3129 762
3129 1224
3129 1542
3129 4435
3129 5034
3130 126
3130 213
3130 286
3130 616
3130 725
3130 830
3130 893
3130 993
3130 2196
3130 3634
3131 126
3131 501
3131 6658
3132 88
3132 126
3132 207
3132 829
3133 126
3133 146
3133 583
3133 892
3133 2983
3133 2984
3134 127
3134 301
3134 405
3134 912
3134 1233
3134 1694
3135 127
3136 127
3136 1842
3136 1947
3137 127
3137 898
3138 127
3138 413
3138 426
3138 946
3138 2213
3139 127
3139 464
3139 800
3139 937
3139 1796
3139 2244
3139 3087
3140 127
3140 162
3140 172
3140 910
3140 960
3140 1273
3140 1538
3140 3858
3140 4739
3140 5659
3140 6148
3141 127
3141 209
3141 291
3141 660
3141 787
3141 928
3141 938
3141 3526
3141 5528
3142 127
3142 207
3142 396
3142 837
3142 1142
3142 1696
3142 1869
3142 5247
3143 3421
3144 571
3144 617
3144 793
3144 1036
3144 1085
3144 1368
3144 1566
3144 2171
3144 2187
3144 3421
3144 5162
3145 380
3145 620
3145 631
3145 970
3145 1165
3145 2605
3145 2901
3145 3145
3145 6661
3146 129
3147 88
3147 129
3147 780
3147 2950
3147 6475
3148 130
3149 130
3149 610
3149 817
3149 2148
3149 4736
3150 131
3151 131
3151 570
3151 4492
3152 131
3152 325
3152 374
3152 1013
3152 1230
3153 6673
3154 240
3154 290
3154 315
3154 1112
3154 5531
3154 6662
3154 6663
3155 964
3155 1587
3155 1867
3155 2392
3155 6664
3155 6665
3156 88
3156 1088
3156 6666
3156 6667
3157 88
3157 235
3157 590
3157 938
3157 1866
3157 4954
3157 6668
3158 169
3158 182
3158 493
3158 1804
3158 4875
3158 6669
3159 169
3159 390
3159 1286
3159 1723
3159 4336
3159 6670
3160 147
3160 230
3160 383
3160 414
3160 938
3160 1484
3160 3980
3160 6671
3161 410
3161 463
3161 467
3161 487
3161 880
3161 1370
3161 4256
3161 4863
3161 6672
3161 6673
3162 132
3162 203
3162 585
3162 1146
3162 1187
3162 1311
3162 1406
3162 1801
3162 2174
3162 2443
3162 2600
3163 133
3164 88
3164 133
3165 88
3165 133
3165 1224
3166 133
3166 198
3166 215
3166 378
3166 1010
3167 133
3167 182
3167 717
3167 1117
3167 1186
3167 1368
3168 79
3168 133
3168 585
3168 766
3168 885
3168 898
3168 1575
3168 3251
3169 133
3169 793
3169 971
3169 1325
3170 133
3170 187
3170 259
3170 337
3170 6674
3171 88
3171 133
3171 901
3171 1221
3172 133
3172 815
3172 1018
3172 1420
3172 6514
3173 133
3173 308
3174 134
3174 707
3174 820
3174 913
3175 134
3175 1676
3175 3620
3176 134
3176 3517
3177 127
3177 134
3177 414
3177 1117
3177 1818
3178 134
3178 162
3178 228
3178 256
3178 283
3178 374
3178 408
3178 532
3178 668
3178 812
3178 866
3178 1412
3178 1859
3179 134
3180 134
3180 155
3180 162
3180 177
3180 206
3180 235
3180 1345
3180 1561
3181 134
3181 383
3181 1184
3181 1342
3181 3339
3181 4607
3182 134
3182 420
3182 5512
3183 134
3183 6676
3184 134
3184 385
3184 420
3184 435
3184 777
3184 5326
3185 134
3185 198
3185 211
3185 577
3185 6172
3186 134
3186 1688
3186 6677
3187 49
3187 134
3187 552
3187 3278
3188 135
3189 135
3189 272
3189 612
3189 701
3189 2396
3189 4710
3189 5164
3190 136
3191 88
3191 136
3191 389
3191 398
3192 137
3193 88
3193 137
3193 190
3193 459
3193 582
3193 1497
3193 3194
3194 137
3194 168
3194 301
3194 757
3194 896
3194 1356
3194 1364
3194 1458
3194 3193
3195 88
3195 137
3195 212
3195 1375
3195 1376
3195 2353
3196 138
3196 6678
3197 138
3197 273
3197 288
3197 297
3197 404
3197 564
3197 812
3197 1082
3197 4439
3198 138
3199 139
3199 6679
3200 139
3201 139
3201 428
3201 887
3201 1293
3201 1407
3201 2702
3201 6168
3201 6680
3202 88
3202 139
3202 544
3202 615
3202 6185
3203 139
3203 150
3203 3255
3204 140
3205 141
3205 665
3205 1361
3205 1655
3205 1687
3205 6204
3206 141
3207 88
3207 141
3207 1355
3207 1357
3207 1358
3207 2817
3208 142
3209 88
3209 142
3210 142
3210 5391
3211 142
3211 1083
3212 142
3212 193
3212 894
3213 143
3214 143
3214 285
3214 1035
3214 2102
3214 2322
3214 6681
3215 144
3216 144
3216 212
3216 441
3216 581
3216 715
3216 1093
3216 1180
3216 4550
3217 145
3217 193
3217 197
3217 527
3217 1572
3217 1573
3217 1574
3217 1576
3218 145
3219 145
3219 1489
3219 3368
3220 88
3220 145
3220 827
3221 88
3221 145
3221 208
3221 499
3221 583
3221 1613
3222 146
3223 146
3223 284
3223 404
3223 961
3223 1601
3223 1602
3223 1603
3223 3227
3224 88
3224 146
3224 219
3224 643
3224 1676
3224 4902
3225 146
3225 1536
3225 4756
3226 146
3226 208
3226 1651
3226 2947
3227 146
3227 189
3227 477
3227 1115
3227 1182
3227 1389
3227 1782
3227 1896
3227 1995
3227 3223
3227 4441
3227 4915
3228 147
3228 335
3228 696
3228 1128
3228 1715
3228 2016
3228 5105
3229 147
3229 773
3229 1414
3230 147
3231 147
3231 1171
3231 1366
3231 4631
3231 4756
3231 5976
3231 5987
3232 147
3232 212
3232 3754
3233 147
3233 827
3233 893
3233 6104
3233 6682
3234 147
3234 380
3234 932
3234 3799
3234 5819
3235 147
3235 256
3235 261
3235 1391
3235 1489
3236 147
3236 498
3236 4890
3237 148
3237 545
3237 621
3237 670
3237 742
3237 924
3237 1290
3237 1650
3237 1651
3238 148
3239 127
3239 148
3239 256
3239 272
3239 552
3240 62
3240 148
3240 215
3240 836
3240 1258
3240 1273
3241 148
3241 621
3241 3855
3242 148
3242 654
3242 799
3242 1166
3242 1357
3243 148
3243 374
3243 565
3243 1260
3243 1279
3243 1411
3244 148
3244 1622
3244 1803
3244 2017
3244 2020
3244 2205
3244 3244
3244 5791
3245 149
3245 856
3245 1344
3245 1750
3246 149
3246 177
3247 149
3247 156
3247 404
3247 517
3247 872
3247 3511
3247 5975
3248 149
3249 149
3249 163
3249 452
3249 818
3249 4596
3249 4750
3249 4754
3249 6683
3250 149
3250 720
3250 1274
3250 6684
3251 149
3251 1309
3251 1664
3251 3168
3251 3700
3251 6556
3251 6685
3252 88
3252 149
3252 317
3252 518
3252 1036
3252 3736
3252 6686
3253 149
3253 693
3253 973
3253 1232
3253 4617
3254 150
3255 150
3255 549
3255 3203
3256 150
3256 1324
3256 6317
3257 150
3257 315
3257 423
3257 645
3257 657
3257 1666
3257 2345
3257 2773
3257 2776
3257 6199
3258 150
3258 265
3258 357
3258 779
3258 851
3258 3259
3259 150
3259 3258
3260 88
3260 150
3261 40
3261 84
3261 150
3261 419
3261 848
3262 150
3262 358
3262 1298
3262 1299
3262 1300
3262 2294
3263 150
3263 904
3263 1675
3264 127
3264 150
3264 381
3264 835
3264 1333
3264 1334
3265 150
3265 777
3265 969
3265 1729
3266 150
3266 4908
3266 6687
3267 87
3267 150
3267 1127
3268 84
3268 150
3268 1299
3268 2773
3269 150
3269 170
3269 1220
3269 1221
3269 1418
3270 76
3270 150
3270 1361
3271 150
3271 282
3271 6688
3272 150
3272 389
3272 840
3272 1315
3272 5581
3272 6070
3273 86
3273 150
3273 466
3274 151
3275 151
3275 512
3275 1001
3275 1061
3275 1099
3275 1897
3275 4091
3275 4447
3276 151
3276 172
3276 263
3276 621
3276 647
3276 670
3276 832
3276 941
3276 1147
3276 1782
3276 1783
3277 151
3277 1010
3277 1147
3277 1680
3277 3343
3278 151
3278 182
3278 418
3278 886
3278 986
3278 1512
3278 1912
3278 3187
3278 4334
3278 4617
3279 152
3280 88
3280 152
3280 919
3280 1017
3280 1604
3281 88
3281 152
3282 88
3282 152
3282 3284
3283 152
3283 437
3283 952
3283 5747
3284 152
3284 591
3284 1481
3284 2066
3284 3282
3285 153
3285 775
3285 1060
3285 1062
3285 3289
3286 153
3286 154
3286 196
3286 294
3286 981
3286 2978
3286 6690
3287 72
3287 153
3287 306
3287 1086
3287 1087
3288 153
3288 6691
3289 70
3289 153
3289 1331
3289 1579
3289 2521
3289 2750
3289 3285
3290 153
3290 664
3291 153
3291 350
3291 470
3291 744
3291 746
3291 848
3291 1123
3291 1527
3291 1966
3291 2902
3292 88
3292 153
3292 164
3292 1308
3292 1324
3292 2592
3292 2693
3292 2793
3292 3367
3293 153
3294 50
3294 154
3294 5125
3295 154
3295 191
3295 478
3296 154
3296 242
3296 302
3296 639
3296 3303
3296 4670
3297 88
3297 154
3297 1308
3297 1310
3297 1312
3297 1932
3298 154
3298 849
3298 1123
3298 2079
3299 154
3300 87
3300 154
3300 191
3300 502
3300 1672
3300 1873
3300 4137
3301 88
3301 154
3302 154
3302 334
3302 2695
3302 6692
3303 154
3303 3296
3304 154
3304 519
3304 769
3304 978
3304 1902
3305 155
3305 1007
3305 1064
3305 1228
3305 2929
3306 88
3306 155
3306 371
3306 416
3306 618
3306 861
3306 1465
3306 1547
3307 155
3308 155
3308 3060
3309 155
3309 869
3309 1152
3309 2488
3310 155
3310 303
3310 1643
3310 6260
3310 6409
3311 155
3311 3745
3311 5364
3312 155
3312 759
3312 1228
3312 1287
3312 6693
3313 155
3313 1138
3313 4324
3313 5835
3314 155
3314 566
3314 2965
3314 6694
3315 155
3315 216
3315 1561
3315 2775
3315 3721
3315 5558
3316 155
3316 258
3316 395
3316 651
3316 689
3316 855
3316 871
3316 1128
3316 1479
3316 2147
3316 6695
3317 155
3317 400
3317 579
3317 658
3317 690
3317 1295
3317 2118
3317 5066
3318 155
3318 187
3318 210
3318 374
3318 634
3318 1548
3318 1631
3318 1632
3319 156
3319 1079
3319 1162
3319 1226
3319 6239
3320 156
3320 256
3320 1165
3320 1479
3320 1480
3320 1785
3320 4783
3321 156
3322 156
3322 410
3322 1788
3322 2191
3322 6696
3323 157
3323 179
3323 6697
3324 157
3325 158
3326 158
3326 187
3326 754
3326 1825
3327 88
3327 158
3327 175
3327 302
3327 395
3327 619
3327 1585
3327 1616
3328 158
3328 219
3328 282
3328 284
3328 710
3328 1095
3328 3813
3328 6698
3329 159
3329 248
3329 444
3329 486
3329 822
3329 1307
3329 3339
3329 3648
3329 3744
3329 4962
3330 159
3330 233
3330 871
3330 984
3330 1033
3331 159
3331 359
3331 787
3331 1009
3331 1159
3331 1809
3331 4022
3332 159
3332 492
3332 690
3333 159
3334 159
3334 622
3334 5364
3334 6699
3335 159
3335 528
3335 555
3335 616
3335 703
3335 833
3335 6700
3336 159
3336 435
3336 1539
3336 6303
3336 6701
3337 159
3337 322
3338 159
3338 681
3338 811
3338 1171
3338 1689
3338 1792
3338 2716
3338 3339
3338 3910
3338 5312
3339 159
3339 222
3339 248
3339 552
3339 924
3339 1119
3339 1771
3339 3181
3339 3329
3339 3338
3339 4607
3339 5714
3340 53
3340 159
3340 1057
3340 3926
3340 5049
3341 88
3341 159
3341 501
3341 1866
3341 3439
3342 160
3342 853
3342 872
3342 873
3343 160
3343 444
3343 449
3343 720
3343 1010
3343 1225
3343 1468
3343 3277
3343 4769
3344 88
3344 160
3344 252
3344 256
3344 488
3344 586
3344 686
3344 885
3344 957
3344 1500
3344 1778
3345 87
3345 160
3345 794
3345 1903
3346 160
3346 237
3346 3930
3347 160
3347 1761
3347 1927
3347 6050
3348 160
3348 201
3348 525
3348 844
3348 1166
3348 2982
3348 6702
3349 160
3350 160
3350 186
3350 272
3350 283
3350 408
3350 841
3350 1212
3350 1295
3350 1769
3350 2028
3350 3658
3350 4872
3351 161
3351 576
3352 161
3352 6703
3353 161
3353 592
3353 1802
3354 161
3355 161
3355 195
3355 339
3355 1140
3355 1182
3356 161
3356 189
3356 688
3356 3722
3357 161
3357 1062
3357 1408
3357 3934
3357 5902
3358 162
3358 206
3358 872
3358 1275
3358 1276
3358 1802
3359 162
3359 620
3359 786
3359 2144
3359 5949
3360 162
3361 162
3361 414
3361 2274
3361 2383
3361 6704
3362 162
3362 432
3362 1212
3362 1867
3362 3073
3362 3705
3363 162
3363 197
3363 619
3363 660
3363 668
3363 938
3363 1060
3363 1585
3364 162
3364 356
3364 374
3364 532
3364 1115
3364 1427
3364 6686
3364 6705
3365 3
3365 162
3365 206
3365 1047
3365 1052
3365 1564
3366 163
3367 164
3367 1324
3367 2793
3367 3292
3367 3369
3368 164
3368 1183
3368 1343
3368 1371
3368 1535
3368 1739
3368 3219
3368 5856
3369 164
3369 2793
3369 3367
3370 45
3370 164
3370 1705
3370 1706
3370 1819
3371 164
3372 164
3372 345
3372 395
3372 694
3372 1263
3372 1412
3373 165
3373 640
3373 779
3373 900
3373 948
3373 1172
3373 1415
3373 2537
3373 3376
3373 5520
3374 165
3374 187
3374 823
3374 1196
3374 1879
3374 6706
3375 165
3376 165
3376 519
3376 1231
3376 3373
3376 3985
3377 165
3377 519
3377 1033
3378 74
3378 165
3378 981
3379 166
3379 199
3379 772
3379 773
3380 166
3380 195
3380 1004
3380 1115
3380 1756
3380 3980
3381 166
3381 338
3381 700
3381 1405
3381 6707
3382 166
3382 505
3382 1251
3383 166
3383 6708
3383 6709
3384 166
3384 855
3385 166
3386 147
3386 166
3386 1742
3387 166
3387 211
3387 703
3387 1106
3387 1153
3387 1370
3388 166
3388 338
3388 398
3388 1000
3388 1220
3389 167
3390 69
3390 167
3390 1207
3390 1415
3390 3843
3391 167
3391 185
3391 520
3391 942
3391 1625
3391 4652
3392 168
3392 316
3393 168
3393 321
3393 793
3393 1868
3394 168
3395 168
3395 592
3395 607
3395 1210
3395 1528
3396 169
3397 169
3397 208
3397 3711
3398 169
3398 1150
3398 1170
3398 1476
3398 1534
3398 1547
3398 5997
3399 88
3399 169
3399 1047
3399 1161
3399 4987
3400 166
3400 169
3400 291
3400 933
3401 169
3401 364
3401 605
3401 990
3401 1224
3401 1346
3402 169
3402 1195
3402 1196
3402 2823
3402 4132
3403 169
3403 634
3403 1161
3403 1345
3403 1620
3403 1636
3403 1637
3403 1638
3404 170
3404 378
3404 598
3404 941
3404 5109
3405 170
3406 170
3406 6710
3407 170
3407 927
3407 1020
3407 1297
3407 1513
3407 2707
3408 170
3408 1336
3408 2360
3408 2364
3409 51
3409 170
3409 513
3410 124
3410 170
3410 308
3410 935
3411 170
3411 1732
3412 63
3412 170
3412 288
3412 2917
3413 170
3413 201
3413 1012
3413 1214
3413 1617
3414 170
3414 188
3414 318
3415 171
3415 274
3415 315
3415 795
3416 171
3416 850
3416 1359
3416 5560
3416 6523
3417 124
3417 171
3417 619
3417 1157
3417 1486
3418 171
3418 877
3419 171
3419 357
3419 900
3419 2101
3419 2504
3420 171
3421 171
3421 189
3421 619
3421 1090
3421 1254
3421 1430
3421 1652
3421 3143
3421 3144
3422 172
3422 1045
3422 2947
3422 2948
3422 6711
3423 88
3423 172
3423 994
3423 1141
3423 2365
3424 172
3425 172
3425 276
3425 609
3425 5136
3425 6712
3426 172
3426 283
3426 743
3426 1188
3426 1361
3426 1362
3427 84
3427 172
3428 172
3428 402
3429 172
3429 6713
3430 172
3430 575
3430 1488
3431 173
3432 174
3433 174
3433 924
3433 1074
3433 1190
3434 88
3434 174
3434 670
3434 1153
3434 5858
3435 174
3435 865
3435 1009
3435 1153
3435 1433
3435 3814
3435 6714
3436 174
3436 671
3436 786
3437 88
3437 174
3437 388
3437 847
3438 174
3438 4633
3438 5995
3439 175
3439 216
3439 272
3439 604
3439 2984
3439 3341
3439 3988
3439 6715
3440 175
3441 175
3441 202
3441 421
3441 646
3441 1185
3441 1456
3441 1472
3442 175
3442 422
3443 175
3443 1278
3443 1380
3443 5672
3444 175
3444 191
3444 951
3444 1580
3445 175
3445 927
3445 2140
3446 175
3446 200
3446 363
3446 1040
3446 2230
3446 4590
3447 170
3447 175
3447 896
3447 1092
3448 175
3448 421
3448 1143
3448 4667
3448 6407
3449 88
3449 175
3449 6716
3450 176
3451 176
3451 670
3451 3452
3452 176
3452 670
3452 1470
3452 3451
3452 4074
3453 176
3453 217
3453 263
3453 352
3453 839
3453 1075
3453 1144
3453 1316
3453 1764
3453 1765
3454 177
3455 177
3455 845
3456 177
3456 355
3456 812
3456 1322
3456 1363
3456 2110
3456 5072
3457 177
3457 417
3457 488
3457 566
3457 686
3457 1710
3457 1711
3457 1712
3457 1713
3458 88
3458 177
3458 687
3458 1187
3458 1188
3459 177
3459 259
3459 345
3459 694
3459 1438
3459 1460
3459 1543
3460 177
3460 398
3460 1591
3460 2890
3461 178
3461 3471
3462 88
3462 178
3463 178
3463 208
3463 1295
3463 2326
3463 5735
3464 178
3465 178
3465 580
3465 1723
3466 178
3466 6717
3467 178
3467 188
3467 750
3467 3559
3468 88
3468 178
3468 273
3468 408
3468 958
3468 1371
3469 178
3469 298
3469 435
3469 1163
3469 2836
3470 178
3470 626
3470 5711
3471 178
3471 1553
3471 3461
3471 4827
3472 179
3472 738
3472 871
3472 2162
3472 2554
3472 6718
3473 179
3474 88
3474 179
3474 200
3474 1501
3474 2558
3474 5198
3475 179
3475 908
3475 909
3475 5684
3476 179
3476 1364
3476 1422
3476 1731
3476 1967
3476 2276
3477 179
3477 2923
3478 179
3478 214
3478 290
3478 507
3478 620
3478 1889
3478 4243
3478 4591
3479 86
3479 179
3479 330
3479 332
3479 685
3479 1382
3479 2613
3480 179
3480 380
3480 907
3480 3893
3481 88
3481 179
3481 281
3481 2325
3482 179
3482 203
3482 4312
3483 73
3483 179
3483 227
3483 338
3483 403
3483 417
3483 1610
3483 1630
3484 88
3484 179
3484 214
3484 761
3484 833
3484 981
3484 1582
3484 1633
3485 87
3485 179
3485 409
3485 1129
3485 1172
3486 179
3486 864
3486 1101
3486 1145
3486 1222
3487 124
3487 179
3487 214
3488 180
3489 20
3489 88
3489 180
3489 688
3489 1283
3489 2187
3490 180
3490 511
3490 2112
3490 3839
3490 6719
3491 180
3491 3800
3492 88
3492 180
3492 620
3493 150
3493 180
3493 590
3493 831
3494 180
3494 1900
3494 2849
3495 180
3495 696
3495 924
3495 1809
3495 3551
3495 6347
3496 42
3496 180
3496 1015
3497 88
3497 181
3497 2213
3497 4881
3498 73
3498 181
3498 413
3498 550
3499 181
3499 444
3499 1439
3500 181
3500 427
3500 528
3500 929
3500 6720
3501 181
3501 198
3501 1330
3501 1868
3501 2399
3501 4208
3501 5546
3502 181
3503 181
3503 201
3503 215
3503 304
3503 1834
3504 181
3504 1611
3505 181
3505 414
3505 1463
3505 3654
3505 6538
3506 88
3506 181
3507 181
3507 1697
3507 1842
3507 4165
3508 88
3508 181
3508 237
3508 272
3508 300
3508 552
3508 630
3508 864
3508 888
3508 1770
3509 182
3509 416
3509 559
3509 1534
3509 2368
3509 4304
3509 6721
3510 182
3510 749
3510 1907
3510 4714
3511 182
3511 3247
3511 3983
3512 182
3512 490
3512 674
3512 1152
3512 1451
3512 1721
3512 1722
3512 1723
3512 2395
3513 182
3513 6722
3514 88
3514 182
3514 1103
3514 1702
3514 3981
3515 170
3515 182
3515 1193
3515 1277
3515 1938
3515 2210
3516 182
3517 182
3517 213
3517 1361
3517 3176
3517 4708
3517 6723
3518 182
3518 5611
3519 53
3519 182
3519 195
3519 288
3519 435
3519 873
3520 72
3520 182
3520 1138
3520 1204
3520 2534
3521 88
3521 182
3521 338
3521 1220
3521 5917
3522 182
3522 819
3522 1228
3522 1871
3523 182
3523 536
3523 1891
3523 4292
3523 5467
3524 183
3524 450
3524 632
3524 659
3524 718
3524 788
3524 885
3524 1729
3524 1779
3524 1780
3524 1781
3525 88
3525 183
3525 195
3525 1191
3526 183
3526 539
3526 873
3526 1097
3526 1488
3526 1781
3526 3141
3526 6330
3527 183
3527 1097
3527 2979
3527 3529
3527 6626
3528 62
3528 183
3528 694
3528 720
3528 880
3528 1619
3528 1620
3528 1621
3529 183
3529 1129
3529 2245
3529 2279
3529 3527
3529 6724
3530 183
3531 184
3531 6266
3532 184
3532 987
3532 1088
3532 1366
3532 1825
3533 184
3533 371
3533 701
3533 808
3533 1489
3533 1583
3533 1587
3533 1588
3534 184
3534 918
3534 3867
3535 184
3536 184
3536 189
3536 542
3536 1411
3536 1548
3536 2123
3536 5542
3536 6725
3537 185
3537 913
3537 988
3538 185
3539 57
3539 185
3540 57
3540 185
3540 744
3541 185
3541 981
3542 185
3542 721
3542 934
3542 2975
3543 186
3543 345
3543 492
3543 625
3543 694
3543 1188
3543 1819
3544 186
3544 1746
3544 1996
3545 88
3545 186
3545 612
3545 5624
3546 186
3546 213
3546 386
3546 1679
3546 1819
3546 2393
3546 6303
3546 6652
3547 186
3547 261
3547 1796
3547 6726
3548 186
3548 866
3548 1746
3548 6242
3549 186
3550 187
3551 187
3551 198
3551 1809
3551 3495
3551 6347
3552 187
3552 206
3552 432
3552 590
3552 698
3552 984
3552 1026
3552 1151
3552 1159
3552 1543
3552 1607
3552 1811
3552 1870
3552 1871
3553 187
3553 488
3553 686
3553 1170
3553 1740
3554 88
3554 187
3554 461
3554 961
3554 1095
3555 188
3555 657
3555 1553
3555 1563
3555 1564
3555 1566
3555 1729
3555 3559
3556 88
3556 188
3556 318
3556 1168
3556 3561
3557 188
3558 188
3558 318
3558 645
3559 188
3559 877
3559 985
3559 2771
3559 3467
3559 3555
3560 88
3560 188
3560 2771
3561 188
3561 763
3561 2435
3561 3556
3561 6727
3562 188
3562 318
3562 985
3562 986
3563 88
3563 189
3563 387
3563 2644
3563 2709
3564 189
3564 878
3564 1859
3564 3863
3565 189
3566 189
3566 889
3566 1778
3567 189
3567 1439
3567 1459
3567 1463
3567 1950
3567 3020
3567 3567
3568 189
3568 233
3568 387
3568 618
3568 694
3568 759
3568 885
3568 936
3568 1052
3568 1796
3568 1797
3569 88
3569 189
3569 725
3569 5456
3570 189
3570 678
3570 1176
3570 2168
3570 3910
3570 5614
3571 189
3571 6193
3572 3
3572 189
3572 344
3572 364
3572 390
3572 809
3572 1285
3572 1346
3572 1384
3572 1526
3573 190
3573 744
3573 1861
3574 190
3574 426
3574 488
3574 536
3574 1272
3574 2900
3575 190
3575 850
3576 88
3576 190
3576 459
3576 582
3576 1106
3577 190
3578 190
3578 298
3578 838
3578 1256
3579 88
3579 190
3580 88
3580 190
3580 342
3580 350
3580 803
3580 850
3580 1359
3580 2056
3580 4171
3581 124
3581 190
3581 1360
3582 190
3582 839
3582 1142
3582 2024
3582 4765
3583 64
3583 190
3583 942
3584 88
3584 190
3584 510
3585 88
3585 190
3585 582
3585 4219
3586 88
3586 190
3586 744
3586 1861
3587 190
3587 191
3587 1178
3588 191
3588 259
3588 1087
3588 1469
3588 1900
3588 2068
3588 2246
3588 4953
3588 5550
3589 191
3589 437
3589 895
3589 1239
3589 1577
3589 1578
3589 1579
3589 1856
3590 79
3590 191
3590 1185
3590 2572
3590 2627
3591 191
3592 191
3592 483
3592 1160
3592 1495
3592 2527
3593 191
3593 422
3593 1380
3593 2695
3594 88
3594 191
3594 1404
3595 192
3595 636
3595 856
3595 1744
3595 1807
3595 2375
3595 3028
3596 192
3596 1490
3596 1547
3597 76
3597 192
3597 398
3597 888
3598 192
3598 1055
3598 4292
3598 5932
3599 192
3600 192
3600 414
3600 887
3600 941
3600 1183
3601 192
3601 773
3602 193
3602 2252
3602 6723
3603 193
3603 611
3603 612
3604 193
3605 193
3605 380
3605 605
3605 4504
3606 193
3606 209
3606 297
3606 865
3606 1388
3606 1679
3606 1701
3606 1702
3606 1703
3607 193
3607 894
3607 954
3607 1745
3608 193
3608 937
3609 193
3609 379
3609 1165
3609 1992
3609 2473
3609 6728
3610 193
3610 256
3610 379
3610 426
3610 544
3611 193
3611 1693
3611 6729
3612 194
3613 82
3613 194
3613 646
3614 194
3614 1402
3615 194
3615 598
3615 746
3615 1432
3615 1604
3615 5703
3616 194
3616 927
3616 1239
3616 5579
3617 52
3617 194
3617 668
3618 194
3618 541
3618 675
3619 194
3619 212
3619 1059
3619 1069
3619 1180
3620 194
3620 848
3620 952
3620 3175
3620 5368
3621 194
3621 201
3621 293
3621 641
3621 1408
3621 1760
3622 195
3622 198
3622 239
3622 277
3622 335
3622 5062
3622 6730
3622 6731
3623 195
3623 207
3623 317
3623 670
3623 714
3623 888
3623 1228
3623 5003
3624 195
3624 2072
3625 195
3625 1465
3625 5043
3625 6732
3626 195
3626 298
3626 593
3626 1720
3626 2026
3627 195
3627 659
3627 707
3627 1340
3627 1343
3627 1581
3627 1583
3627 1585
3628 88
3628 195
3628 687
3628 874
3629 195
3629 332
3629 765
3629 932
3629 1355
3629 5234
3630 195
3631 88
3631 195
3631 5347
3632 195
3632 533
3632 4120
3633 88
3633 195
3633 1329
3633 5482
3633 5849
3634 195
3634 1362
3634 1426
3634 2481
3634 3130
3634 4493
3634 4756
3635 196
3635 1524
3636 196
3637 88
3637 196
3637 907
3637 1018
3637 1754
3638 196
3638 204
3638 289
3638 1127
3638 1202
3639 197
3639 3021
3639 6733
3640 197
3640 288
3640 410
3640 667
3640 899
3641 197
3642 197
3642 437
3642 848
3642 1338
3642 1483
3642 1569
3642 1570
3642 3024
3643 197
3643 853
3643 1274
3643 1321
3643 1600
3643 6734
3644 197
3644 536
3644 660
3644 961
3644 1151
3644 1340
3644 1438
3645 88
3645 197
3646 197
3646 378
3646 1163
3646 6735
3647 32
3647 197
3647 765
3647 1869
3648 197
3648 273
3648 671
3648 3329
3649 197
3649 656
3649 1539
3650 88
3650 197
3650 535
3651 198
3651 901
3651 1323
3651 1377
3652 198
3652 208
3652 580
3652 1295
3652 1474
3652 1475
3652 2095
3653 198
3654 198
3654 372
3654 382
3654 1151
3654 3505
3654 4158
3655 198
3655 302
3655 1107
3655 1178
3655 1564
3656 198
3656 920
3656 2093
3656 2372
3656 6736
3657 76
3657 198
3657 669
3657 882
3657 1508
3657 1843
3658 199
3658 502
3658 1322
3658 1516
3658 1720
3658 2371
3658 3350
3658 4391
3659 199
3659 995
3660 199
3660 6737
3661 199
3661 213
3661 356
3661 667
3661 672
3661 1195
3661 1363
3661 1688
3661 1689
3662 76
3662 199
3662 560
3663 199
3663 389
3663 743
3663 864
3663 1364
3663 2230
3664 199
3665 88
3665 200
3665 214
3665 236
3665 507
3665 704
3665 902
3665 1568
3666 88
3666 200
3666 482
3666 1112
3666 1172
3666 2040
3667 200
3668 201
3668 755
3669 201
3669 746
3669 1432
3669 2415
3670 201
3671 86
3671 201
3671 321
3671 401
3671 641
3671 650
3671 1697
3671 1698
3671 2128
3672 185
3672 201
3672 1291
3672 1726
3673 88
3673 202
3674 190
3674 202
3674 255
3674 421
3675 202
3675 585
3675 2464
3676 202
3677 88
3677 202
3677 1732
3677 1857
3678 202
3678 3678
3679 202
3679 1749
3680 78
3680 202
3680 302
3680 781
3681 202
3681 216
3681 280
3681 721
3681 1129
3681 1487
3681 2535
3682 202
3682 314
3682 1029
3682 1725
3682 1793
3683 88
3683 202
3683 646
3683 5567
3684 40
3684 203
3684 392
3684 943
3684 1313
3684 2879
3685 203
3686 155
3686 203
3686 469
3686 684
3687 203
3687 211
3687 256
3687 345
3687 1050
3687 5117
3687 5644
3688 203
3688 905
3688 1246
3688 2360
3688 2698
3688 6738
3688 6739
3689 88
3689 203
3689 1544
3690 204
3690 571
3690 768
3690 863
3690 871
3690 1184
3690 1427
3690 2516
3691 88
3691 204
3691 581
3691 653
3691 956
3691 1511
3691 1722
3692 204
3693 204
3693 421
3694 204
3694 1314
3694 1737
3694 1791
3695 205
3696 206
3696 605
3696 2317
3697 88
3697 206
3697 697
3697 1595
3697 5182
3698 206
3699 207
3699 730
3699 1654
3699 2098
3699 5549
3700 207
3700 208
3700 211
3700 336
3700 922
3700 1260
3700 1275
3700 2007
3700 3251
3700 5277
3700 6195
3701 207
3701 669
3701 1183
3701 4025
3702 207
3702 238
3702 654
3702 898
3702 972
3702 1026
3702 1680
3702 1770
3702 1953
3703 207
3703 3900
3703 5247
3703 5576
3704 207
3705 207
3705 669
3705 3362
3706 207
3706 2889
3706 6740
3707 208
3707 338
3707 929
3707 1034
3707 1598
3708 208
3708 1431
3708 1433
3708 1434
3708 1435
3708 1784
3708 2328
3709 208
3709 1487
3709 6741
3710 208
3710 2963
3711 208
3711 3397
3711 3941
3711 6261
3712 208
3712 496
3712 1110
3713 208
3714 208
3714 353
3714 932
3714 1153
3714 1264
3714 2981
3714 4154
3715 208
3715 458
3715 1911
3715 4974
3715 6095
3716 208
3716 372
3716 605
3716 880
3716 2481
3716 5568
3717 88
3717 208
3717 1338
3717 1410
3718 5
3718 208
3718 390
3718 419
3718 633
3718 923
3718 1723
3718 2018
3718 3718
3719 208
3719 435
3719 1275
3719 2357
3720 208
3720 882
3720 938
3720 1188
3720 1446
3720 1623
3720 1666
3720 1792
3720 1806
3720 1807
3720 2111
3721 88
3721 208
3721 887
3721 1368
3721 3315
3722 208
3722 863
3722 935
3722 3356
3723 209
3723 685
3724 209
3724 1050
3724 1111
3724 1567
3724 2167
3725 209
3726 88
3726 209
3726 232
3726 660
3726 766
3726 875
3726 1419
3727 210
3727 1021
3727 1917
3728 210
3728 724
3728 2874
3728 3734
3729 155
3729 210
3729 449
3730 210
3730 516
3730 6248
3731 210
3732 210
3732 312
3732 414
3732 1648
3732 2833
3732 6575
3732 6742
3733 206
3733 210
3733 701
3734 210
3734 486
3734 2389
3734 2548
3734 3728
3735 210
3735 656
3735 668
3735 669
3735 1007
3735 6744
3736 211
3736 416
3736 1470
3736 1519
3736 1664
3736 1894
3736 3252
3736 6289
3737 211
3737 2955
3737 6388
3738 211
3738 1188
3738 1576
3739 211
3739 342
3739 1977
3739 2865
3740 211
3740 378
3740 1158
3740 1343
3740 5743
3740 6170
3741 76
3741 211
3741 372
3741 374
3742 211
3742 1916
3742 5089
3743 211
3743 3752
3744 211
3744 324
3744 461
3744 590
3744 899
3744 1659
3744 3329
3744 4117
3744 4249
3745 211
3745 3311
3745 6745
3746 211
3747 211
3747 432
3747 618
3747 1004
3747 1997
3747 3748
3747 3990
3748 211
3748 677
3748 808
3748 1745
3748 3747
3748 3749
3748 3911
3749 211
3749 1190
3749 1226
3749 1467
3749 3748
3750 172
3750 211
3751 208
3751 211
3751 1016
3751 1224
3751 1225
3752 212
3752 3743
3753 88
3753 212
3753 650
3754 212
3754 3232
3755 212
3755 1093
3755 2493
3756 212
3756 218
3756 745
3756 1090
3757 212
3758 76
3758 212
3758 214
3758 1153
3758 1264
3758 5096
3759 42
3759 212
3759 581
3759 1098
3759 1215
3760 212
3760 893
3760 925
3760 1566
3760 5260
3761 213
3761 2952
3762 213
3762 5451
3762 6746
3763 213
3763 1742
3763 4901
3764 88
3764 213
3765 213
3766 213
3766 957
3766 1024
3766 1138
3767 213
3767 1162
3767 1538
3767 1871
3767 3073
3767 4309
3768 213
3768 684
3768 1134
3768 1153
3768 1224
3768 1598
3768 1648
3768 1649
3769 214
3769 2442
3769 3893
3770 214
3770 1035
3770 2461
3770 2502
3771 214
3771 281
3771 507
3771 594
3771 722
3771 1568
3771 1667
3771 4106
3772 88
3772 214
3772 824
3772 825
3773 65
3773 214
3773 572
3773 788
3773 792
3773 1306
3774 42
3774 214
3774 415
3774 478
3774 1889
3774 2247
3775 214
3775 290
3775 788
3775 824
3775 1501
3776 214
3776 339
3776 6521
3776 6747
3777 214
3777 285
3777 289
3777 1040
3777 3000
3777 4852
3778 88
3778 214
3778 336
3778 403
3778 766
3779 214
3779 689
3779 1040
3779 1054
3779 1667
3779 1850
3779 2101
3779 2635
3779 5507
3780 44
3780 214
3780 290
3780 2920
3781 214
3781 2851
3782 214
3782 421
3782 1555
3782 1567
3782 4275
3782 4913
3782 5944
3782 6748
3783 214
3784 214
3784 281
3784 1053
3784 2139
3784 4852
3785 215
3785 380
3785 446
3785 538
3785 660
3785 718
3785 1488
3785 4865
3786 215
3786 1212
3786 2595
3787 88
3787 215
3787 1105
3787 6283
3788 62
3788 215
3788 2119
3789 215
3789 698
3789 938
3789 1261
3789 1315
3789 1316
3790 87
3790 215
3790 282
3790 416
3790 1939
3791 215
3791 1767
3792 215
3792 234
3792 2345
3792 2955
3792 4609
3792 6263
3792 6749
3792 6750
3793 215
3794 215
3794 3829
3795 215
3795 411
3795 552
3795 992
3796 88
3796 216
3796 756
3796 758
3797 216
3797 316
3797 657
3797 2954
3798 216
3798 285
3798 431
3798 961
3798 2362
3798 5022
3799 216
3799 284
3799 352
3799 464
3799 520
3799 1482
3799 2322
3799 3017
3799 3234
3799 4839
3800 216
3800 358
3800 1542
3800 3491
3801 216
3801 916
3801 2346
3802 216
3803 217
3803 839
3804 217
3804 3805
3804 6751
3805 217
3805 1010
3805 1618
3805 3804
3805 6264
3806 218
3806 1616
3807 218
3807 281
3807 332
3807 352
3807 407
3807 2198
3807 3117
3807 3840
3807 4236
3807 4281
3808 218
3808 1113
3808 5946
3809 218
3809 824
3809 3832
3809 4243
3810 219
3810 908
3811 88
3811 119
3811 219
3812 219
3812 6752
3813 219
3813 284
3813 462
3813 626
3813 3328
3813 4255
3814 485
3814 583
3814 3435
3814 6449
3814 6714
3815 3823
3815 6753
3816 5115
3816 6449
3817 983
3817 5822
3817 6405
3817 6754
3818 234
3818 688
3818 759
3818 3882
3818 6749
3818 6750
3819 84
3819 6223
3820 306
3820 435
3820 522
3820 2372
3820 6223
3821 87
3821 4953
3822 1250
3822 6035
3822 6063
3822 6064
3822 6753
3823 2949
3823 3815
3823 6753
3823 6755
3824 848
3824 3824
3824 3825
3825 86
3825 3824
3826 88
3826 5094
3827 218
3827 4579
3828 4268
3828 4579
3828 6756
3829 3794
3829 6750
3830 155
3830 550
3830 2323
3830 5070
3830 5777
3831 220
3831 2532
3831 2563
3831 3832
3831 5369
3832 220
3832 319
3832 1175
3832 3809
3832 3831
3832 6757
3833 88
3833 3892
3833 5947
3834 4661
3834 5959
3835 5976
3835 6290
3836 88
3836 6398
3837 221
3837 6758
3837 6759
3838 49
3838 221
3839 3490
3839 4496
3840 332
3840 3117
3840 3807
3840 4267
3840 4281
3840 4473
3841 88
3841 708
3841 2539
3841 4227
3841 6015
3842 65
3842 5716
3843 392
3843 3390
3843 5716
3843 6760
3844 396
3844 1503
3844 3844
3844 4777
3844 6167
3845 3888
3845 6761
3846 634
3846 684
3846 2870
3846 3876
3846 5671
3847 500
3847 3848
3847 4896
3847 6762
3847 6763
3848 500
3848 3847
3848 4896
3848 4897
3849 88
3849 407
3849 5619
3849 6764
3850 6401
3850 6406
3850 6765
3851 85
3851 4922
3852 1231
3852 4352
3853 88
3853 4829
3854 224
3854 1264
3855 224
3855 2324
3855 3241
3855 6651
3855 6766
3856 225
3856 327
3857 226
3857 479
3857 2981
3858 226
3858 936
3858 1521
3858 2399
3858 3140
3858 5919
3859 226
3859 4160
3860 226
3860 541
3860 2980
3860 5725
3861 227
3861 6767
3862 228
3862 759
3862 839
3862 3896
3863 228
3863 243
3863 615
3863 791
3863 912
3863 3564
3864 228
3864 505
3864 1768
3865 88
3865 228
3865 408
3865 612
3865 1072
3865 1866
3866 88
3866 228
3867 228
3867 449
3867 898
3867 1115
3867 1371
3867 1628
3867 2389
3867 3534
3868 228
3868 4153
3869 229
3869 3869
3870 229
3870 411
3871 229
3871 307
3871 1166
3871 1170
3871 1255
3871 1422
3871 1512
3872 230
3872 2825
3873 231
3873 3874
3874 231
3874 3873
3874 4708
3875 231
3875 6768
3876 232
3876 1379
3876 3846
3877 232
3877 6398
3878 232
3878 395
3879 88
3879 232
3880 233
3880 673
3881 233
3882 234
3882 3818
3882 3886
3883 234
3883 687
3884 234
3885 234
3885 1617
3885 6263
3886 234
3886 3882
3887 88
3887 235
3887 552
3887 705
3887 1225
3887 1575
3887 1770
3888 235
3888 484
3888 1547
3888 3845
3889 210
3889 235
3889 1073
3889 1153
3890 235
3890 678
3890 798
3890 1203
3890 1575
3890 1598
3890 1599
3890 1600
3891 235
3891 1224
3892 236
3892 3833
3893 236
3893 907
3893 921
3893 955
3893 1094
3893 1501
3893 1990
3893 2256
3893 3480
3893 3769
3894 236
3894 723
3894 5455
3895 237
3895 707
3896 237
3896 1874
3896 3862
3897 237
3897 262
3897 941
3897 1349
3897 1427
3897 1802
3898 86
3898 238
3899 238
3899 418
3899 1019
3899 1303
3899 6008
3900 238
3900 837
3900 3703
3900 5576
3901 238
3901 1744
3902 238
3903 62
3903 238
3903 263
3903 304
3903 921
3903 1338
3903 1641
3903 1642
3904 239
3904 1326
3905 239
3906 239
3906 271
3906 984
3906 4662
3907 240
3907 1858
3908 241
3908 1184
3909 241
3909 343
3909 1301
3909 1711
3909 1782
3910 241
3910 267
3910 309
3910 312
3910 413
3910 498
3910 517
3910 720
3910 787
3910 1822
3910 1865
3910 3077
3910 3338
3910 3570
3910 4539
3911 241
3911 335
3911 1388
3911 1389
3911 1390
3911 3748
3912 182
3912 241
3913 242
3913 578
3913 666
3913 2043
3913 2912
3913 5177
3913 5468
3914 194
3914 242
3915 243
3915 1538
3916 244
3916 390
3917 245
3917 294
3917 652
3917 1167
3917 2498
3917 5461
3918 245
3918 2941
3919 1552
3919 3967
3919 4997
3920 88
3920 4680
3920 4775
3921 2129
3921 4838
3921 6769
3922 6771
3922 6976
3923 4627
3923 5172
3923 6471
3924 4310
3924 4344
3924 6772
3925 858
3925 1616
3925 4248
3925 5106
3926 726
3926 3077
3926 3340
3926 6773
3927 317
3927 372
3927 618
3927 798
3927 1226
3927 1796
3927 1813
3927 2725
3927 4462
3927 5035
3928 88
3928 687
3928 1995
3928 2612
3928 4559
3928 5909
3929 936
3929 950
3929 1052
3929 1162
3929 6214
3930 1166
3930 3346
3930 5342
3930 5484
3931 723
3931 881
3931 946
3931 1035
3931 2690
3931 4275
3931 4580
3931 6485
3932 82
3932 1420
3932 2236
3932 6667
3933 2985
3933 5675
3933 6774
3934 1062
3934 2087
3934 3357
3934 5085
3935 602
3935 717
3935 843
3935 5367
3935 5441
3935 6775
3936 88
3936 1216
3936 1217
3936 1252
3936 2918
3936 5482
3936 6568
3937 630
3937 3063
3937 6564
3938 88
3938 788
3938 2228
3938 5211
3938 6776
3939 277
3939 529
3939 1078
3939 1499
3939 1809
3939 4231
3939 4254
3939 4945
3940 651
3940 4346
3940 5634
3940 6777
3941 785
3941 2713
3941 2725
3941 3711
3941 4061
3941 4800
3941 6261
3942 1610
3942 1687
3942 5908
3942 6778
3943 708
3943 747
3943 5476
3943 5529
3944 3944
3944 3950
3945 5674
3945 5922
3946 88
3946 5925
3947 246
3947 6780
3948 620
3948 1339
3948 4109
3948 6781
3949 211
3949 6570
3950 1667
3950 3944
3950 6782
3951 247
3951 394
3952 248
3952 2111
3953 249
3953 348
3953 535
3953 4377
3953 6773
3954 249
3954 288
3954 299
3954 324
3954 688
3954 1534
3954 1623
3954 1742
3954 5034
3955 249
3955 673
3956 250
3956 3958
3956 3961
3957 250
3958 250
3958 487
3958 3956
3958 3959
3958 5065
3959 250
3959 3958
3960 250
3960 3960
3960 5677
3960 6783
3961 250
3961 3956
3961 6784
3962 251
3962 3962
3963 251
3964 251
3964 435
3965 252
3965 2849
3966 252
3967 253
3967 3919
3968 253
3969 254
3969 905
3969 907
3969 1644
3970 254
3970 1844
3971 72
3971 254
3971 1204
3971 2534
3972 255
3972 2273
3973 255
3973 824
3973 942
3973 5878
3974 255
3974 311
3974 313
3974 940
3974 1720
3974 1725
3974 2783
3974 5029
3974 5101
3975 255
3975 1662
3975 1663
3975 2781
3976 255
3976 311
3976 719
3976 1241
3976 1436
3976 1578
3976 1733
3977 255
3977 296
3977 949
3977 1173
3977 1681
3977 1732
3977 1733
3977 1734
3977 1735
3978 256
3978 1347
3979 256
3979 672
3979 796
3980 256
3980 679
3980 3160
3980 3380
3981 88
3981 256
3981 787
3981 931
3981 3514
3981 4868
3982 256
3982 4107
3983 256
3983 3054
3983 3511
3983 4484
3984 256
3984 272
3984 379
3984 1347
3984 1559
3984 1599
3984 1634
3984 1635
3985 257
3985 3376
3986 258
3986 497
3986 597
3986 626
3986 1896
3986 2563
3986 6785
3987 88
3987 258
3988 258
3988 3439
3989 259
3989 1502
3989 1729
3989 6041
3990 259
3990 833
3990 1105
3990 1225
3990 1918
3990 3747
3990 6176
3991 259
3992 259
3992 1434
3993 259
3993 612
3993 1151
3993 4092
3994 259
3994 507
3994 512
3995 88
3995 260
3996 260
3997 260
3997 349
3998 88
3998 260
3998 478
3998 1053
3998 1356
3998 1382
3999 261
3999 345
3999 564
3999 1073
3999 1121
4000 261
4000 1973
4001 261
4001 540
4001 898
4001 1089
4001 1581
4001 1714
4001 1715
4001 1716
4001 1717
4002 261
4002 871
4002 1807
4002 2662
4003 261
4003 583
4003 679
4003 717
4003 1864
4003 1993
4003 4429
4004 261
4005 261
4005 394
4005 865
4005 1208
4005 1279
4005 3103
4005 5098
4006 262
4006 1031
4007 262
4007 844
4007 912
4007 6020
4008 262
4008 347
4008 823
4008 1092
4008 1117
4008 1223
4009 88
4009 262
4009 732
4009 1005
4010 62
4010 263
4010 814
4011 263
4011 1907
4012 263
4012 284
4012 396
4012 3053
4012 3054
4012 6786
4013 182
4013 263
4014 263
4014 6787
4015 263
4015 417
4015 5276
4015 5786
4016 88
4016 263
4017 263
4017 586
4017 2158
4018 264
4018 1091
4019 265
4019 2427
4020 266
4020 4619
4021 266
4021 4227
4022 266
4022 1200
4022 2921
4022 3331
4022 4759
4023 166
4023 267
4024 267
4024 402
4024 523
4024 656
4024 928
4024 5199
4024 5312
4025 267
4025 503
4025 1637
4025 1638
4025 1808
4025 3701
4025 5837
4026 267
4026 503
4026 843
4026 1637
4026 6788
4027 4569
4027 5959
4028 268
4028 292
4028 1278
4028 4135
4028 5883
4029 88
4029 268
4030 268
4030 1968
4031 269
4031 4603
4031 6769
4032 88
4032 269
4033 88
4033 270
4034 249
4034 270
4035 271
4035 845
4036 272
4036 484
4036 489
4037 84
4037 272
4037 759
4037 760
4038 272
4038 1629
4038 2791
4038 4042
4038 4082
4038 6789
4039 198
4039 272
4039 868
4039 2878
4040 272
4040 671
4040 1106
4040 1108
4040 1570
4041 68
4041 122
4041 272
4041 690
4041 1129
4041 1293
4042 272
4042 865
4042 1465
4042 1466
4042 1843
4042 2482
4042 4038
4043 272
4043 420
4044 272
4044 544
4044 819
4044 829
4044 898
4044 1115
4044 1537
4044 2108
4045 272
4045 353
4045 5668
4046 207
4046 272
4046 522
4046 753
4047 88
4047 273
4047 563
4047 1808
4048 273
4048 356
4048 1082
4048 1089
4048 1272
4049 88
4049 273
4050 273
4050 1066
4051 273
4051 404
4051 671
4051 1389
4051 1808
4051 1809
4051 1810
4051 1811
4051 1812
4051 1813
4051 2927
4052 85
4052 274
4053 275
4053 1316
4054 275
4054 321
4054 5332
4055 276
4055 1151
4056 276
4056 5777
4057 276
4057 822
4057 1019
4058 276
4058 6138
4059 276
4059 365
4059 671
4059 717
4059 969
4059 989
4059 1500
4059 2195
4059 2961
4059 5839
4060 277
4060 325
4060 348
4060 964
4060 1599
4060 2862
4060 4062
4061 277
4061 3941
4062 277
4062 4060
4063 88
4063 277
4063 2205
4063 2972
4064 277
4064 395
4064 958
4064 1194
4064 5197
4065 278
4065 400
4065 484
4065 785
4065 813
4065 1085
4065 4760
4066 278
4067 278
4067 2548
4068 134
4068 279
4068 660
4068 1953
4069 279
4069 4097
4070 279
4071 279
4071 879
4072 280
4072 855
4073 280
4073 989
4073 1129
4073 1679
4074 280
4074 432
4074 1258
4074 1469
4074 1470
4074 1471
4074 3452
4075 88
4075 280
4075 1129
4076 280
4076 4329
4077 280
4078 281
4078 1198
4079 88
4079 281
4080 281
4080 283
4080 689
4080 1097
4081 88
4081 281
4081 380
4081 1097
4081 1590
4081 5677
4082 281
4082 1198
4082 1850
4082 2021
4082 4038
4083 281
4083 282
4084 282
4084 2817
4085 88
4085 282
4085 611
4085 759
4085 892
4085 1659
4085 1685
4085 1686
4085 1687
4086 282
4086 530
4086 1146
4086 1338
4086 1502
4086 1994
4086 4751
4087 88
4087 282
4088 282
4088 1222
4088 1402
4089 282
4090 282
4090 304
4090 6790
4091 283
4091 1028
4091 1061
4091 1099
4091 3275
4092 283
4092 612
4092 783
4092 2613
4092 3993
4092 5146
4093 283
4093 827
4093 885
4093 898
4094 88
4094 283
4094 671
4094 1598
4094 5875
4095 283
4096 88
4096 283
4096 335
4096 684
4096 5356
4096 5933
4097 283
4097 4069
4098 283
4098 1389
4099 199
4099 283
4100 182
4100 284
4100 299
4100 308
4100 1072
4100 1086
4100 1127
4100 1676
4100 1677
4101 284
4102 88
4102 284
4103 88
4103 285
4103 689
4103 2503
4103 4125
4103 6776
4103 6791
4104 285
4105 103
4105 285
4105 689
4106 285
4106 3771
4107 286
4107 3982
4108 286
4108 4110
4109 42
4109 286
4109 656
4109 1128
4109 1616
4109 3948
4110 286
4110 685
4110 857
4110 1070
4110 4108
4111 286
4112 287
4113 287
4113 1833
4114 88
4114 288
4115 288
4116 288
4116 880
4116 1729
4117 288
4117 3744
4118 182
4118 288
4118 435
4119 52
4119 288
4119 2198
4120 288
4120 343
4120 414
4120 1301
4120 2237
4120 3632
4120 4760
4121 154
4121 289
4121 652
4121 1461
4122 289
4122 392
4122 5086
4122 5496
4123 289
4123 334
4124 290
4124 1037
4124 1038
4124 1040
4124 1406
4125 290
4125 4103
4126 290
4126 788
4126 1027
4126 1452
4126 1492
4126 5530
4127 291
4127 2950
4128 88
4128 291
4128 323
4128 435
4129 291
4129 420
4129 660
4129 1536
4129 5624
4130 291
4130 6792
4131 291
4131 2573
4131 6793
4132 291
4132 684
4132 990
4132 1191
4132 3402
4133 291
4133 488
4133 2015
4134 292
4134 6794
4135 292
4135 4028
4136 88
4136 293
4137 293
4137 3300
4138 293
4138 1032
4138 1075
4138 1076
4138 2771
4139 293
4139 437
4139 1077
4139 1209
4139 1237
4140 294
4140 1421
4141 295
4141 616
4142 88
4142 296
4143 296
4143 2210
4144 296
4144 5596
4144 6795
4145 159
4145 297
4145 1552
4146 297
4146 865
4146 931
4146 1886
4147 88
4147 297
4147 605
4147 631
4147 2153
4148 297
4149 297
4149 931
4150 298
4150 964
4151 298
4152 88
4152 298
4152 325
4152 1743
4153 298
4153 3868
4154 86
4154 298
4154 1018
4154 2866
4154 3714
4155 88
4155 299
4155 655
4155 1035
4155 1417
4155 1418
4155 2904
4156 299
4156 328
4156 801
4156 835
4156 1076
4156 1092
4156 1246
4156 1334
4156 1826
4156 1827
4156 1828
4156 1829
4157 299
4157 387
4158 299
4158 3654
4158 6173
4159 299
4159 343
4159 646
4159 1102
4159 4159
4160 300
4160 3859
4160 4647
4160 4972
4161 300
4161 301
4162 300
4162 415
4162 851
4162 1844
4163 301
4163 1077
4164 301
4164 318
4164 548
4165 301
4165 3507
4165 5924
4166 301
4166 330
4166 1709
4166 5249
4167 301
4167 746
4167 1116
4167 1967
4168 301
4168 459
4168 582
4168 1186
4168 1579
4168 2305
4168 4168
4169 302
4170 225
4170 302
4171 302
4171 392
4171 1192
4171 3580
4172 68
4172 303
4172 1013
4172 1015
4172 1655
4173 303
4174 303
4174 603
4175 88
4175 303
4176 174
4176 303
4176 442
4177 303
4177 571
4177 869
4178 286
4178 304
4179 304
4180 304
4180 1030
4180 1036
4180 1055
4180 4886
4181 304
4181 6049
4182 304
4182 1119
4183 238
4183 304
4184 304
4184 734
4184 770
4184 1611
4184 1639
4184 1640
4184 1761
4184 2385
4185 305
4185 460
4185 668
4185 1355
4185 5753
4186 305
4186 547
4186 700
4186 6796
4187 305
4188 305
4188 1324
4189 305
4189 403
4189 714
4189 1088
4189 1452
4189 1540
4189 1541
4190 305
4190 808
4190 878
4190 2154
4191 306
4191 1626
4192 307
4192 1378
4192 1412
4192 2943
4192 6797
4193 307
4193 538
4193 2153
4193 6798
4194 307
4194 1588
4195 308
4195 864
4196 308
4196 4196
4197 303
4197 308
4197 334
4198 83
4198 308
4198 691
4198 1117
4198 1326
4198 1688
4198 1993
4198 1996
4198 4512
4199 309
4199 6799
4200 309
4200 550
4200 6800
4201 309
4202 310
4202 1289
4202 2963
4202 6801
4203 310
4204 310
4204 6762
4205 303
4205 310
4206 88
4206 311
4207 311
4208 312
4208 1055
4208 3501
4208 4837
4209 312
4209 521
4209 1394
4210 312
4210 928
4210 5439
4210 6802
4211 312
4211 1405
4212 312
4213 313
4213 1173
4213 1181
4214 88
4214 313
4214 392
4214 801
4215 313
4215 1115
4216 209
4216 314
4217 314
4217 761
4217 1045
4217 3097
4218 314
4218 641
4218 921
4218 930
4218 1193
4219 88
4219 314
4219 3585
4220 88
4220 314
4221 88
4221 314
4221 1227
4221 2055
4222 314
4222 425
4223 315
4223 2057
4224 316
4224 1930
4225 316
4225 2018
4225 3057
4226 316
4226 896
4226 4226
4227 317
4227 335
4227 3841
4227 4021
4228 317
4228 671
4228 1686
4228 2730
4229 317
4229 885
4229 1228
4229 1240
4229 1270
4229 2913
4230 317
4230 410
4230 532
4230 1079
4230 1426
4230 1526
4230 1636
4231 317
4231 3939
4232 318
4232 1396
4233 318
4233 321
4233 705
4233 1395
4234 223
4234 318
4235 5340
4236 319
4236 3807
4237 88
4237 320
4238 320
4238 2953
4239 320
4240 321
4240 1608
4241 321
4241 477
4241 592
4242 321
4242 659
4242 1115
4242 1255
4242 1457
4242 1606
4242 3089
4243 321
4243 1098
4243 1667
4243 2923
4243 3478
4243 3809
4243 6803
4244 322
4245 323
4246 88
4246 323
4247 323
4247 812
4247 965
4247 5477
4248 323
4248 3925
4249 88
4249 324
4249 3744
4250 324
4250 563
4251 324
4252 324
4252 957
4252 2702
4253 325
4254 325
4254 3939
4255 325
4255 1219
4255 3813
4256 195
4256 325
4256 668
4256 1370
4256 3161
4256 6174
4257 325
4257 860
4257 2955
4257 2956
4257 6804
4258 325
4258 456
4258 4782
4259 88
4259 326
4260 6722
4261 88
4261 327
4261 830
4261 1386
4261 2056
4261 6315
4262 328
4262 1841
4263 88
4263 329
4264 329
4264 472
4264 565
4264 1303
4264 1453
4264 2661
4264 4264
4265 329
4265 1394
4265 5983
4266 329
4266 663
4267 330
4267 332
4267 3840
4267 4274
4268 330
4268 3828
4269 330
4269 881
4269 1267
4269 1302
4269 1304
4269 1728
4270 330
4270 593
4270 2885
4270 5469
4270 6806
4271 330
4272 58
4272 330
4273 330
4273 4285
4274 330
4274 4267
4275 330
4275 1926
4275 2169
4275 3782
4275 3931
4275 5488
4275 6335
4276 318
4276 331
4277 330
4277 332
4278 332
4278 478
4278 651
4278 1903
4279 332
4279 792
4279 852
4279 5489
4280 332
4280 6122
4281 332
4281 3117
4281 3807
4281 3840
4281 6656
4282 333
4282 650
4282 1291
4282 2278
4282 2517
4282 6522
4283 333
4283 548
4283 883
4283 1020
4283 1046
4284 88
4284 333
4285 333
4285 4273
4286 65
4286 333
4287 77
4287 334
4288 87
4288 334
4288 2527
4289 334
4289 392
4289 849
4289 2038
4289 2430
4289 2637
4289 4682
4289 5125
4289 5177
4290 334
4290 548
4291 334
4292 335
4292 1071
4292 1072
4292 3523
4292 3598
4293 335
4293 1370
4294 335
4295 88
4295 336
4295 450
4296 336
4297 88
4297 336
4297 1379
4297 1380
4297 2891
4297 5197
4298 336
4298 4773
4299 6065
4300 88
4300 6065
4301 208
4301 337
4302 127
4302 338
4302 603
4303 63
4303 338
4303 660
4303 1013
4303 2401
4304 338
4304 826
4304 1745
4304 3509
4305 237
4305 338
4305 540
4306 124
4306 338
4306 1169
4306 6807
4307 338
4307 416
4307 436
4307 697
4307 1294
4307 4635
4308 338
4308 2711
4308 2871
4308 4308
4308 4794
4309 338
4309 1275
4309 3767
4310 338
4310 3924
4311 339
4311 1125
4311 1719
4312 88
4312 339
4312 514
4312 1369
4312 2075
4312 3482
4313 339
4313 2041
4314 339
4314 359
4314 1397
4314 1398
4314 1399
4314 2157
4315 339
4315 2437
4315 4315
4316 340
4317 340
4317 2350
4317 5933
4317 6808
4318 340
4318 654
4319 341
4319 957
4320 88
4320 341
4321 341
4322 211
4322 342
4322 435
4323 342
4324 342
4324 3313
4325 182
4325 342
4325 1117
4326 124
4326 342
4326 410
4327 342
4327 457
4327 1743
4328 263
4328 342
4329 342
4329 1581
4329 4076
4330 343
4330 4332
4331 343
4331 1088
4331 1290
4331 2386
4332 343
4332 879
4332 4330
4333 343
4333 483
4333 1469
4333 1549
4333 1710
4334 88
4334 343
4334 885
4334 967
4334 1499
4334 1500
4334 3278
4335 88
4335 343
4335 377
4335 741
4336 344
4336 876
4336 1284
4336 3159
4337 344
4337 1399
4337 2846
4338 344
4338 1104
4338 1286
4338 1526
4338 1723
4339 344
4339 1384
4340 169
4340 344
4340 1161
4340 1224
4340 1374
4340 4423
4341 344
4341 742
4341 832
4341 1296
4341 1425
4341 1478
4341 1914
4342 344
4342 4657
4343 84
4343 344
4343 887
4343 2662
4344 345
4344 3924
4344 5783
4344 6106
4345 256
4345 345
4346 345
4346 3940
4347 344
4347 345
4347 435
4347 625
4347 1090
4348 345
4348 564
4348 979
4348 1790
4349 345
4349 590
4349 630
4350 346
4351 346
4351 4352
4352 346
4352 2362
4352 3852
4352 4351
4353 347
4354 347
4354 3127
4355 347
4355 580
4355 5446
4356 88
4356 347
4356 487
4357 348
4358 283
4358 348
4359 349
4360 175
4360 349
4361 350
4361 594
4361 1133
4361 5011
4362 88
4362 350
4362 2805
4362 4555
4363 153
4363 350
4364 350
4364 510
4364 4920
4364 5594
4365 350
4366 150
4366 351
4367 351
4368 74
4368 351
4368 1243
4368 1312
4368 1373
4368 1848
4369 351
4369 430
4370 299
4370 352
4371 353
4371 1394
4371 2000
4371 4375
4372 353
4372 358
4373 353
4373 697
4373 853
4373 1877
4373 2156
4374 353
4374 857
4374 6810
4375 353
4375 4371
4376 318
4376 354
4377 354
4377 419
4377 1060
4377 1235
4377 2309
4377 3953
4378 354
4378 1351
4379 354
4379 608
4379 1060
4379 1141
4379 2370
4380 354
4380 849
4380 1277
4380 1278
4381 80
4381 355
4382 355
4382 1834
4383 355
4383 491
4383 667
4384 355
4384 6406
4385 88
4385 355
4386 355
4386 3027
4386 6811
4387 355
4387 617
4387 1223
4387 1349
4387 1427
4388 356
4388 1498
4388 1540
4388 5373
4388 6812
4389 356
4389 518
4390 356
4390 797
4390 1221
4390 1276
4390 5955
4391 356
4391 1085
4391 1128
4391 1197
4391 3658
4392 356
4392 672
4392 1128
4392 1251
4392 1586
4392 1587
4392 1879
4392 2233
4393 356
4393 720
4393 1082
4393 2009
4393 2157
4393 4910
4394 88
4394 357
4395 357
4395 735
4395 748
4395 752
4396 357
4396 2819
4397 358
4397 1978
4398 83
4398 358
4398 706
4398 2128
4399 359
4400 359
4400 4400
4401 2
4401 359
4401 2904
4401 4401
4402 359
4402 704
4402 871
4402 2915
4403 359
4403 1066
4404 360
4405 360
4405 4405
4406 360
4406 841
4406 2023
4406 2913
4407 360
4407 5095
4408 361
4408 5027
4409 361
4410 362
4410 621
4411 362
4412 362
4412 4896
4413 362
4413 6813
4414 363
4415 363
4415 2118
4416 363
4416 937
4416 2915
4416 4691
4417 364
4417 367
4418 364
4419 291
4419 364
4420 365
4421 88
4421 365
4422 367
4422 1545
4422 1811
4423 367
4423 4340
4423 6814
4424 367
4424 390
4425 368
4426 368
4426 5886
4427 369
4427 6815
4428 369
4429 369
4429 4003
4430 370
4431 370
4431 1292
4432 370
4432 4432
4433 370
4433 3023
4433 4434
4433 5314
4433 5926
4434 371
4434 605
4434 1953
4434 4433
4434 5122
4434 5202
4434 6816
4435 371
4435 2237
4435 3129
4436 88
4436 371
4436 618
4436 668
4437 371
4437 593
4438 275
4438 371
4439 371
4439 605
4439 873
4439 1394
4439 1520
4439 2257
4439 3197
4440 88
4440 371
4441 317
4441 372
4441 577
4441 3227
4442 372
4443 372
4443 839
4443 1707
4444 372
4444 1587
4445 372
4445 420
4445 1183
4445 1184
4445 1559
4446 372
4446 817
4446 866
4446 6817
4447 373
4447 1028
4447 1108
4447 1260
4447 1897
4447 3275
4447 5938
4448 208
4448 373
4449 373
4450 373
4450 1522
4451 374
4452 374
4452 2187
4453 374
4453 694
4453 1149
4453 1150
4453 1151
4454 374
4454 897
4454 1014
4454 2953
4454 6818
4455 88
4455 374
4455 1635
4456 88
4456 374
4457 375
4457 1147
4458 88
4458 376
4459 376
4459 1620
4460 377
4460 1705
4460 1706
4460 1710
4461 377
4462 377
4462 3927
4463 378
4463 1136
4463 1223
4464 378
4464 680
4464 811
4464 1255
4464 1307
4464 1338
4465 378
4466 88
4466 378
4467 222
4467 378
4468 379
4468 872
4469 88
4469 379
4469 1191
4469 1379
4469 1595
4469 2317
4469 6019
4470 379
4471 256
4471 379
4472 88
4472 379
4472 6819
4473 380
4473 2815
4473 3840
4474 380
4474 4475
4475 88
4475 380
4475 411
4475 962
4475 1899
4475 2103
4475 4474
4476 206
4476 380
4476 1520
4477 88
4477 380
4477 902
4477 6820
4478 380
4478 5039
4479 380
4479 482
4479 494
4479 755
4479 5060
4479 6821
4480 210
4480 380
4480 688
4481 380
4481 478
4481 704
4481 1070
4481 1091
4482 380
4482 697
4482 946
4482 1634
4482 2900
4482 5311
4483 380
4484 380
4484 704
4484 2157
4484 3983
4485 381
4485 1213
4485 2422
4485 2572
4485 2718
4486 69
4486 381
4487 381
4488 382
4488 4490
4489 382
4490 382
4490 1475
4490 2947
4490 4488
4490 6490
4491 382
4491 893
4491 1460
4491 3128
4492 383
4492 3151
4492 6822
4493 383
4493 3634
4494 383
4494 468
4494 1052
4495 88
4495 383
4496 383
4496 414
4496 1840
4496 3839
4497 383
4498 384
4499 384
4499 1096
4500 385
4500 1110
4500 1324
4500 6823
4501 385
4501 4501
4502 385
4503 385
4503 397
4503 1177
4503 1451
4503 1494
4503 1503
4503 1721
4504 385
4504 3605
4505 386
4505 1043
4505 1045
4505 1341
4505 1628
4506 386
4506 2612
4507 386
4508 386
4508 1030
4508 1391
4508 1671
4508 6294
4509 386
4509 6528
4510 386
4510 1807
4510 6824
4511 387
4512 387
4512 1688
4512 4198
4513 387
4513 1114
4513 1144
4513 1576
4513 1894
4514 387
4514 768
4514 1323
4514 5276
4515 387
4515 1533
4515 6825
4516 387
4516 2403
4516 2968
4516 6826
4517 231
4517 388
4518 388
4519 388
4519 6368
4520 388
4520 958
4521 389
4521 4521
4522 389
4523 389
4523 1212
4523 1227
4523 1849
4523 1876
4524 390
4524 1284
4524 1346
4525 390
4526 390
4526 3068
4527 391
4527 1479
4528 391
4529 88
4529 391
4529 875
4530 261
4530 391
4531 392
4531 743
4531 744
4531 2454
4532 392
4533 392
4533 2512
4534 393
4535 393
4535 912
4535 2377
4536 280
4536 393
4537 394
4537 2979
4538 394
4539 395
4539 3910
4540 395
4541 395
4541 872
4541 957
4542 88
4542 395
4542 1992
4542 2606
4543 62
4543 396
4544 396
4545 397
4545 1218
4546 397
4547 252
4547 398
4548 88
4548 398
4548 1220
4548 1356
4548 6827
4549 398
4549 3029
4549 6828
4550 356
4550 398
4550 619
4550 1918
4550 3216
4551 190
4551 399
4551 589
4551 646
4551 1256
4551 2620
4552 88
4552 399
4553 88
4553 399
4553 585
4554 399
4554 595
4555 399
4555 421
4555 494
4555 587
4555 1661
4555 1777
4555 4362
4555 4667
4555 5567
4556 360
4556 400
4556 726
4556 1352
4557 400
4557 898
4557 899
4557 4583
4558 400
4558 5306
4559 400
4559 3928
4560 283
4560 400
4561 401
4561 578
4561 828
4561 1801
4561 5567
4561 6224
4562 88
4562 401
4562 1400
4562 1920
4562 2879
4562 5754
4563 401
4563 1206
4564 402
4564 680
4564 6829
4565 402
4565 566
4566 403
4566 405
4567 404
4567 1808
4567 5272
4567 5541
4568 312
4568 404
4569 267
4569 404
4569 550
4569 599
4569 602
4569 1117
4569 1541
4569 1545
4569 1638
4569 4027
4570 404
4570 1295
4570 6103
4571 404
4571 679
4571 2838
4571 5968
4571 6573
4572 404
4572 2106
4573 405
4574 406
4574 637
4574 5229
4574 5816
4575 406
4576 406
4576 824
4577 407
4577 655
4577 723
4577 1091
4577 4969
4577 6830
4578 407
4579 407
4579 3827
4579 3828
4580 407
4580 3931
4581 408
4581 785
4581 4862
4582 408
4583 408
4583 956
4583 1490
4583 4557
4584 408
4584 564
4584 697
4585 408
4585 5644
4586 409
4587 290
4587 409
4587 723
4587 1112
4587 1449
4588 290
4588 409
4589 88
4589 409
4589 653
4589 1479
4589 1552
4589 1888
4589 2815
4590 409
4590 3446
4591 88
4591 409
4591 604
4591 1382
4591 3478
4592 409
4592 1449
4592 2883
4592 5638
4593 410
4593 622
4593 882
4593 4779
4593 6831
4594 410
4594 416
4595 88
4595 410
4595 679
4595 684
4596 88
4596 410
4596 1066
4596 1170
4596 1476
4596 3249
4596 5956
4597 410
4598 330
4598 410
4598 562
4598 961
4598 1398
4598 1785
4599 86
4599 411
4600 411
4601 411
4601 6419
4602 411
4602 654
4602 1163
4602 1643
4602 2554
4602 6832
4603 411
4603 784
4603 1112
4603 1387
4603 1501
4603 4031
4604 411
4604 1512
4604 6586
4605 411
4605 680
4605 2475
4606 412
4606 1092
4606 2365
4606 2653
4606 5382
4607 412
4607 3181
4607 3339
4607 4939
4608 412
4608 417
4608 5492
4609 412
4609 3792
4610 412
4611 413
4611 1409
4612 413
4612 6833
4613 413
4613 568
4613 1519
4613 2155
4613 6213
4614 413
4614 1046
4614 1143
4614 1441
4615 56
4615 413
4615 733
4615 795
4616 414
4616 5104
4616 6834
4617 414
4617 809
4617 1325
4617 3253
4617 3278
4617 4752
4618 414
4618 2961
4619 414
4619 467
4619 1277
4619 1539
4619 4020
4620 211
4620 414
4620 1030
4621 414
4621 887
4621 1242
4621 6493
4622 415
4622 1201
4622 1314
4623 415
4623 1990
4624 85
4624 415
4624 507
4625 69
4625 415
4625 991
4625 1040
4626 416
4626 1090
4626 1314
4626 1330
4626 1331
4626 1983
4627 416
4627 920
4627 1218
4627 1301
4627 1335
4627 3923
4628 416
4628 989
4628 1142
4628 1154
4628 1155
4629 416
4630 416
4630 954
4630 1520
4631 416
4631 1171
4631 3231
4631 4756
4632 88
4632 416
4633 155
4633 416
4633 912
4633 3438
4634 416
4634 1150
4634 2113
4634 6080
4635 416
4635 697
4635 1294
4635 4307
4635 6469
4636 416
4636 758
4637 237
4637 416
4638 88
4638 416
4638 763
4638 836
4639 417
4639 4644
4640 417
4641 417
4641 6835
4642 58
4642 417
4643 88
4643 417
4644 88
4644 417
4644 4639
4645 418
4646 371
4646 418
4647 418
4647 541
4647 821
4647 1106
4647 1775
4647 2089
4647 4160
4647 4991
4648 419
4649 419
4649 907
4649 1775
4650 419
4650 526
4650 948
4650 6836
4651 419
4651 2780
4652 419
4652 902
4652 1146
4652 3391
4652 5944
4653 419
4653 2190
4653 6837
4654 334
4654 419
4655 88
4655 419
4656 416
4656 419
4656 1060
4656 1665
4657 420
4657 1911
4657 4342
4658 372
4658 420
4658 1559
4659 420
4660 420
4660 599
4660 5830
4661 88
4661 420
4661 1290
4661 3834
4661 5518
4662 88
4662 420
4662 1640
4662 3906
4663 190
4663 421
4663 561
4664 421
4664 478
4664 2810
4664 4913
4665 421
4665 1594
4666 88
4666 421
4667 421
4667 3448
4667 4555
4668 421
4669 56
4669 421
4669 1735
4669 2045
4670 381
4670 422
4670 513
4670 1081
4670 3296
4671 422
4672 423
4672 1090
4672 1093
4672 1116
4672 2356
4673 423
4673 4673
4674 423
4675 424
4676 424
4676 605
4677 425
4677 2414
4678 425
4679 426
4680 426
4680 3920
4681 427
4682 427
4682 4289
4683 428
4684 428
4684 573
4685 414
4685 428
4686 429
4687 429
4687 3028
4687 6838
4688 429
4688 467
4689 430
4690 430
4690 6839
4691 430
4691 871
4691 4416
4691 6785
4692 430
4692 2038
4693 431
4693 847
4694 431
4695 431
4695 1041
4695 1624
4695 2860
4695 4781
4696 432
4696 468
4696 1004
4696 1100
4696 2726
4697 432
4698 195
4698 432
4699 432
4699 799
4699 874
4699 2095
4700 433
4701 433
4701 4701
4702 88
4702 433
4702 2199
4703 433
4703 859
4703 1030
4703 1639
4703 1974
4704 434
4705 434
4705 3017
4706 1
4706 435
4706 618
4706 1376
4706 6141
4707 435
4707 519
4707 6840
4708 435
4708 3517
4708 3874
4709 435
4709 713
4710 435
4710 677
4710 1079
4710 3189
4710 5061
4711 435
4711 6841
4712 435
4712 829
4712 882
4712 935
4713 435
4713 6167
4714 436
4714 605
4714 630
4714 3510
4715 436
4715 692
4715 1226
4716 436
4716 5291
4717 88
4717 190
4717 437
4717 510
4717 744
4718 437
4718 848
4718 952
4718 1359
4718 1360
4718 2044
4719 88
4719 437
4719 848
4719 6491
4720 437
4721 88
4721 437
4722 437
4722 993
4722 2697
4723 438
4724 438
4724 445
4724 852
4725 438
4725 620
4726 439
4727 336
4727 439
4728 440
4728 445
4728 825
4729 441
4729 482
4729 6374
4730 88
4730 441
4730 648
4731 442
4731 559
4731 686
4732 443
4732 1205
4732 2431
4733 443
4734 444
4734 726
4734 2479
4734 5875
4735 444
4736 444
4736 922
4736 3149
4737 445
4737 1083
4737 6151
4738 445
4739 910
4739 3140
4739 5659
4740 447
4740 528
4740 707
4741 88
4741 447
4741 614
4742 448
4742 881
4742 1035
4743 214
4743 448
4743 572
4744 449
4744 1816
4744 6674
4745 450
4745 705
4745 950
4746 88
4746 450
4746 677
4746 3103
4747 451
4747 1123
4747 1562
4748 451
4748 541
4748 1025
4748 1125
4748 1126
4749 451
4749 1125
4749 2839
4749 5957
4750 452
4750 3249
4750 4754
4751 1039
4751 1698
4751 2084
4751 4086
4751 5879
4752 1219
4752 4617
4752 4752
4752 5044
4753 1156
4753 2361
4753 3065
4753 5125
4753 6444
4754 452
4754 3249
4754 4750
4754 6683
4755 74
4755 1299
4755 6232
4756 918
4756 1371
4756 3225
4756 3231
4756 3634
4756 4631
4756 5356
4756 5492
4756 5987
4757 88
4757 808
4757 6280
4758 4938
4758 4940
4758 6162
4759 475
4759 4022
4759 5099
4759 6842
4760 4065
4760 4120
4760 5400
4761 453
4761 1891
4761 6348
4762 454
4762 4763
4762 4764
4763 454
4763 829
4763 4762
4764 88
4764 454
4764 4762
4765 455
4765 2792
4765 3582
4766 415
4766 455
4766 1457
4767 455
4767 678
4767 932
4767 6843
4768 5449
4768 6974
4769 3343
4769 4966
4769 5487
4770 88
4770 5805
4770 6289
4771 512
4771 1233
4771 6273
4771 6845
4772 4
4772 2892
4772 2918
4772 5189
4773 827
4773 846
4773 1234
4773 1539
4773 1561
4773 4298
4773 5264
4773 5389
4774 605
4774 1083
4774 1621
4774 1878
4774 5016
4774 6846
4775 3920
4775 5534
4775 6847
4776 88
4776 513
4776 639
4776 850
4776 4917
4777 3844
4777 4777
4778 1398
4778 4820
4778 6160
4779 88
4779 4593
4779 5173
4780 435
4780 667
4780 2873
4780 5307
4780 6087
4781 1496
4781 4695
4781 6502
4781 6505
4782 456
4782 517
4782 583
4782 4258
4782 6848
4783 788
4783 2255
4783 3320
4783 6151
4784 457
4784 857
4784 1008
4785 458
4785 460
4785 6195
4786 150
4786 458
4787 190
4787 459
4787 582
4788 459
4788 582
4789 237
4789 460
4790 460
4791 88
4791 460
4791 660
4792 461
4792 2184
4792 6651
4793 461
4794 461
4794 1057
4794 4308
4795 461
4795 1547
4795 1863
4795 2152
4796 461
4796 6609
4797 461
4797 1848
4798 462
4799 462
4799 538
4799 563
4800 134
4800 463
4800 3941
4801 463
4802 463
4802 1818
4802 1820
4803 448
4803 464
4803 593
4804 465
4804 833
4804 2225
4805 466
4805 2285
4805 4805
4806 466
4806 735
4806 5816
4806 6849
4807 467
4808 467
4808 558
4808 772
4809 468
4809 1230
4809 3024
4810 468
4810 1690
4811 468
4812 468
4812 617
4812 630
4812 990
4812 1352
4812 1353
4813 469
4814 155
4814 469
4814 723
4814 1175
4815 469
4815 1014
4816 442
4816 469
4816 1824
4817 469
4817 988
4817 3011
4818 82
4818 469
4818 497
4819 470
4819 646
4819 1192
4820 471
4820 655
4820 4778
4821 471
4821 604
4821 605
4822 472
4822 1435
4822 1453
4823 52
4823 472
4823 1453
4824 182
4824 473
4824 645
4825 473
4826 88
4826 474
4826 2396
4827 178
4827 474
4827 3471
4828 474
4829 474
4829 1654
4829 3853
4829 5212
4830 475
4830 1510
4830 5138
4831 475
4831 847
4831 1649
4831 3023
4832 475
4833 88
4833 475
4833 6281
4834 476
4834 516
4834 574
4835 476
4835 703
4836 477
4836 482
4836 2643
4837 477
4837 4208
4838 478
4838 3921
4839 478
4839 900
4839 907
4839 3799
4840 179
4840 203
4840 478
4841 352
4841 478
4841 730
4841 1766
4841 1787
4841 2255
4841 2656
4842 88
4842 479
4843 479
4843 689
4843 965
4843 2979
4843 2980
4843 2981
4843 6850
4844 479
4845 480
4845 1710
4845 1975
4846 480
4847 88
4847 480
4848 481
4849 481
4849 1570
4850 481
4850 669
4850 1570
4851 482
4852 88
4852 482
4852 1172
4852 3777
4852 3784
4853 88
4853 482
4854 103
4854 483
4855 483
4855 779
4855 807
4855 4856
4855 4857
4856 483
4856 807
4856 4855
4856 4857
4857 84
4857 483
4857 807
4857 4855
4857 4856
4858 485
4858 1154
4858 2277
4859 446
4859 486
4859 2234
4860 486
4860 1429
4860 6851
4861 486
4861 602
4861 5288
4862 487
4862 4581
4862 5065
4863 487
4863 1261
4863 3161
4864 487
4864 887
4864 5745
4864 6053
4865 488
4865 686
4865 798
4865 3785
4866 489
4866 675
4866 5299
4867 489
4867 1419
4867 2908
4868 490
4868 3981
4869 490
4869 504
4869 572
4870 491
4870 632
4870 5202
4871 491
4871 1866
4872 492
4872 1335
4872 3350
4873 492
4873 499
4874 493
4874 647
4874 1074
4874 1471
4874 1476
4874 5911
4875 493
4875 2003
4875 3158
4876 494
4876 2319
4876 5023
4877 495
4877 951
4877 5879
4878 495
4878 899
4878 923
4878 1258
4878 1259
4878 2112
4879 495
4880 84
4880 495
4881 495
4881 611
4881 696
4881 3497
4881 6852
4882 496
4882 656
4882 1096
4882 1097
4882 1287
4883 496
4883 617
4883 2531
4884 496
4884 707
4885 435
4885 496
4885 1503
4886 151
4886 496
4886 658
4886 690
4886 844
4886 1055
4886 1119
4886 4180
4887 496
4888 88
4888 497
4889 498
4889 5214
4889 6853
4890 498
4890 685
4890 3236
4891 382
4891 498
4892 499
4892 1871
4892 2042
4893 499
4893 6606
4894 88
4894 500
4894 4897
4895 500
4895 4895
4896 500
4896 3847
4896 3848
4896 4412
4897 500
4897 3848
4897 4894
4898 416
4898 501
4898 1398
4899 502
4899 1751
4899 2766
4900 502
4900 1555
4900 1752
4900 2356
4901 503
4901 1056
4901 3763
4902 503
4902 731
4902 923
4902 3224
4903 503
4903 524
4903 4951
4904 503
4904 550
4904 1365
4905 503
4905 1049
4905 1056
4905 1130
4905 1134
4906 504
4907 505
4908 506
4908 1397
4908 3266
4909 506
4910 88
4910 506
4910 4393
4911 507
4912 88
4912 507
4912 902
4912 953
4913 507
4913 1850
4913 3782
4913 4664
4913 5531
4914 508
4914 3020
4914 6854
4915 508
4915 687
4915 3227
4916 508
4917 509
4917 2463
4917 4776
4918 509
4919 509
4919 849
4919 2635
4919 2893
4920 510
4920 1795
4920 4364
4921 510
4922 255
4922 510
4922 1735
4922 3851
4923 511
4923 1523
4923 1904
4924 52
4924 512
4924 2329
4925 512
4925 780
4925 840
4925 2875
4926 465
4926 513
4926 695
4927 514
4928 515
4928 786
4928 1927
4929 515
4930 516
4930 2317
4930 6248
4931 516
4931 806
4931 922
4931 3024
4932 516
4933 517
4933 846
4933 2022
4934 517
4934 1769
4935 515
4935 518
4935 874
4936 192
4936 518
4936 2882
4937 88
4937 519
4937 5083
4938 519
4938 4758
4938 4940
4939 519
4939 4607
4940 519
4940 1214
4940 4758
4940 4938
4941 519
4941 1363
4941 1371
4941 1394
4941 2968
4941 3110
4942 520
4942 653
4942 657
4943 520
4944 521
4945 521
4945 2242
4945 3939
4946 288
4946 522
4946 660
4947 88
4947 522
4947 980
4948 522
4949 522
4949 1109
4949 1629
4950 523
4950 976
4950 2922
4951 524
4951 1284
4951 4903
4952 525
4952 921
4952 1563
4953 526
4953 3588
4953 3821
4954 68
4954 527
4954 3157
4955 528
4955 961
4955 1876
4956 210
4956 529
4956 1507
4957 529
4958 73
4958 282
4958 530
4959 530
4960 88
4960 530
4960 698
4960 939
4960 979
4960 1327
4961 212
4961 530
4961 640
4962 88
4962 530
4962 829
4962 1366
4962 1498
4962 1533
4962 3329
4963 531
4964 531
4964 1181
4964 2304
4965 532
4965 1221
4965 2206
4966 533
4966 798
4966 4769
4967 88
4967 533
4967 598
4967 1603
4967 6855
4968 533
4968 6856
4969 88
4969 534
4969 4577
4970 534
4970 2772
4971 535
4971 615
4972 535
4972 567
4972 4160
4973 536
4973 538
4973 5980
4974 536
4974 3715
4975 537
4975 558
4975 588
4976 5881
4977 88
4977 539
4977 2873
4978 540
4979 50
4979 541
4979 1772
4980 541
4981 226
4981 541
4982 542
4982 571
4982 2708
4983 543
4983 614
4983 631
4984 543
4984 685
4984 5803
4985 544
4985 1141
4985 1609
4985 2354
4985 2362
4985 2363
4985 2977
4986 544
4986 604
4986 1048
4986 1344
4986 2200
4987 544
4987 906
4987 3399
4987 6857
4988 283
4988 544
4988 564
4988 880
4989 544
4989 645
4989 1253
4989 1497
4989 1612
4989 2362
4990 544
4991 545
4991 4647
4991 6858
4992 545
4993 545
4993 691
4993 6859
4994 545
4994 1765
4994 6102
4995 189
4995 612
4995 6860
4996 6860
4997 88
4997 546
4997 3919
4998 547
4999 548
4999 881
4999 2554
5000 179
5000 548
5001 548
5002 549
5003 88
5003 549
5003 887
5003 1177
5003 3623
5004 76
5004 549
5005 550
5005 1598
5006 551
5006 1330
5006 5600
5007 237
5007 552
5007 1502
5008 88
5008 552
5008 597
5008 1035
5008 2009
5009 552
5009 579
5009 2974
5010 552
5011 552
5011 2981
5011 4361
5011 6126
5012 552
5012 808
5012 823
5012 1706
5012 5273
5012 5655
5013 552
5013 1041
5013 6231
5014 553
5014 1486
5014 1502
5015 553
5016 554
5016 1320
5016 4774
5017 554
5018 88
5018 555
5018 775
5018 1436
5018 1827
5018 6060
5019 555
5019 1914
5019 1974
5020 78
5020 555
5020 1873
5021 556
5021 1270
5021 5047
5022 557
5022 1550
5022 3029
5022 3798
5023 494
5023 557
5023 4876
5024 557
5024 651
5024 722
5025 558
5025 588
5025 1815
5026 559
5026 673
5026 963
5027 560
5027 4408
5028 560
5028 720
5029 561
5029 940
5029 3974
5030 88
5030 561
5031 561
5031 2330
5032 147
5032 562
5032 583
5033 562
5033 5333
5034 563
5034 3129
5034 3954
5035 563
5035 798
5035 1153
5035 1345
5035 3927
5035 5317
5035 5344
5036 564
5036 1199
5037 387
5037 564
5037 575
5038 564
5038 697
5038 1896
5038 6861
5039 564
5039 4478
5040 88
5040 565
5040 5041
5041 565
5041 5040
5042 565
5043 161
5043 565
5043 3625
5044 566
5044 568
5044 4752
5045 566
5046 566
5046 5939
5047 566
5047 1619
5047 5021
5048 567
5049 568
5049 3340
5049 6862
5050 88
5050 568
5050 799
5051 568
5052 569
5052 1805
5053 569
5054 569
5054 820
5054 5367
5055 570
5056 571
5057 572
5057 947
5057 3089
5058 572
5059 88
5059 572
5059 626
5059 2818
5059 5489
5059 6863
5060 572
5060 881
5060 953
5060 4479
5061 573
5061 4710
5062 573
5062 893
5062 3622
5063 88
5063 574
5064 383
5064 575
5065 576
5065 3958
5065 4862
5066 577
5066 1407
5066 3317
5067 577
5067 1225
5067 1322
5067 1323
5067 1324
5067 6864
5068 578
5069 437
5069 578
5069 1360
5070 579
5070 950
5070 3830
5071 579
5072 580
5072 3456
5072 6084
5073 580
5074 580
5074 1242
5074 1262
5074 1384
5074 1601
5074 2973
5075 581
5075 1872
5075 5400
5076 81
5076 581
5077 583
5078 584
5078 5078
5079 182
5079 584
5079 1077
5080 88
5080 585
5081 313
5081 585
5081 1381
5082 585
5082 763
5083 586
5083 4937
5083 6866
5084 586
5084 707
5085 587
5085 3934
5086 587
5086 623
5086 943
5086 4122
5087 587
5087 1562
5087 2079
5088 271
5088 588
5089 588
5089 2865
5089 3742
5090 47
5090 589
5090 1332
5091 354
5091 589
5092 88
5092 590
5093 590
5093 630
5093 1693
5094 590
5094 672
5094 3826
5095 591
5095 2366
5095 2731
5095 4407
5096 592
5096 1486
5096 3758
5096 6867
5097 593
5098 593
5098 893
5098 1165
5098 1179
5098 4005
5099 593
5099 631
5099 4759
5099 6081
5100 594
5100 595
5100 1880
5101 88
5101 202
5101 594
5101 3974
5102 594
5102 2303
5103 594
5104 596
5104 4616
5105 492
5105 596
5105 3228
5106 597
5106 1586
5106 3925
5107 597
5107 1680
5108 597
5108 686
5108 1072
5108 1182
5109 598
5109 1300
5109 3404
5110 598
5110 1622
5111 598
5111 607
5111 1123
5111 1124
5111 3002
5112 600
5113 600
5113 601
5113 6328
5114 601
5115 601
5115 708
5115 3816
5116 602
5117 88
5117 602
5117 2979
5117 3687
5117 5202
5118 602
5118 673
5118 923
5119 603
5119 1228
5120 604
5120 2001
5121 256
5121 605
5121 797
5122 605
5122 668
5122 928
5122 4434
5123 50
5123 606
5123 607
5124 606
5124 3083
5125 606
5125 3294
5125 4289
5125 4753
5126 606
5127 88
5127 114
5127 606
5127 999
5127 1051
5128 510
5128 606
5128 1369
5129 88
5129 606
5129 1776
5129 6868
5130 88
5130 606
5130 849
5130 1062
5130 1408
5131 71
5131 607
5131 775
5131 1837
5132 607
5132 2638
5133 76
5133 608
5133 1353
5134 65
5134 608
5135 609
5135 1057
5135 6423
5136 609
5136 1865
5136 3425
5137 609
5137 931
5138 475
5138 610
5138 4830
5139 610
5139 720
5140 308
5140 611
5141 611
5141 1148
5142 611
5142 617
5142 1085
5142 1186
5142 1780
5143 611
5144 612
5145 612
5145 889
5145 1275
5145 5700
5145 6869
5146 612
5146 4092
5147 485
5147 613
5147 1170
5148 613
5149 613
5149 3103
5150 614
5151 88
5151 614
5152 615
5152 1470
5152 2726
5153 615
5153 2083
5154 88
5154 615
5154 1225
5155 615
5155 658
5155 1203
5155 2144
5155 2146
5156 342
5156 616
5157 419
5157 616
5157 657
5158 617
5158 6870
5159 615
5159 617
5159 1631
5160 615
5160 617
5161 617
5161 2310
5162 617
5162 2171
5162 3144
5163 618
5164 618
5164 1457
5164 3189
5165 618
5165 822
5165 920
5165 1151
5166 618
5166 6871
5167 619
5167 1088
5168 619
5169 134
5169 619
5169 1506
5170 42
5170 619
5170 1912
5171 621
5171 960
5171 3103
5172 621
5172 2382
5172 3923
5172 6872
5173 622
5173 1388
5173 4779
5174 622
5175 623
5175 828
5175 1529
5176 623
5177 623
5177 3913
5177 4289
5177 6224
5178 51
5178 623
5178 1529
5179 624
5179 1409
5179 2243
5180 624
5181 618
5181 624
5181 1183
5182 624
5182 625
5182 3697
5183 88
5183 625
5183 673
5183 770
5184 625
5185 256
5185 626
5186 627
5186 655
5186 663
5187 88
5187 627
5188 628
5188 1252
5188 1268
5188 1271
5188 2474
5188 6032
5188 6075
5189 628
5189 1252
5189 4772
5190 628
5191 628
5191 2966
5192 88
5192 628
5192 1217
5192 5482
5193 629
5193 1872
5193 2677
5194 629
5194 2701
5195 265
5195 629
5196 88
5196 630
5196 859
5196 861
5197 88
5197 630
5197 631
5197 958
5197 4064
5197 4297
5198 630
5198 3474
5199 68
5199 630
5199 4024
5200 88
5200 501
5200 630
5200 3099
5200 5538
5201 632
5201 771
5201 929
5201 1097
5202 632
5202 4434
5202 4870
5202 5117
5203 419
5203 633
5203 2907
5204 633
5204 1186
5205 633
5205 1186
5205 1901
5205 2503
5205 2554
5206 634
5206 986
5207 559
5207 634
5207 1024
5208 88
5208 634
5208 1111
5208 6873
5209 134
5209 634
5209 762
5209 2207
5210 634
5210 5340
5211 635
5211 1690
5211 3938
5212 635
5212 4829
5213 304
5213 635
5214 636
5214 4889
5215 636
5215 658
5215 1182
5216 386
5216 637
5217 637
5217 686
5217 1109
5218 88
5218 637
5218 1105
5219 638
5219 1695
5219 6221
5220 638
5221 638
5221 1532
5222 639
5222 1247
5222 5907
5223 639
5223 940
5224 190
5224 639
5224 850
5225 196
5225 640
5226 641
5226 1367
5226 1699
5227 182
5227 641
5227 778
5228 641
5228 743
5228 1367
5228 1423
5228 1514
5229 641
5229 4574
5230 88
5230 642
5231 642
5232 472
5232 642
5232 716
5233 6260
5234 76
5234 643
5234 3629
5235 644
5235 2984
5236 88
5236 644
5236 1666
5236 1736
5237 644
5237 792
5237 900
5237 2114
5237 2239
5238 644
5238 1461
5238 2555
5239 645
5239 912
5239 1163
5239 1287
5239 1288
5239 1289
5240 386
5240 645
5241 645
5241 735
5242 646
5242 5957
5243 646
5243 942
5243 1367
5243 1928
5244 87
5244 646
5244 1605
5244 5505
5245 646
5246 82
5246 646
5247 647
5247 3142
5247 3703
5248 88
5248 647
5248 1074
5248 1471
5248 2426
5249 648
5249 1709
5249 4166
5250 88
5250 648
5250 1682
5251 648
5251 6874
5252 649
5252 1031
5252 1254
5252 1605
5252 2100
5253 649
5253 1424
5253 1828
5254 650
5254 712
5254 883
5254 1227
5255 650
5255 721
5255 2797
5256 651
5256 1129
5256 1824
5257 651
5257 1655
5258 651
5259 652
5259 1461
5259 2078
5260 88
5260 653
5260 3760
5261 653
5261 743
5261 916
5261 1356
5262 654
5262 887
5262 6168
5263 654
5264 654
5264 725
5264 950
5264 4773
5265 236
5265 655
5266 407
5266 655
5267 256
5267 655
5267 1899
5268 655
5269 88
5269 655
5269 6875
5270 656
5270 696
5271 656
5272 656
5272 936
5272 1648
5272 4567
5273 657
5273 823
5273 1033
5273 5012
5274 657
5274 1195
5275 657
5276 657
5276 759
5276 2713
5276 4015
5276 4514
5277 658
5277 3700
5278 88
5278 658
5278 922
5279 658
5280 68
5280 658
5280 1158
5280 1195
5281 134
5281 658
5281 1478
5282 283
5282 658
5282 906
5282 1389
5283 659
5283 1343
5283 1532
5283 1537
5283 1538
5283 1810
5283 1899
5284 659
5284 1698
5284 6876
5285 659
5286 659
5286 811
5286 1090
5287 659
5287 811
5287 935
5287 958
5287 1251
5287 1984
5288 660
5288 661
5288 4861
5289 660
5289 697
5289 853
5290 660
5291 88
5291 662
5291 4716
5292 662
5292 901
5292 2703
5293 380
5293 663
5294 663
5295 664
5295 757
5296 451
5296 664
5296 1192
5297 665
5297 732
5297 778
5297 1372
5298 88
5298 665
5299 665
5299 4866
5300 88
5300 665
5300 6494
5301 88
5301 665
5301 2300
5302 639
5302 666
5303 666
5303 2937
5303 2940
5304 666
5304 5304
5305 667
5305 721
5305 2353
5305 6492
5306 667
5306 4558
5307 668
5307 4780
5307 5307
5308 325
5308 668
5308 669
5309 345
5309 668
5310 669
5310 3030
5311 669
5311 875
5311 4482
5312 88
5312 669
5312 1409
5312 1410
5312 3338
5312 4024
5313 670
5314 660
5314 671
5314 4433
5315 671
5315 1429
5315 2716
5316 671
5317 671
5317 1457
5317 2476
5317 5035
5318 82
5318 672
5319 672
5320 359
5320 672
5320 1101
5320 1196
5321 673
5321 2403
5322 674
5322 882
5322 6877
5323 88
5323 674
5323 2679
5324 674
5325 674
5325 1738
5326 674
5326 1560
5326 3184
5327 674
5327 6460
5328 675
5328 2808
5329 675
5329 1227
5329 1855
5329 1946
5329 2743
5329 6878
5330 676
5331 68
5331 676
5331 1142
5332 676
5332 4054
5333 677
5333 1640
5333 1783
5333 5033
5334 677
5334 6879
5335 677
5335 1714
5335 2383
5336 325
5336 678
5336 2154
5337 487
5337 678
5337 1166
5338 678
5338 1203
5338 1694
5338 2005
5339 679
5339 1547
5339 2016
5340 679
5340 1394
5340 1993
5340 4235
5340 5210
5341 679
5341 764
5341 826
5341 1492
5342 155
5342 680
5342 1283
5342 1659
5342 3930
5343 680
5344 680
5344 5035
5345 88
5345 680
5345 862
5345 1646
5346 681
5346 1225
5347 681
5347 1118
5347 3631
5348 671
5348 681
5348 783
5349 681
5349 1340
5349 1769
5350 88
5350 682
5350 5717
5351 682
5352 683
5353 683
5353 1266
5353 1310
5353 1644
5353 1839
5353 2364
5354 683
5354 1282
5354 2633
5355 684
5356 684
5356 1365
5356 1366
5356 1566
5356 4096
5356 4756
5357 685
5358 686
5359 686
5359 820
5359 1454
5359 1521
5359 1530
5359 1532
5359 1639
5360 687
5360 1340
5361 687
5362 88
5362 687
5362 700
5362 798
5362 812
5362 2481
5363 687
5363 731
5363 820
5363 1638
5364 175
5364 687
5364 3311
5364 3334
5365 688
5365 1753
5365 2188
5366 688
5366 1165
5367 688
5367 1534
5367 3935
5367 5054
5368 689
5368 839
5368 1021
5368 3620
5369 689
5369 2853
5369 3831
5370 88
5370 689
5371 419
5371 689
5372 690
5373 690
5373 2663
5373 4388
5373 5540
5374 271
5374 690
5375 691
5376 691
5376 922
5376 1443
5377 692
5378 62
5378 692
5379 692
5379 1510
5380 693
5380 5429
5381 693
5381 697
5381 783
5381 1034
5382 693
5382 1209
5382 4606
5383 694
5384 694
5384 708
5384 1000
5385 695
5385 704
5385 3110
5386 695
5387 696
5388 696
5388 5983
5389 691
5389 696
5389 4773
5390 697
5390 816
5391 697
5391 3210
5392 697
5393 698
5393 911
5393 1704
5394 698
5395 699
5396 699
5396 6880
5397 219
5397 699
5398 699
5398 1409
5398 1547
5399 700
5399 5766
5400 700
5400 1010
5400 4760
5400 5075
5401 701
5401 2152
5402 702
5403 88
5403 702
5404 378
5404 703
5404 1136
5405 703
5406 704
5406 787
5406 857
5406 1788
5407 391
5407 704
5408 704
5409 659
5409 705
5409 864
5409 1221
5409 1434
5409 1446
5409 2890
5410 705
5410 846
5411 705
5412 705
5412 1642
5412 2552
5413 708
5413 6881
5414 708
5415 708
5415 1545
5416 709
5416 1153
5416 1509
5416 2945
5416 6882
5417 709
5418 709
5418 710
5418 2877
5419 710
5420 88
5420 710
5421 710
5421 1856
5421 2101
5421 2686
5422 88
5422 711
5423 88
5423 711
5423 712
5424 712
5425 712
5425 1381
5426 713
5426 6883
5427 713
5427 1696
5427 2028
5428 367
5428 714
5428 1405
5429 715
5429 3108
5429 5380
5430 715
5430 6884
5431 715
5431 6286
5432 88
5432 715
5432 1155
5433 88
5433 716
5433 1443
5433 1451
5433 1483
5433 1484
5433 1730
5434 716
5434 963
5434 1862
5434 2956
5435 716
5435 958
5435 6885
5436 716
5436 6886
5437 716
5438 716
5438 812
5439 717
5439 1024
5439 1026
5439 1028
5439 4210
5440 717
5441 717
5441 3935
5442 718
5443 192
5443 718
5443 856
5444 719
5445 88
5445 719
5446 719
5446 888
5446 4355
5447 719
5447 2332
5448 720
5449 720
5449 1015
5449 4768
5450 80
5450 720
5450 1590
5451 721
5451 770
5451 2934
5451 3762
5452 722
5453 722
5453 2690
5454 321
5454 723
5455 723
5455 3894
5456 725
5456 3569
5456 5804
5457 726
5457 956
5457 1447
5457 3021
5458 727
5458 854
5458 861
5458 1653
5459 88
5459 728
5459 1153
5459 1790
5460 728
5460 784
5460 792
5460 1709
5461 729
5461 1821
5461 2450
5461 3917
5462 729
5462 1313
5463 730
5463 836
5463 1315
5463 1541
5464 733
5465 734
5465 1286
5465 1399
5465 1454
5466 734
5467 734
5467 736
5467 1650
5467 3523
5468 57
5468 739
5468 3913
5469 739
5469 4270
5470 741
5470 879
5470 1055
5470 1430
5471 741
5471 6887
5472 742
5472 910
5472 935
5472 1701
5473 744
5474 890
5474 2972
5474 5662
5474 5664
5475 1571
5475 2844
5475 3087
5475 5475
5476 747
5476 1234
5476 3112
5476 3943
5477 789
5477 1779
5477 4247
5477 5477
5478 88
5478 749
5478 1144
5478 1685
5478 2346
5479 687
5479 750
5480 88
5480 751
5480 1217
5480 2911
5481 88
5481 751
5481 2892
5482 751
5482 1252
5482 3633
5482 3936
5482 5192
5483 751
5484 752
5484 3930
5485 63
5485 753
5485 893
5485 1355
5486 226
5486 753
5487 754
5487 4769
5488 755
5488 870
5488 881
5488 4275
5489 755
5489 948
5489 4279
5489 5059
5490 756
5490 1882
5491 759
5492 759
5492 4608
5492 4756
5492 5980
5493 688
5493 759
5494 45
5494 759
5494 1635
5494 1765
5495 760
5496 761
5496 2174
5496 2789
5496 4122
5497 761
5498 762
5498 1623
5499 150
5499 763
5499 1299
5499 1442
5500 764
5501 765
5502 766
5502 892
5503 766
5503 788
5503 1703
5503 3054
5504 210
5504 766
5504 1703
5505 767
5505 1396
5505 2695
5505 5244
5506 767
5506 1349
5507 451
5507 767
5507 3779
5508 6492
5509 509
5509 769
5509 2444
5510 134
5510 769
5510 1873
5511 770
5511 800
5511 890
5512 770
5512 800
5512 3182
5513 771
5514 772
5514 818
5514 915
5514 1975
5515 88
5515 772
5515 1955
5516 773
5516 846
5516 1484
5516 2950
5516 6888
5517 777
5518 777
5518 913
5518 4661
5519 778
5520 88
5520 779
5520 2126
5520 3373
5521 780
5521 1154
5521 2206
5521 6133
5522 255
5522 781
5522 1086
5522 3110
5523 782
5524 782
5524 1563
5524 2093
5524 2963
5525 784
5525 785
5525 786
5525 1405
5526 784
5526 1709
5526 2138
5527 786
5527 6889
5528 787
5528 810
5528 3141
5529 787
5529 3943
5530 290
5530 788
5530 1027
5530 1452
5530 4126
5531 788
5531 1851
5531 3154
5531 4913
5532 789
5533 790
5533 833
5533 2288
5534 525
5534 790
5534 4775
5535 88
5535 791
5536 87
5536 791
5536 1495
5536 2775
5537 792
5537 1112
5538 796
5538 1789
5538 2001
5538 5200
5539 797
5539 1148
5539 1174
5539 1430
5539 1993
5539 5906
5540 797
5540 1078
5540 1546
5540 5373
5541 798
5541 944
5541 1274
5541 4567
5542 799
5542 979
5542 1393
5542 3536
5543 66
5543 800
5543 801
5543 1042
5544 103
5544 801
5545 204
5545 803
5545 982
5545 1122
5546 804
5546 833
5546 2121
5546 3501
5547 390
5547 809
5547 876
5548 811
5548 1144
5548 1307
5548 1764
5549 813
5549 3699
5550 73
5550 814
5550 1187
5550 3588
5551 814
5552 87
5552 815
5552 1220
5553 815
5554 815
5554 835
5554 1334
5554 2679
5555 817
5555 1622
5556 817
5556 6890
5557 819
5557 859
5557 918
5557 1114
5558 820
5558 3315
5559 820
5559 913
5559 2207
5560 72
5560 821
5560 1945
5560 3416
5561 821
5561 1579
5562 821
5563 88
5563 822
5564 823
5565 277
5565 823
5566 824
5567 828
5567 3683
5567 4555
5567 4561
5568 88
5568 829
5568 976
5568 3716
5569 830
5569 1719
5569 1855
5569 2185
5570 830
5570 1603
5571 88
5571 830
5572 832
5572 1168
5572 1273
5572 1474
5573 193
5573 832
5573 990
5573 1189
5574 83
5574 833
5575 835
5575 921
5575 929
5575 2102
5576 837
5576 3703
5576 3900
5576 5679
5577 837
5578 838
5579 838
5579 999
5579 1406
5579 3616
5580 342
5580 839
5581 840
5581 3272
5582 840
5582 1229
5582 2889
5583 841
5583 1364
5583 1462
5584 811
5584 841
5584 973
5584 1322
5585 841
5585 2115
5586 216
5586 842
5586 2850
5587 843
5587 1530
5587 2017
5587 2395
5588 843
5589 844
5589 919
5589 921
5589 1126
5590 178
5590 844
5591 385
5591 845
5591 846
5591 3060
5592 845
5593 88
5593 847
5593 2388
5594 88
5594 848
5594 850
5594 4364
5595 848
5596 848
5596 1860
5596 2453
5596 3037
5596 4144
5597 190
5597 848
5598 849
5599 849
5599 2038
5600 551
5600 851
5600 5006
5601 88
5601 851
5602 853
5603 280
5603 854
5603 855
5603 1154
5604 854
5604 992
5604 1629
5605 854
5606 856
5606 1179
5606 6891
5607 856
5608 195
5608 857
5609 858
5610 859
5611 860
5611 3518
5612 88
5612 860
5613 860
5613 886
5613 966
5613 1465
5614 861
5614 3570
5615 861
5615 6622
5616 864
5616 1233
5616 1827
5616 1931
5617 864
5617 1590
5618 193
5618 865
5618 873
5618 2835
5619 865
5619 1479
5619 3849
5619 6001
5620 865
5620 6596
5621 865
5621 6016
5622 866
5623 867
5624 867
5624 2930
5624 3545
5624 4129
5625 525
5625 868
5625 1122
5626 868
5627 88
5627 868
5627 2878
5628 869
5629 869
5629 1176
5629 2114
5630 869
5630 1530
5630 1742
5630 2673
5630 3056
5630 6892
5631 88
5631 870
5632 870
5633 871
5633 1473
5633 2312
5634 871
5634 1382
5634 2322
5634 3940
5635 871
5635 917
5635 1348
5635 3016
5636 871
5637 76
5637 871
5637 895
5637 2061
5638 871
5638 4592
5639 419
5639 871
5639 1948
5640 208
5640 871
5641 872
5641 946
5641 2996
5642 872
5643 873
5643 1111
5643 1895
5644 873
5644 3687
5644 4585
5645 88
5645 873
5645 6893
5646 874
5646 1688
5646 1689
5646 2952
5646 6894
5647 875
5647 931
5647 1082
5647 1484
5648 344
5648 876
5648 1104
5649 877
5649 993
5649 994
5649 995
5650 878
5650 924
5651 882
5651 1061
5651 1293
5651 1536
5651 1544
5651 1545
5651 1546
5652 883
5652 1135
5652 1718
5652 1845
5652 1966
5653 884
5653 2791
5654 885
5654 1973
5655 116
5655 885
5655 912
5655 5012
5656 886
5657 767
5657 887
5657 1887
5657 3050
5658 887
5658 963
5658 1533
5659 887
5659 910
5659 1128
5659 3140
5659 4739
5660 887
5660 6154
5660 6895
5661 889
5661 1242
5661 6896
5662 889
5662 890
5662 891
5662 5474
5663 889
5663 2973
5664 890
5664 5474
5665 891
5666 891
5666 967
5666 1150
5666 5794
5667 892
5667 1391
5667 2870
5667 2900
5668 892
5668 4045
5669 892
5670 893
5671 894
5671 1492
5671 3846
5671 6583
5672 88
5672 895
5672 3443
5673 282
5673 895
5674 897
5674 3945
5675 897
5675 3933
5676 897
5676 3023
5676 6897
5677 897
5677 977
5677 3960
5677 4081
5678 899
5679 899
5679 5576
5680 900
5681 285
5681 900
5682 901
5682 1842
5682 6158
5683 902
5683 2807
5683 3065
5684 214
5684 902
5684 908
5684 3475
5685 6868
5686 88
5686 903
5686 1139
5686 1757
5687 904
5688 103
5688 905
5688 1551
5689 906
5689 950
5689 1489
5690 908
5691 434
5691 908
5692 909
5693 911
5694 912
5695 914
5695 1928
5696 915
5697 916
5697 2343
5698 917
5699 917
5699 1501
5699 2853
5699 3093
5699 6898
5700 918
5700 5145
5701 918
5702 88
5702 918
5703 919
5703 1092
5703 1094
5703 1470
5703 3615
5704 919
5704 1126
5705 919
5706 919
5706 1086
5706 1126
5707 210
5707 920
5707 1840
5708 920
5708 6899
5709 69
5709 921
5710 88
5710 922
5710 1197
5710 1631
5711 923
5711 1508
5711 3470
5712 923
5712 1139
5712 1179
5713 86
5713 924
5714 924
5714 1119
5714 1120
5714 1368
5714 3339
5715 88
5715 925
5715 2660
5716 926
5716 1565
5716 3842
5716 3843
5717 926
5717 1087
5717 5350
5718 926
5718 1137
5718 1373
5718 1529
5718 3071
5719 926
5719 1137
5719 1210
5719 5719
5720 927
5721 927
5721 1256
5721 1486
5721 1751
5721 2354
5721 3052
5722 239
5722 928
5723 597
5723 929
5724 930
5724 1146
5725 930
5725 1278
5725 2500
5725 3860
5726 211
5726 931
5726 1007
5726 1064
5726 1374
5727 932
5728 53
5728 932
5728 1281
5728 1379
5729 182
5729 933
5729 3105
5730 88
5730 933
5731 934
5731 1521
5731 2964
5731 6900
5732 934
5732 1831
5732 2019
5733 934
5733 1474
5734 935
5735 935
5735 1258
5735 3463
5736 936
5736 1413
5736 3098
5737 936
5738 88
5738 937
5738 1433
5738 1766
5739 937
5740 938
5740 6901
5741 195
5741 938
5742 938
5743 938
5743 939
5743 1327
5743 3740
5744 88
5744 938
5744 2896
5745 939
5745 4864
5746 939
5747 88
5747 940
5747 983
5747 3283
5748 940
5748 1477
5748 1824
5748 2494
5748 2795
5748 2820
5749 941
5749 2980
5750 88
5750 941
5750 2833
5750 2956
5751 294
5751 942
5752 942
5753 88
5753 942
5753 2864
5753 4185
5754 88
5754 943
5754 4562
5755 943
5755 1527
5756 943
5756 6902
5757 944
5758 945
5759 103
5759 945
5759 955
5759 962
5760 261
5760 946
5761 53
5761 946
5761 1267
5761 2327
5762 946
5763 947
5763 5764
5764 88
5764 947
5764 5763
5765 307
5765 947
5766 948
5766 1146
5766 2263
5766 5399
5767 950
5767 1366
5767 1742
5767 2031
5767 6079
5767 6903
5768 951
5768 1023
5769 88
5769 952
5770 88
5770 152
5770 952
5771 953
5772 954
5773 955
5774 956
5775 958
5775 959
5775 1503
5775 2608
5776 958
5777 958
5777 3830
5777 4056
5778 397
5778 959
5779 959
5779 3053
5780 960
5781 960
5781 1120
5781 1394
5781 1623
5782 720
5782 960
5782 2389
5783 88
5783 961
5783 4344
5784 961
5784 2148
5784 2323
5784 2727
5785 961
5786 961
5786 1504
5786 2387
5786 4015
5787 962
5788 964
5788 1676
5789 88
5789 965
5790 283
5790 965
5791 966
5791 3244
5792 966
5793 967
5794 967
5794 974
5794 1150
5794 5666
5795 88
5795 968
5796 968
5797 969
5798 53
5798 970
5799 88
5799 970
5800 971
5801 180
5801 971
5801 1641
5802 972
5802 1117
5802 1534
5803 972
5803 1161
5803 4984
5804 973
5804 5456
5805 974
5805 4770
5806 88
5806 974
5807 88
5807 975
5808 975
5809 415
5809 975
5809 2832
5810 975
5810 1396
5810 1415
5810 1555
5810 1890
5810 2941
5811 976
5812 88
5812 976
5813 977
5814 391
5814 977
5815 978
5816 978
5816 1177
5816 4574
5816 4806
5817 979
5817 1129
5817 1143
5817 1300
5817 5817
5818 979
5818 3012
5819 88
5819 980
5819 2883
5819 3234
5820 980
5821 88
5821 982
5821 1185
5822 983
5822 3817
5823 85
5823 88
5823 983
5824 88
5824 983
5825 1
5825 160
5825 984
5825 1829
5826 984
5827 985
5828 985
5828 1697
5828 3067
5829 986
5829 5829
5830 986
5830 1636
5830 4660
5831 88
5831 987
5832 288
5832 987
5833 988
5834 989
5835 989
5835 3313
5836 990
5837 990
5837 1352
5837 4025
5838 991
5838 1135
5838 3124
5838 6905
5839 991
5839 4059
5840 992
5841 87
5841 993
5842 84
5842 993
5842 2423
5843 993
5843 1446
5844 996
5845 996
5845 1704
5845 2703
5846 997
5847 998
5847 1548
5847 2924
5848 358
5848 998
5849 998
5849 1216
5849 3633
5849 6110
5850 587
5850 999
5850 1333
5851 155
5851 999
5851 1584
5852 208
5852 1000
5853 1002
5853 1078
5853 1079
5853 1510
5853 1995
5854 88
5854 1002
5854 1014
5854 1208
5854 1703
5855 1003
5855 1048
5855 1136
5855 1573
5855 2349
5856 1004
5856 1183
5856 1339
5856 1739
5856 3368
5857 57
5857 185
5857 1005
5857 1424
5857 2655
5858 1006
5858 1083
5858 1198
5858 1199
5858 3434
5859 283
5859 1008
5859 1009
5859 1345
5859 3042
5860 1014
5861 6172
5862 1020
5863 1020
5863 2564
5864 1021
5864 1140
5865 1025
5866 1026
5866 1689
5867 1027
5868 1028
5869 215
5869 1031
5869 2951
5870 5981
5870 6906
5871 1090
5871 1156
5871 2186
5871 2531
5871 5911
5872 1033
5873 88
5873 1035
5874 88
5874 1037
5875 1037
5875 2571
5875 4094
5875 4734
5876 1037
5877 644
5877 1038
5878 1038
5878 3973
5879 1039
5879 1235
5879 4751
5879 4877
5880 1040
5881 1040
5881 2129
5881 4976
5882 1041
5882 6721
5882 6907
5883 1043
5883 1308
5883 1633
5883 4028
5884 88
5884 1043
5885 1044
5886 1044
5886 4426
5887 83
5887 1045
5888 1047
5889 1048
5890 88
5890 1051
5891 1052
5892 1053
5892 1667
5892 3099
5893 1053
5894 88
5894 1054
5894 1068
5894 1358
5894 1964
5895 1054
5895 1076
5895 1462
5895 2819
5896 1058
5897 1058
5897 1090
5897 1095
5897 1139
5897 2242
5898 1058
5898 6908
5899 1060
5899 1800
5899 6909
5900 1061
5900 3055
5901 252
5901 1062
5902 88
5902 1062
5902 1408
5902 3357
5903 1063
5903 1175
5903 1306
5903 2345
5903 2808
5904 1065
5904 1525
5904 1923
5904 1961
5904 2494
5905 1065
5906 1066
5906 1100
5906 1148
5906 1480
5906 5539
5907 88
5907 1068
5907 5222
5908 1070
5908 3942
5909 88
5909 1071
5909 1289
5909 1997
5909 3928
5910 1071
5910 1390
5911 1074
5911 1211
5911 1212
5911 4874
5911 5871
5912 1075
5913 1076
5913 1239
5913 1775
5913 2951
5913 6910
5914 1076
5915 88
5915 1077
5915 6698
5916 88
5916 1078
5916 1200
5916 2113
5917 1080
5917 3521
5918 1084
5918 2256
5919 1084
5919 1164
5919 1422
5919 1475
5919 3858
5920 1085
5920 3111
5921 239
5921 1089
5922 1089
5922 3945
5923 1090
5924 1090
5924 4165
5925 1091
5925 3946
5926 88
5926 1096
5926 1498
5926 4433
5927 1097
5928 1098
5929 1099
5930 1100
5931 1101
5932 1102
5932 3598
5933 1103
5933 1105
5933 1840
5933 4096
5933 4317
5934 612
5934 1103
5935 1105
5936 1106
5937 1107
5938 1108
5938 1132
5938 1342
5938 1633
5938 4447
5939 1108
5939 1153
5939 1170
5939 5046
5940 1108
5941 1109
5941 1391
5942 1111
5943 1112
5943 1207
5944 1113
5944 1348
5944 1668
5944 3782
5944 4652
5945 1113
5946 1113
5946 3808
5947 1113
5947 3833
5947 6697
5948 1114
5948 3024
5948 6911
5949 1115
5949 3359
5950 1117
5950 2838
5951 1118
5951 1218
5951 1219
5951 1872
5951 2399
5952 1119
5953 1120
5953 1224
5954 506
5954 1121
5954 1397
5955 1121
5955 1196
5955 4390
5956 1124
5956 4596
5957 1125
5957 4749
5957 5242
5958 699
5958 1128
5958 1878
5959 1130
5959 3834
5959 4027
5960 1130
5961 215
5961 1131
5961 1293
5962 1132
5963 1132
5963 1911
5963 2841
5964 1133
5964 1835
5965 1134
5965 6420
5966 1134
5966 1530
5967 1135
5968 1136
5968 4571
5968 6115
5969 1138
5969 2231
5970 1139
5971 1140
5972 1141
5973 318
5973 1141
5974 1145
5975 679
5975 1147
5975 3247
5976 1148
5976 3231
5976 3835
5977 1149
5978 1150
5978 1494
5978 1503
5979 1150
5980 1150
5980 1160
5980 4973
5980 5492
5981 1151
5981 1158
5981 1159
5981 1654
5981 5870
5982 1152
5983 1153
5983 4265
5983 5388
5984 1154
5985 1155
5986 6442
5987 1160
5987 1171
5987 1383
5987 3231
5987 4756
5988 1162
5988 1842
5988 6912
5989 1163
5989 6913
5990 317
5990 1164
5991 88
5991 1166
5992 1169
5992 1515
5993 1169
5994 1169
5994 3011
5994 6275
5995 1170
5995 3438
5996 1170
5997 1170
5997 1476
5997 1534
5997 3398
5998 1171
5999 1171
5999 1191
5999 1695
6000 1174
6000 2005
6001 1175
6001 5619
6002 184
6002 1176
6003 1177
6003 1208
6003 2005
6004 1180
6004 1222
6004 2176
6005 88
6005 152
6005 1180
6006 1187
6006 2838
6007 88
6007 1187
6007 6073
6008 1188
6008 3899
6008 6915
6009 693
6009 1189
6010 1190
6010 2543
6011 1192
6011 1734
6011 6427
6012 88
6012 1193
6013 1193
6014 1194
6015 387
6015 1195
6015 3841
6016 1196
6016 1499
6016 5621
6017 1197
6018 1198
6019 1199
6019 4469
6020 1200
6020 1632
6020 4007
6021 1203
6022 1205
6022 3103
6022 6023
6023 1205
6023 6022
6024 1208
6024 6041
6024 6469
6025 88
6025 1208
6026 88
6026 1209
6027 1211
6028 1212
6029 598
6029 1214
6029 1606
6030 1214
6031 1215
6032 1216
6032 1268
6032 1269
6032 1271
6032 2892
6032 5188
6033 628
6033 1216
6033 1248
6034 1216
6034 1252
6034 2962
6034 2966
6035 1217
6035 1248
6035 1252
6035 1328
6035 1329
6035 3822
6036 1217
6036 1249
6036 1252
6036 2949
6036 6916
6037 1218
6037 1522
6037 2393
6038 1218
6038 6917
6039 1218
6040 291
6040 1219
6041 1219
6041 3989
6041 6024
6042 1219
6042 1274
6042 6918
6043 1221
6043 1491
6044 1222
6045 215
6045 1223
6046 1224
6047 1225
6047 2974
6047 6920
6048 1226
6049 1227
6049 4181
6050 1228
6050 3347
6051 1228
6052 88
6052 1229
6053 577
6053 1230
6053 4864
6054 1232
6054 1442
6054 1764
6054 2944
6054 2946
6055 1232
6055 1993
6055 6118
6056 1232
6056 1631
6056 6514
6057 1232
6058 328
6058 1239
6059 885
6059 1240
6060 1241
6060 5018
6061 1402
6061 6082
6061 6921
6062 339
6062 1244
6063 1248
6063 1249
6063 1250
6063 1252
6063 2918
6063 3822
6064 88
6064 1249
6064 3822
6065 1250
6065 4299
6065 4300
6066 88
6066 1250
6067 1250
6067 1268
6068 1258
6069 1259
6070 88
6070 1260
6070 1325
6070 1336
6070 1934
6070 3272
6071 1260
6072 6864
6073 1265
6073 6007
6074 88
6074 1266
6074 2677
6075 1268
6075 1269
6075 5188
6075 6075
6076 1270
6077 1271
6078 1272
6079 88
6079 1275
6079 1443
6079 5767
6079 6923
6080 554
6080 1276
6080 4634
6081 1276
6081 1388
6081 5099
6082 1280
6082 1385
6082 1402
6082 2496
6082 2841
6082 6061
6083 1285
6084 1285
6084 1637
6084 5072
6085 1286
6085 2972
6086 1287
6087 1288
6087 4780
6088 1292
6089 1293
6090 6474
6091 1295
6091 6410
6092 1295
6092 1322
6093 1296
6094 1298
6094 2293
6095 1305
6095 3715
6096 255
6096 1306
6097 1309
6097 3023
6097 6634
6098 1315
6099 1316
6099 1782
6100 88
6100 1318
6101 1318
6102 1319
6102 1602
6102 4994
6103 1321
6103 4570
6104 88
6104 1322
6104 3233
6105 1322
6105 1539
6105 6924
6106 88
6106 1324
6106 2604
6106 4344
6107 1325
6107 1331
6108 1326
6109 88
6109 1327
6110 1268
6110 1269
6110 1329
6110 5849
6111 1329
6112 88
6112 1333
6112 1497
6112 2123
6113 1336
6114 1338
6115 1339
6115 5968
6116 1339
6117 1341
6118 1341
6118 6055
6119 1342
6119 2922
6120 374
6120 1343
6121 1343
6121 1417
6121 1542
6121 1897
6122 88
6122 1347
6122 2847
6122 4280
6123 1347
6124 1353
6125 134
6125 1354
6126 1355
6126 5011
6126 6926
6127 88
6127 1359
6128 1364
6129 88
6129 1365
6129 1687
6130 1365
6131 215
6131 1365
6132 1365
6132 2883
6133 1366
6133 5521
6134 1366
6134 2806
6135 565
6135 1370
6136 693
6136 1371
6137 170
6137 1373
6138 1374
6138 4058
6139 1375
6140 88
6140 1375
6140 2982
6141 344
6141 1376
6141 4706
6142 1117
6142 1376
6143 1378
6144 395
6144 1379
6145 1384
6146 1385
6147 1387
6148 1390
6148 3140
6149 1395
6150 1400
6151 1401
6151 4737
6151 4783
6152 380
6152 1403
6153 1403
6154 1407
6154 5660
6155 1410
6156 1411
6157 1412
6158 1414
6158 5682
6159 347
6159 1417
6160 1431
6160 2006
6160 4778
6161 1435
6161 1453
6161 2000
6161 2661
6162 1439
6162 4758
6163 88
6163 1444
6164 1445
6165 1447
6165 6927
6166 1449
6167 1451
6167 3844
6167 4713
6168 1451
6168 3201
6168 5262
6169 1451
6169 6928
6170 1463
6170 3740
6171 1464
6172 1465
6172 3185
6172 5861
6173 1466
6173 4158
6174 1466
6174 1519
6174 4256
6175 1468
6176 1468
6176 3990
6177 243
6177 1468
6178 1472
6179 1475
6180 88
6180 1475
6181 1479
6182 88
6182 1481
6183 1482
6183 6183
6184 1483
6185 1484
6185 3202
6186 1484
6187 85
6187 1486
6188 1487
6188 1763
6188 2732
6189 1492
6190 1501
6191 1503
6192 1505
6193 677
6193 1506
6193 1706
6193 3571
6194 1506
6195 1507
6195 3700
6195 4785
6196 88
6196 1508
6197 1509
6198 1511
6199 1516
6199 1892
6199 3257
6200 1519
6200 1624
6201 1522
6202 1531
6202 1945
6202 6203
6203 1531
6203 6202
6204 88
6204 1533
6204 3205
6205 1533
6206 1535
6207 1537
6208 1538
6209 1539
6210 1540
6211 164
6211 1540
6211 1867
6212 288
6212 1542
6213 1543
6213 4613
6214 1544
6214 3929
6215 1545
6215 2725
6216 1545
6217 1546
6218 88
6218 1551
6219 88
6219 1552
6219 1571
6220 1553
6221 88
6221 1554
6221 5219
6222 1556
6223 1557
6223 3819
6223 3820
6224 1562
6224 2303
6224 2631
6224 4561
6224 5177
6225 1566
6226 1568
6226 6929
6227 1569
6228 1570
6228 6930
6229 88
6229 1572
6230 1578
6230 1948
6231 1579
6231 2898
6231 5013
6232 1580
6232 2567
6232 2592
6232 4755
6233 1581
6233 1650
6234 1581
6235 1582
6236 1583
6237 1584
6237 2085
6238 88
6238 1585
6238 6238
6239 1585
6239 3319
6240 1585
6240 6931
6241 88
6241 1586
6242 1587
6242 2148
6242 3548
6243 1588
6244 1170
6244 1591
6245 88
6245 1591
6246 1593
6246 2348
6246 2795
6247 88
6247 1595
6248 1595
6248 3730
6248 4930
6249 1596
6249 2252
6250 1597
6250 6932
6251 1597
6251 3043
6252 1598
6253 1599
6253 2483
6254 1601
6255 1603
6256 1609
6257 88
6257 1610
6258 1610
6259 0
6259 1612
6259 6393
6260 1615
6260 2196
6260 3310
6260 5233
6261 1615
6261 3711
6261 3941
6262 1617
6262 3026
6262 6933
6263 1617
6263 3792
6263 3885
6264 1618
6264 3805
6265 1621
6266 88
6266 1623
6266 3531
6267 1623
6268 1630
6269 1632
6269 6934
6270 88
6270 1637
6271 1637
6272 1640
6272 2499
6273 1642
6273 2828
6273 4771
6274 1642
6275 1643
6275 5994
6276 88
6276 1643
6277 1645
6278 48
6278 1645
6279 88
6279 1645
6280 1649
6280 1809
6280 2187
6280 4757
6281 88
6281 1649
6281 4833
6282 1654
6283 1654
6283 3787
6284 1655
6285 1656
6286 1657
6286 5431
6287 6413
6288 88
6288 1663
6289 1664
6289 3736
6289 4770
6290 1665
6290 3835
6290 6705
6291 1667
6292 1669
6293 1670
6294 1671
6294 2043
6294 4508
6295 282
6295 1680
6296 1685
6297 1686
6298 1687
6299 88
6299 1692
6300 1692
6301 1693
6302 1694
6302 3025
6302 6935
6303 1702
6303 3336
6303 3546
6304 1702
6305 1703
6305 6936
6306 88
6306 1707
6307 1708
6307 6307
6308 1710
6309 1713
6310 1717
6311 1717
6311 2710
6312 1724
6313 1728
6313 6525
6314 412
6314 1729
6315 1732
6315 4261
6316 1741
6317 1742
6317 3256
6318 1742
6318 1796
6318 2275
6318 6476
6319 607
6319 1754
6320 1758
6321 1759
6321 2569
6322 1760
6323 88
6323 1766
6324 1767
6324 2885
6325 1771
6326 85
6326 1773
6327 1779
6327 3022
6327 6937
6328 88
6328 1779
6328 5113
6329 88
6329 1780
6329 1996
6330 1781
6330 3526
6331 1783
6332 1786
6332 6454
6333 1788
6333 6764
6334 1789
6335 1790
6335 4275
6336 88
6336 1791
6336 6411
6337 1794
6337 1941
6338 1797
6339 1798
6340 88
6340 1801
6341 325
6341 1803
6342 1804
6343 1806
6344 1806
6344 2971
6344 6938
6345 1807
6346 1807
6346 6939
6347 1809
6347 3495
6347 3551
6348 453
6348 1810
6348 4761
6349 1812
6350 1815
6351 1816
6352 1817
6353 1823
6353 6940
6354 1826
6355 1829
6355 2945
6356 1832
6357 1836
6357 1949
6358 1838
6359 1839
6359 2471
6359 6359
6360 1843
6361 1850
6362 1851
6363 1852
6364 1853
6364 2139
6365 1856
6365 2699
6365 2711
6366 88
6366 1857
6366 1989
6367 1861
6368 1863
6368 4519
6369 1864
6370 1867
6371 400
6371 1871
6372 150
6372 1872
6373 1875
6374 88
6374 1880
6374 4729
6375 1881
6375 1940
6376 1883
6376 2993
6377 1883
6378 88
6378 1885
6379 1888
6379 2264
6379 2434
6380 88
6380 1888
6381 1891
6382 1893
6383 1895
6384 1899
6384 6941
6385 1905
6386 1906
6387 1911
6388 1913
6388 3737
6389 1913
6390 1915
6390 2017
6391 1916
6392 1917
6392 6942
6393 1918
6393 6259
6394 1920
6394 2266
6395 1924
6396 1925
6396 6396
6397 1926
6398 1926
6398 3836
6398 3877
6399 1933
6400 1938
6400 2268
6401 1939
6401 3850
6402 1948
6402 6943
6403 1951
6404 1958
6405 1966
6405 3817
6405 6754
6406 1968
6406 2230
6406 3850
6406 4384
6407 88
6407 1971
6407 3448
6408 1972
6409 1975
6409 2855
6409 3310
6410 1975
6410 6091
6411 1981
6411 6336
6412 88
6412 1982
6413 1985
6413 6287
6414 1986
6415 1993
6416 369
6416 2003
6417 2003
6417 3028
6418 2010
6418 2173
6419 2014
6419 4601
6420 2015
6420 5965
6421 2018
6422 2023
6423 2029
6423 5135
6424 2034
6425 2037
6425 2443
6425 2790
6426 2038
6427 2039
6427 6011
6428 88
6428 2041
6428 2430
6429 2042
6430 2053
6431 392
6431 2056
6432 2058
6432 2561
6433 2072
6434 88
6434 2072
6435 88
6435 2081
6436 2090
6437 213
6437 2098
6438 2103
6439 2104
6440 2114
6441 2116
6441 2930
6442 2117
6442 5986
6443 2137
6444 2141
6444 4753
6445 2141
6445 6946
6446 2146
6446 3054
6447 2148
6447 6947
6448 2155
6449 2157
6449 3814
6449 3816
6450 2159
6451 1365
6451 2160
6452 2164
6452 2168
6453 2169
6454 2169
6454 6332
6455 2184
6455 2246
6455 3072
6456 2186
6457 2189
6458 2192
6459 291
6459 2195
6460 2205
6460 2972
6460 5327
6461 2212
6462 88
6462 2214
6463 88
6463 2228
6464 2229
6464 2634
6464 2926
6465 2235
6466 2247
6467 2249
6468 2256
6469 2263
6469 4635
6469 6024
6470 88
6470 2263
6471 2264
6471 3923
6472 88
6472 2268
6473 2271
6473 6681
6474 2274
6474 2919
6474 6090
6475 2274
6475 3147
6476 2275
6476 6318
6477 2284
6478 88
6478 2301
6478 6765
6479 2310
6480 88
6480 2319
6480 2931
6481 2320
6482 68
6482 2323
6483 2324
6483 2399
6484 2326
6485 2327
6485 3931
6486 2332
6487 2346
6488 2349
6489 88
6489 2352
6490 2357
6490 2896
6490 4490
6491 2361
6491 4719
6491 6949
6492 2366
6492 5305
6492 5508
6493 2386
6493 4621
6494 2390
6494 5300
6495 2397
6496 88
6496 2401
6497 680
6497 2401
6498 2410
6499 85
6499 88
6499 2410
6500 214
6500 2415
6501 2416
6502 2428
6502 2794
6502 4781
6503 2429
6503 2488
6504 2431
6505 2435
6505 4781
6506 2436
6507 88
6507 2437
6507 6553
6508 88
6508 2448
6509 2456
6509 6950
6510 88
6510 2458
6511 2463
6512 2467
6513 317
6513 2474
6514 2475
6514 3172
6514 6056
6515 88
6515 2491
6515 2978
6516 2497
6517 2498
6517 2858
6518 2500
6518 3019
6518 3031
6519 2508
6519 2629
6520 2510
6521 2515
6521 2856
6521 3776
6522 2517
6522 4282
6523 2521
6523 3416
6524 2523
6525 2539
6525 6313
6526 2557
6526 2891
6527 2561
6528 2563
6528 4509
6529 419
6529 2569
6530 2571
6531 2576
6532 2590
6533 2596
6534 2599
6535 2605
6536 2612
6537 2622
6537 6952
6538 2640
6538 3505
6539 2645
6540 2671
6541 2673
6542 2674
6543 245
6543 2684
6544 2688
6545 88
6545 2692
6546 2701
6547 2708
6548 2713
6549 48
6549 2716
6550 2719
6551 2736
6552 2737
6553 2742
6553 6507
6554 2746
6555 2750
6556 2763
6556 3251
6557 2778
6558 2779
6559 2783
6560 88
6560 2784
6561 150
6561 2798
6562 2798
6562 6953
6563 2804
6564 2807
6564 3937
6565 220
6565 2818
6566 2821
6567 628
6567 2821
6568 2821
6568 3936
6569 88
6569 6569
6570 2828
6570 3949
6571 2828
6572 2829
6573 2831
6573 4571
6574 2831
6575 88
6575 2833
6575 3732
6575 6742
6576 6820
6577 2836
6578 155
6578 2842
6579 88
6579 2843
6580 2845
6581 88
6581 2846
6582 2851
6582 2914
6583 2859
6583 5671
6584 2862
6585 88
6585 2863
6586 2863
6586 4604
6587 88
6587 2866
6588 2868
6589 2871
6590 2874
6590 6590
6591 2875
6592 2879
6592 2926
6593 2882
6594 2886
6595 2887
6596 2891
6596 5620
6597 2892
6598 2895
6599 2899
6600 2901
6601 2901
6601 6601
6602 88
6602 2906
6603 2911
6603 2949
6604 2917
6605 88
6605 2921
6606 2922
6606 4893
6607 2924
6608 2925
6608 6955
6609 2927
6609 4796
6610 2928
6610 6610
6611 88
6611 2930
6612 88
6612 2931
6613 2934
6614 2943
6615 991
6615 2945
6616 2946
6617 2948
6618 2955
6619 2964
6620 2967
6620 2969
6620 2970
6621 345
6621 2967
6622 2968
6622 5615
6623 2970
6624 2971
6625 2978
6626 2988
6626 3527
6627 88
6627 2992
6628 89
6629 3001
6630 3010
6631 3020
6631 6956
6632 3020
6633 3022
6634 3023
6634 6097
6635 6637
6636 104
6637 3026
6637 6635
6638 3026
6639 76
6639 3027
6640 3030
6641 3031
6642 3043
6643 92
6644 3045
6645 3046
6646 3053
6647 98
6648 3069
6649 88
6649 3069
6650 88
6650 3071
6651 3073
6651 3855
6651 4792
6652 3087
6652 3546
6653 3088
6653 6959
6654 3105
6655 88
6655 3105
6656 3117
6656 4281
6657 3127
6658 3131
6659 96
6660 128
6661 3145
6662 3154
6662 6960
6663 3154
6664 3155
6664 6961
6665 3155
6666 3156
6666 6962
6667 3156
6667 3932
6668 3157
6668 6963
6669 3158
6669 6964
6670 3159
6670 6965
6671 3160
6671 6966
6672 266
6672 3161
6673 3153
6673 3161
6674 3170
6674 4744
6675 132
6676 3183
6677 134
6677 3186
6678 3196
6679 3199
6680 3201
6681 3214
6681 6473
6682 3233
6683 3249
6683 4754
6684 3250
6685 3251
6686 3252
6686 3364
6687 3266
6688 3271
6689 95
6690 3286
6691 88
6691 3288
6692 3302
6693 3312
6694 3314
6695 3316
6695 6728
6696 3322
6697 3323
6697 5947
6698 3328
6698 5915
6699 62
6699 3334
6700 3335
6701 3336
6702 3348
6703 3352
6704 3361
6705 3364
6705 6290
6706 3374
6706 6968
6707 3381
6708 3383
6709 62
6709 3383
6710 88
6710 3406
6711 3422
6712 3425
6713 3429
6714 3435
6714 3814
6715 3439
6716 3449
6717 3466
6718 3472
6719 3490
6720 3500
6721 3509
6721 5882
6722 3513
6722 4260
6723 3517
6723 3602
6724 3529
6725 3536
6726 3547
6727 3561
6728 3609
6728 6695
6729 3611
6730 277
6730 3622
6731 3622
6732 88
6732 3625
6733 3639
6734 3643
6734 6969
6735 3646
6735 6745
6736 88
6736 3656
6737 3660
6738 88
6738 3688
6739 3688
6740 3706
6741 3709
6741 6741
6742 3732
6742 6575
6743 111
6744 3735
6745 3745
6745 6735
6746 3762
6747 3776
6748 88
6748 3782
6749 3792
6749 3818
6750 3792
6750 3818
6750 3829
6751 3804
6752 88
6752 3812
6753 3815
6753 3822
6753 3823
6754 3817
6754 6405
6755 3823
6756 3828
6757 3832
6758 221
6758 3837
6759 3837
6760 3843
6761 88
6761 3845
6762 3847
6762 4204
6763 3847
6764 3849
6764 6333
6765 88
6765 3850
6765 6478
6766 3855
6767 88
6767 3861
6768 3875
6769 3921
6769 4031
6770 6947
6771 325
6771 3922
6772 3924
6773 3926
6773 3953
6774 3933
6775 3935
6776 3938
6776 4103
6777 3940
6778 3942
6779 88
6779 246
6780 3947
6781 3948
6781 6781
6782 3950
6783 3960
6784 3961
6785 3986
6785 4691
6786 4012
6787 4014
6788 88
6788 4026
6789 4038
6790 4090
6791 4103
6792 4130
6793 4131
6794 4134
6795 88
6795 4144
6796 4186
6797 4192
6798 4193
6799 4199
6800 4200
6801 4202
6802 4210
6803 4243
6804 4257
6805 319
6806 4270
6807 88
6807 4306
6807 6971
6808 4317
6809 88
6809 223
6810 4374
6811 4386
6812 4388
6813 4413
6814 4423
6815 4427
6816 693
6816 4434
6817 4446
6817 6972
6818 4454
6819 4472
6820 88
6820 4477
6820 6576
6821 4479
6822 4492
6823 4500
6823 6973
6824 4510
6825 4515
6826 4516
6827 4548
6828 4549
6829 4564
6830 4577
6831 4593
6832 4602
6833 4612
6834 4616
6835 4641
6836 4650
6837 4653
6838 4687
6839 4690
6840 4707
6841 4711
6842 4759
6843 4767
6844 6858
6845 4771
6846 4774
6847 4775
6848 4782
6849 4806
6850 4843
6851 4860
6851 6975
6852 4881
6853 4889
6854 4914
6855 4967
6856 4968
6857 4987
6858 4991
6858 6844
6859 4993
6860 4995
6860 4996
6861 5038
6862 5049
6863 5059
6864 5067
6864 6072
6865 539
6866 5083
6867 5096
6868 5129
6868 5685
6869 5145
6870 5158
6871 5166
6872 5172
6873 5208
6874 5251
6875 5269
6876 5284
6877 5322
6878 5329
6879 5334
6880 5396
6881 5413
6882 5416
6883 5426
6883 6977
6884 88
6884 5430
6885 5435
6886 5436
6887 5471
6888 5516
6889 5527
6890 5556
6891 5606
6892 5630
6893 5645
6894 5646
6895 5660
6896 5661
6897 5676
6898 5699
6899 88
6899 5708
6900 5731
6901 5740
6902 5756
6903 5767
6904 643
6905 5838
6906 5870
6907 5882
6908 5898
6909 5899
6910 5913
6911 5948
6912 5988
6913 5989
6914 1016
6915 6008
6916 6036
6917 6038
6918 6042
6919 93
6920 6047
6921 6061
6922 337
6923 6079
6924 6105
6925 768
6926 6126
6927 6165
6928 6169
6929 6226
6930 6228
6931 6240
6932 6250
6933 6262
6934 6269
6935 6302
6936 6305
6937 6327
6938 6344
6939 6346
6940 6353
6941 6384
6942 6392
6943 6402
6944 1658
6945 1157
6946 6445
6947 6447
6947 6770
6948 1294
6949 6491
6950 6509
6951 903
6952 6537
6953 6562
6954 546
6955 6608
6956 6631
6957 3025
6958 326
6959 6653
6960 6662
6961 6664
6962 6666
6963 6668
6964 6669
6965 6670
6966 6671
6967 1262
6968 6706
6969 6734
6970 2835
6971 6807
6972 6817
6973 6823
6974 4768
6975 6851
6976 3922
6977 6883
