0 50
1 22
1 23
2 4
2 12
2 27
3 6
3 17
3 28
3 80
4 2
4 29
4 30
5 16
5 31
5 32
5 33
5 34
6 3
6 39
6 96
6 97
6 98
7 12
7 40
7 41
7 42
7 43
8 11
8 44
8 45
8 46
9 11
9 47
9 48
10 16
10 49
11 8
11 9
11 50
11 51
12 2
12 7
12 52
13 53
13 93
14 22
14 55
15 25
15 91
16 5
16 10
16 57
16 58
17 3
17 59
18 26
18 60
19 61
19 62
20 53
20 90
21 61
21 90
22 1
22 14
22 53
23 1
23 47
23 65
24 26
24 66
24 67
24 68
25 15
25 57
25 64
25 69
25 70
26 18
26 24
26 40
26 71
26 72
27 2
27 73
28 3
28 74
29 4
29 75
30 4
31 5
31 39
32 5
32 76
33 5
33 77
34 5
34 78
35 79
35 80
35 81
36 80
36 100
37 80
38 80
38 99
39 6
39 31
39 84
39 85
40 7
40 26
41 7
42 7
42 86
43 7
43 87
44 8
44 88
45 8
45 89
46 8
47 9
47 23
48 9
49 10
50 0
50 11
51 11
52 12
53 13
53 20
53 22
54 85
55 14
56 68
57 16
57 25
58 16
59 17
60 18
61 19
61 21
62 19
63 79
63 88
64 25
64 66
65 23
65 92
66 24
66 64
67 24
68 24
68 56
69 25
70 25
70 94
71 26
71 95
72 26
73 27
74 28
75 29
76 32
77 33
78 34
79 35
79 63
80 3
80 35
80 36
80 37
80 38
81 35
82 98
83 97
84 39
85 39
85 54
86 42
87 43
88 44
88 63
89 45
90 20
90 21
91 15
92 65
93 13
94 70
95 71
96 6
97 6
97 83
98 6
98 82
99 38
100 36
