0 910
1 298
1 1048
2 390
2 400
2 401
3 383
4 261
4 369
4 370
4 372
4 373
5 231
5 239
5 261
5 273
5 404
5 405
6 379
6 441
6 442
6 444
6 446
6 502
6 918
7 261
7 345
7 382
7 608
8 276
8 312
8 413
8 459
8 509
8 511
8 515
8 1157
8 1180
9 418
9 550
9 557
9 558
9 559
9 560
10 418
10 550
10 557
10 559
10 560
10 572
10 574
11 261
11 345
11 373
11 382
11 433
11 449
11 450
11 608
12 196
12 269
12 591
12 592
12 594
12 595
12 619
12 818
13 166
13 183
13 184
13 220
13 283
13 341
13 419
13 509
13 578
13 632
14 261
14 345
14 373
14 433
14 449
14 490
14 501
14 635
14 636
14 637
14 638
14 639
15 160
15 165
15 166
15 167
15 168
15 183
15 266
15 417
15 468
15 469
15 505
16 104
16 136
16 158
16 271
16 281
16 627
16 651
16 661
16 662
17 93
17 97
17 105
17 108
17 120
17 159
17 160
17 163
17 164
17 166
17 168
17 180
17 227
17 588
17 609
17 610
17 655
18 103
18 261
18 271
18 380
18 381
18 382
18 643
18 651
19 80
19 82
19 142
19 150
19 155
19 161
19 162
19 175
19 351
19 486
19 527
19 528
19 563
19 599
19 602
19 606
19 622
19 667
19 668
19 672
20 417
20 674
21 167
21 183
21 220
21 394
21 411
21 426
21 485
21 499
21 500
21 506
21 578
21 656
21 675
21 676
21 819
22 84
22 102
22 104
22 106
22 107
22 113
22 136
22 189
22 271
22 281
22 314
22 380
22 392
22 397
22 423
22 510
22 545
22 613
22 627
22 630
22 631
22 653
22 677
23 130
23 150
23 151
23 158
23 161
23 162
23 351
23 352
23 365
23 409
23 487
23 516
23 678
23 679
23 680
23 681
24 183
24 346
24 417
24 514
24 674
24 684
25 38
25 75
25 103
25 149
25 158
25 162
25 166
25 423
25 613
25 643
25 670
25 685
25 686
25 687
25 688
26 43
26 165
26 166
26 167
26 168
26 183
26 346
26 440
26 541
26 542
26 689
27 261
27 343
27 345
27 433
27 450
27 490
27 501
27 552
27 556
27 589
27 608
27 636
27 637
27 639
27 695
27 696
27 697
28 82
28 84
28 103
28 132
28 143
28 144
28 146
28 147
28 149
28 151
28 152
28 153
28 154
28 156
28 157
28 158
28 161
28 162
28 183
28 190
28 410
28 527
28 561
28 602
28 620
28 642
28 668
28 688
28 698
29 92
29 126
29 145
29 162
29 263
29 640
29 641
29 647
29 667
29 686
29 688
29 693
30 43
30 114
30 165
30 166
30 167
30 168
30 346
30 468
30 514
30 540
30 689
30 690
30 692
31 92
31 124
31 125
31 126
31 129
31 130
31 131
31 139
31 143
31 144
31 145
31 148
31 149
31 151
31 153
31 156
31 157
31 161
31 162
31 263
31 410
31 527
31 533
31 602
31 640
31 641
31 650
31 672
31 699
31 700
31 701
32 91
32 165
32 166
32 167
32 168
32 417
32 472
32 505
32 674
33 112
33 167
33 195
33 253
33 315
33 319
33 336
33 386
33 414
33 432
33 439
33 465
33 571
33 703
33 704
33 705
34 77
34 78
34 92
34 121
34 124
34 125
34 133
34 137
34 151
34 152
34 156
34 157
34 162
34 431
34 524
34 602
34 603
34 644
34 645
34 646
34 647
34 648
34 649
34 650
34 700
34 706
34 707
34 717
34 745
34 749
35 43
35 83
35 160
35 164
35 165
35 166
35 167
35 168
35 183
35 346
35 468
35 469
35 570
35 689
35 692
35 708
36 38
36 75
36 79
36 132
36 133
36 138
36 141
36 144
36 145
36 146
36 148
36 149
36 150
36 151
36 152
36 153
36 154
36 155
36 157
36 158
36 161
36 162
36 175
36 365
36 410
36 528
36 533
36 535
36 561
36 600
36 602
36 603
36 604
36 648
36 681
36 701
36 709
36 710
37 160
37 174
37 711
38 25
38 36
38 41
38 74
38 75
38 79
38 103
38 129
38 131
38 132
38 137
38 138
38 139
38 142
38 148
38 153
38 155
38 156
38 157
38 158
38 161
38 162
38 175
38 351
38 365
38 534
38 535
38 602
38 603
38 687
38 701
38 710
38 712
39 41
39 64
39 77
39 78
39 132
39 133
39 137
39 138
39 140
39 141
39 144
39 146
39 147
39 151
39 152
39 154
39 155
39 156
39 162
39 533
39 603
39 678
39 706
39 713
39 714
39 715
39 716
40 165
40 166
40 167
40 168
40 174
40 711
41 38
41 39
41 71
41 75
41 79
41 121
41 133
41 137
41 138
41 140
41 141
41 142
41 143
41 144
41 146
41 147
41 148
41 149
41 150
41 151
41 152
41 153
41 154
41 155
41 156
41 157
41 162
41 175
41 225
41 317
41 365
41 367
41 410
41 526
41 533
41 535
41 602
41 603
41 701
41 710
41 712
41 715
41 717
42 160
42 165
42 166
42 167
42 168
42 174
42 183
42 711
43 26
43 30
43 35
43 44
43 46
43 57
43 72
43 73
43 81
43 85
43 86
43 90
43 163
43 167
43 183
43 226
43 316
43 334
43 387
43 407
43 464
43 492
43 506
43 509
43 568
43 617
43 618
43 632
43 656
43 658
43 659
43 676
43 684
43 690
43 718
43 719
43 720
43 721
43 722
43 762
43 811
43 980
43 1170
44 43
44 165
44 166
44 167
44 168
44 183
44 417
44 541
44 542
44 674
44 689
45 47
45 261
45 345
45 373
45 382
45 402
45 403
45 433
45 449
45 490
45 501
45 552
45 556
45 589
45 607
45 608
45 635
45 636
45 637
45 638
45 639
45 663
45 664
45 673
45 696
45 697
45 723
45 724
45 725
45 726
46 43
46 114
46 165
46 166
46 167
46 168
46 183
46 417
46 468
46 540
46 674
46 689
47 45
47 248
47 249
47 261
47 311
47 345
47 373
47 377
47 382
47 402
47 403
47 433
47 449
47 450
47 490
47 501
47 552
47 556
47 607
47 608
47 636
47 637
47 638
47 639
47 664
47 671
47 673
47 696
47 697
47 723
47 724
47 725
48 95
48 96
48 98
48 99
48 100
48 101
48 102
48 104
48 106
48 107
48 109
48 110
48 111
48 113
48 116
48 136
48 189
48 225
48 271
48 281
48 397
48 521
48 523
48 543
48 545
48 627
48 628
48 630
48 653
48 660
48 661
48 662
48 677
48 727
48 728
48 729
48 730
48 731
48 1121
48 1164
49 94
49 95
49 96
49 98
49 100
49 101
49 102
49 104
49 106
49 107
49 109
49 110
49 111
49 113
49 116
49 136
49 189
49 225
49 271
49 281
49 397
49 521
49 523
49 543
49 545
49 627
49 628
49 630
49 653
49 654
49 660
49 661
49 662
49 677
49 727
49 728
49 729
49 730
49 731
49 1121
49 1164
50 94
50 96
50 98
50 99
50 100
50 101
50 102
50 104
50 106
50 107
50 109
50 110
50 111
50 113
50 116
50 136
50 189
50 225
50 271
50 281
50 397
50 423
50 521
50 523
50 543
50 545
50 627
50 628
50 630
50 653
50 654
50 660
50 661
50 662
50 677
50 727
50 728
50 729
50 730
50 731
50 1121
50 1164
51 94
51 95
51 96
51 98
51 99
51 100
51 101
51 102
51 104
51 106
51 107
51 109
51 110
51 111
51 113
51 116
51 136
51 189
51 225
51 271
51 281
51 397
51 423
51 451
51 521
51 523
51 543
51 545
51 627
51 628
51 630
51 653
51 660
51 661
51 662
51 677
51 727
51 728
51 729
51 730
51 731
51 1121
51 1164
52 94
52 95
52 96
52 98
52 99
52 100
52 101
52 102
52 104
52 106
52 107
52 109
52 110
52 111
52 113
52 116
52 136
52 189
52 225
52 271
52 281
52 314
52 397
52 423
52 521
52 523
52 543
52 544
52 627
52 628
52 630
52 653
52 654
52 660
52 661
52 662
52 677
52 727
52 728
52 729
52 730
52 731
52 1121
52 1164
53 94
53 95
53 96
53 98
53 99
53 100
53 101
53 102
53 104
53 106
53 107
53 109
53 110
53 111
53 113
53 116
53 136
53 189
53 225
53 271
53 281
53 384
53 397
53 521
53 523
53 543
53 545
53 627
53 628
53 630
53 653
53 654
53 660
53 661
53 662
53 677
53 727
53 728
53 729
53 730
53 731
53 1121
53 1164
54 94
54 95
54 96
54 98
54 99
54 100
54 101
54 102
54 104
54 106
54 107
54 109
54 110
54 111
54 113
54 116
54 136
54 189
54 225
54 270
54 271
54 281
54 314
54 397
54 423
54 521
54 523
54 543
54 544
54 545
54 627
54 628
54 630
54 631
54 653
54 660
54 661
54 662
54 677
54 727
54 728
54 729
54 730
54 731
54 1121
54 1164
55 123
55 165
55 166
55 167
55 168
55 364
55 616
55 732
56 101
56 103
56 106
56 107
56 109
56 113
56 116
56 136
56 155
56 271
56 281
56 351
56 487
56 601
56 604
56 605
56 611
56 612
56 613
56 627
56 630
56 643
56 651
56 660
56 661
56 667
56 693
56 733
56 734
56 735
56 736
57 43
57 165
57 166
57 167
57 168
57 183
57 346
57 569
57 689
57 692
57 737
58 115
58 117
58 118
58 119
58 121
58 122
58 124
58 125
58 126
58 127
58 128
58 129
58 130
58 131
58 133
58 134
58 135
58 137
58 138
58 139
58 140
58 141
58 142
58 143
58 144
58 145
58 146
58 147
58 148
58 149
58 150
58 151
58 152
58 153
58 154
58 155
58 156
58 157
58 158
58 161
58 162
58 263
58 350
58 410
58 533
58 535
58 562
58 600
58 602
58 603
58 606
58 642
58 648
58 665
58 672
58 699
58 700
58 709
58 715
58 738
58 739
59 117
59 118
59 119
59 121
59 122
59 124
59 125
59 126
59 127
59 128
59 129
59 130
59 131
59 133
59 134
59 135
59 137
59 138
59 139
59 140
59 141
59 142
59 143
59 144
59 145
59 146
59 147
59 148
59 149
59 150
59 151
59 152
59 153
59 154
59 155
59 156
59 157
59 158
59 161
59 162
59 263
59 350
59 410
59 533
59 535
59 562
59 600
59 601
59 602
59 603
59 606
59 642
59 648
59 665
59 672
59 699
59 700
59 709
59 712
59 715
59 738
59 739
60 92
60 115
60 118
60 119
60 121
60 122
60 124
60 125
60 126
60 127
60 128
60 129
60 130
60 131
60 133
60 134
60 135
60 137
60 138
60 139
60 140
60 141
60 142
60 143
60 144
60 145
60 146
60 147
60 148
60 149
60 150
60 151
60 152
60 153
60 154
60 155
60 156
60 157
60 158
60 161
60 162
60 263
60 350
60 410
60 533
60 535
60 562
60 600
60 601
60 602
60 603
60 606
60 642
60 648
60 665
60 672
60 699
60 700
60 701
60 709
60 715
60 738
60 739
61 92
61 115
61 117
61 118
61 119
61 121
61 122
61 124
61 125
61 126
61 128
61 129
61 130
61 131
61 133
61 134
61 135
61 137
61 138
61 139
61 140
61 141
61 142
61 143
61 144
61 145
61 146
61 147
61 148
61 149
61 150
61 151
61 152
61 153
61 154
61 155
61 156
61 157
61 158
61 161
61 162
61 263
61 350
61 410
61 524
61 533
61 535
61 562
61 600
61 601
61 602
61 603
61 606
61 642
61 648
61 665
61 672
61 699
61 700
61 701
61 709
61 715
61 738
61 739
62 92
62 115
62 117
62 119
62 121
62 122
62 124
62 125
62 126
62 127
62 128
62 129
62 130
62 131
62 133
62 134
62 135
62 137
62 138
62 139
62 140
62 141
62 142
62 143
62 144
62 145
62 146
62 147
62 148
62 149
62 150
62 151
62 152
62 153
62 154
62 155
62 156
62 157
62 161
62 162
62 175
62 190
62 263
62 350
62 410
62 431
62 533
62 535
62 562
62 600
62 601
62 602
62 603
62 606
62 642
62 648
62 665
62 672
62 699
62 700
62 701
62 709
62 715
62 738
62 739
63 115
63 117
63 118
63 119
63 121
63 122
63 125
63 126
63 127
63 128
63 129
63 130
63 131
63 133
63 134
63 135
63 137
63 138
63 139
63 140
63 141
63 142
63 143
63 144
63 145
63 146
63 147
63 148
63 149
63 150
63 151
63 152
63 153
63 154
63 155
63 156
63 157
63 158
63 161
63 162
63 175
63 190
63 263
63 350
63 410
63 431
63 533
63 535
63 561
63 562
63 600
63 601
63 602
63 603
63 606
63 620
63 642
63 648
63 665
63 672
63 699
63 700
63 709
63 715
63 738
63 739
64 39
64 71
64 92
64 115
64 117
64 118
64 119
64 121
64 122
64 124
64 125
64 126
64 127
64 128
64 129
64 130
64 131
64 132
64 133
64 134
64 135
64 137
64 138
64 139
64 140
64 142
64 143
64 144
64 145
64 146
64 147
64 148
64 149
64 150
64 151
64 152
64 153
64 154
64 155
64 156
64 157
64 161
64 162
64 190
64 263
64 350
64 410
64 431
64 533
64 535
64 562
64 600
64 601
64 602
64 603
64 606
64 642
64 648
64 665
64 672
64 699
64 700
64 701
64 709
64 715
64 738
64 739
65 75
65 79
65 115
65 117
65 118
65 119
65 121
65 122
65 124
65 125
65 126
65 127
65 128
65 129
65 130
65 131
65 132
65 133
65 134
65 135
65 137
65 138
65 139
65 140
65 141
65 142
65 143
65 144
65 145
65 146
65 147
65 148
65 149
65 150
65 151
65 153
65 154
65 155
65 156
65 157
65 161
65 162
65 175
65 263
65 317
65 350
65 410
65 524
65 533
65 535
65 562
65 600
65 601
65 602
65 603
65 604
65 606
65 642
65 648
65 665
65 672
65 699
65 700
65 709
65 710
65 715
65 738
65 739
66 92
66 115
66 117
66 118
66 119
66 121
66 122
66 124
66 125
66 126
66 127
66 128
66 129
66 130
66 131
66 133
66 134
66 135
66 137
66 138
66 139
66 140
66 141
66 142
66 143
66 144
66 145
66 146
66 147
66 148
66 149
66 150
66 151
66 152
66 153
66 154
66 155
66 156
66 157
66 161
66 162
66 190
66 263
66 350
66 351
66 365
66 410
66 431
66 533
66 535
66 561
66 562
66 601
66 602
66 603
66 606
66 642
66 648
66 665
66 672
66 681
66 699
66 700
66 701
66 709
66 712
66 715
66 738
66 739
67 80
67 92
67 115
67 117
67 118
67 119
67 121
67 122
67 124
67 125
67 126
67 127
67 128
67 130
67 131
67 133
67 134
67 135
67 137
67 138
67 139
67 140
67 141
67 142
67 143
67 144
67 145
67 146
67 147
67 148
67 149
67 150
67 151
67 152
67 153
67 154
67 155
67 156
67 157
67 161
67 162
67 190
67 263
67 350
67 410
67 452
67 453
67 533
67 535
67 562
67 563
67 600
67 601
67 602
67 603
67 606
67 642
67 648
67 650
67 665
67 672
67 699
67 700
67 701
67 709
67 715
67 717
67 738
67 739
67 740
68 75
68 79
68 115
68 117
68 118
68 119
68 121
68 122
68 124
68 125
68 126
68 127
68 128
68 129
68 130
68 131
68 132
68 133
68 134
68 135
68 137
68 138
68 139
68 140
68 141
68 142
68 143
68 144
68 145
68 146
68 147
68 148
68 149
68 150
68 151
68 152
68 154
68 155
68 156
68 157
68 161
68 162
68 175
68 263
68 350
68 365
68 410
68 526
68 533
68 535
68 562
68 600
68 601
68 602
68 603
68 604
68 606
68 642
68 645
68 648
68 650
68 665
68 672
68 681
68 699
68 700
68 709
68 710
68 715
68 738
68 739
69 79
69 82
69 92
69 115
69 117
69 118
69 119
69 121
69 122
69 124
69 125
69 126
69 127
69 128
69 129
69 130
69 133
69 134
69 135
69 137
69 138
69 139
69 140
69 141
69 142
69 143
69 144
69 145
69 146
69 147
69 148
69 149
69 150
69 151
69 152
69 153
69 154
69 155
69 156
69 157
69 158
69 161
69 162
69 175
69 263
69 350
69 351
69 365
69 410
69 524
69 533
69 535
69 562
69 577
69 600
69 601
69 602
69 603
69 606
69 622
69 642
69 648
69 649
69 665
69 672
69 699
69 700
69 701
69 709
69 715
69 738
69 739
70 71
70 115
70 117
70 118
70 119
70 121
70 122
70 124
70 125
70 126
70 127
70 128
70 129
70 130
70 131
70 132
70 133
70 134
70 135
70 137
70 138
70 139
70 140
70 141
70 142
70 143
70 144
70 145
70 146
70 147
70 148
70 149
70 150
70 151
70 152
70 153
70 154
70 155
70 156
70 157
70 161
70 162
70 175
70 190
70 203
70 263
70 350
70 365
70 533
70 535
70 561
70 562
70 600
70 601
70 602
70 603
70 606
70 642
70 645
70 646
70 648
70 650
70 665
70 672
70 681
70 699
70 700
70 709
70 710
70 715
70 738
70 739
70 741
71 41
71 64
71 70
71 115
71 117
71 118
71 119
71 121
71 122
71 124
71 125
71 126
71 127
71 128
71 129
71 130
71 131
71 132
71 133
71 134
71 135
71 137
71 138
71 139
71 140
71 141
71 142
71 143
71 144
71 145
71 146
71 147
71 148
71 149
71 150
71 151
71 152
71 153
71 154
71 155
71 156
71 157
71 158
71 161
71 162
71 175
71 263
71 350
71 409
71 410
71 533
71 535
71 562
71 600
71 601
71 602
71 603
71 606
71 642
71 648
71 665
71 669
71 672
71 694
71 699
71 700
71 709
71 715
71 738
71 739
71 742
72 43
72 123
72 165
72 166
72 167
72 168
72 183
72 346
72 499
72 689
72 692
72 732
73 43
73 123
73 165
73 166
73 167
73 168
73 183
73 346
73 468
73 469
73 689
73 692
73 732
74 38
74 75
74 79
74 115
74 117
74 118
74 119
74 121
74 122
74 124
74 125
74 126
74 127
74 128
74 129
74 130
74 131
74 132
74 133
74 134
74 135
74 137
74 138
74 139
74 140
74 141
74 142
74 143
74 144
74 145
74 146
74 147
74 148
74 149
74 150
74 151
74 152
74 153
74 154
74 155
74 156
74 157
74 158
74 161
74 162
74 175
74 263
74 318
74 350
74 352
74 365
74 367
74 410
74 526
74 533
74 562
74 600
74 601
74 602
74 603
74 606
74 642
74 648
74 665
74 672
74 699
74 700
74 701
74 709
74 710
74 712
74 715
74 717
74 738
74 739
74 743
74 744
75 25
75 36
75 38
75 41
75 65
75 68
75 74
75 76
75 77
75 78
75 79
75 103
75 132
75 137
75 138
75 139
75 142
75 148
75 151
75 152
75 153
75 155
75 156
75 157
75 158
75 161
75 162
75 175
75 365
75 366
75 367
75 516
75 526
75 534
75 535
75 561
75 602
75 603
75 643
75 678
75 685
75 686
75 688
75 701
75 706
75 710
75 712
75 716
75 717
75 745
75 746
76 75
76 79
76 103
76 115
76 117
76 118
76 119
76 121
76 122
76 124
76 125
76 126
76 127
76 128
76 129
76 130
76 131
76 132
76 133
76 134
76 135
76 137
76 138
76 139
76 140
76 141
76 142
76 143
76 144
76 145
76 146
76 147
76 148
76 149
76 150
76 151
76 152
76 153
76 154
76 155
76 156
76 161
76 162
76 175
76 263
76 350
76 365
76 410
76 524
76 526
76 533
76 535
76 561
76 562
76 600
76 601
76 602
76 603
76 604
76 606
76 620
76 621
76 622
76 623
76 642
76 645
76 648
76 650
76 665
76 672
76 681
76 699
76 700
76 709
76 715
76 738
76 739
76 747
76 748
77 34
77 39
77 75
77 103
77 115
77 117
77 118
77 119
77 121
77 122
77 124
77 125
77 126
77 127
77 128
77 129
77 130
77 131
77 132
77 133
77 134
77 135
77 137
77 138
77 139
77 140
77 141
77 142
77 143
77 144
77 145
77 146
77 147
77 148
77 149
77 150
77 151
77 152
77 153
77 154
77 155
77 157
77 161
77 162
77 175
77 263
77 317
77 350
77 410
77 524
77 533
77 535
77 561
77 562
77 600
77 601
77 602
77 603
77 604
77 606
77 620
77 621
77 622
77 623
77 642
77 645
77 648
77 650
77 665
77 672
77 699
77 700
77 709
77 710
77 715
77 738
77 739
77 747
77 748
77 749
78 34
78 39
78 75
78 103
78 115
78 117
78 118
78 119
78 121
78 122
78 124
78 125
78 126
78 127
78 128
78 129
78 130
78 131
78 132
78 133
78 134
78 135
78 137
78 138
78 139
78 140
78 141
78 142
78 143
78 144
78 145
78 146
78 147
78 148
78 149
78 150
78 151
78 152
78 153
78 154
78 155
78 157
78 158
78 161
78 162
78 175
78 263
78 317
78 350
78 410
78 524
78 533
78 535
78 561
78 562
78 600
78 601
78 602
78 603
78 604
78 606
78 620
78 621
78 622
78 623
78 642
78 645
78 648
78 650
78 665
78 672
78 699
78 700
78 709
78 710
78 715
78 738
78 739
78 747
78 748
78 749
79 36
79 38
79 41
79 65
79 68
79 69
79 74
79 75
79 76
79 131
79 132
79 137
79 138
79 142
79 145
79 148
79 149
79 150
79 152
79 153
79 154
79 157
79 162
79 175
79 365
79 409
79 533
79 534
79 535
79 603
79 648
79 667
79 668
79 670
79 687
79 693
79 701
79 706
79 709
79 710
79 712
79 746
79 750
79 751
80 19
80 67
80 80
80 127
80 128
80 129
80 130
80 139
80 145
80 153
80 157
80 158
80 161
80 162
80 352
80 484
80 520
80 554
80 563
80 603
80 606
80 612
80 634
80 640
80 648
80 667
80 668
80 679
80 680
80 693
80 699
80 706
80 739
80 750
80 751
81 43
81 83
81 123
81 165
81 166
81 167
81 168
81 275
81 321
81 346
81 468
81 469
81 504
81 689
81 692
81 732
81 752
82 19
82 28
82 69
82 103
82 131
82 143
82 145
82 148
82 149
82 155
82 156
82 158
82 161
82 162
82 352
82 526
82 527
82 563
82 577
82 602
82 613
82 640
82 643
82 665
82 670
82 685
82 686
82 688
82 716
82 748
82 753
82 754
82 755
82 756
83 35
83 81
83 91
83 159
83 160
83 238
83 274
83 346
83 387
83 406
83 417
83 491
83 674
83 692
83 757
83 758
83 759
83 760
83 761
83 762
83 763
83 764
83 841
83 856
83 969
84 22
84 28
84 120
84 159
84 167
84 180
84 205
84 227
84 302
84 315
84 396
84 465
84 505
84 567
84 613
84 698
84 765
84 766
84 767
84 768
84 769
84 770
84 771
84 772
84 773
84 774
85 43
85 123
85 165
85 166
85 167
85 168
85 183
85 417
85 674
85 689
85 732
86 43
86 123
86 165
86 166
86 167
86 168
86 183
86 417
86 419
86 674
86 689
86 732
87 123
87 160
87 165
87 166
87 167
87 168
87 174
87 711
87 732
88 123
88 165
88 166
88 167
88 168
88 174
88 711
88 732
88 775
88 776
89 123
89 164
89 165
89 166
89 167
89 168
89 174
89 324
89 491
89 711
89 732
90 43
90 123
90 165
90 166
90 167
90 168
90 183
90 417
90 499
90 506
90 514
90 617
90 674
90 689
90 732
90 762
91 32
91 83
91 160
91 165
91 166
91 167
91 168
91 174
91 180
91 184
91 191
91 234
91 252
91 264
91 274
91 283
91 331
91 335
91 364
91 379
91 417
91 459
91 466
91 472
91 493
91 505
91 515
91 573
91 711
91 768
91 777
91 778
91 779
91 780
91 781
91 782
91 783
91 865
91 998
91 1050
91 1093
91 1169
92 29
92 31
92 34
92 60
92 61
92 62
92 64
92 66
92 67
92 69
92 117
92 118
92 119
92 121
92 122
92 124
92 125
92 127
92 128
92 129
92 130
92 131
92 133
92 135
92 137
92 139
92 140
92 141
92 142
92 143
92 145
92 146
92 147
92 148
92 149
92 150
92 151
92 152
92 153
92 154
92 155
92 156
92 158
92 162
92 350
92 410
92 431
92 524
92 533
92 554
92 562
92 600
92 602
92 603
92 634
92 640
92 644
92 645
92 646
92 648
92 649
92 650
92 665
92 666
92 672
92 678
92 679
92 680
92 700
92 701
92 706
92 707
92 709
92 713
92 714
92 715
92 717
92 739
92 741
92 745
92 749
92 826
93 17
93 108
93 159
93 163
93 165
93 166
93 167
93 168
93 330
93 346
93 553
94 49
94 50
94 51
94 52
94 53
94 54
94 95
94 96
94 98
94 99
94 100
94 101
94 102
94 104
94 106
94 107
94 109
94 110
94 111
94 113
94 116
94 136
94 189
94 225
94 271
94 281
94 384
94 397
94 498
94 521
94 522
94 523
94 543
94 545
94 627
94 628
94 630
94 651
94 652
94 653
94 654
94 660
94 661
94 662
94 677
94 727
94 728
94 729
94 730
94 731
94 784
94 785
94 786
94 789
94 790
94 795
94 802
94 803
94 825
94 832
94 1108
94 1121
94 1126
94 1144
94 1145
94 1164
94 1177
94 1178
95 48
95 49
95 51
95 52
95 53
95 54
95 94
95 96
95 98
95 99
95 100
95 101
95 102
95 104
95 106
95 107
95 109
95 110
95 111
95 113
95 116
95 136
95 189
95 225
95 271
95 281
95 384
95 397
95 423
95 498
95 521
95 522
95 523
95 543
95 545
95 627
95 628
95 630
95 651
95 652
95 653
95 654
95 660
95 661
95 662
95 677
95 727
95 728
95 729
95 730
95 731
95 784
95 785
95 786
95 789
95 790
95 795
95 802
95 803
95 825
95 832
95 1108
95 1121
95 1126
95 1144
95 1145
95 1164
95 1177
95 1178
96 48
96 49
96 50
96 51
96 52
96 53
96 54
96 94
96 95
96 98
96 99
96 100
96 101
96 102
96 104
96 106
96 107
96 109
96 110
96 111
96 113
96 116
96 136
96 189
96 195
96 225
96 271
96 281
96 380
96 384
96 397
96 498
96 521
96 522
96 523
96 543
96 545
96 627
96 628
96 630
96 651
96 652
96 653
96 654
96 660
96 661
96 662
96 677
96 727
96 728
96 729
96 730
96 731
96 784
96 786
96 789
96 790
96 795
96 802
96 803
96 825
96 832
96 1108
96 1121
96 1126
96 1144
96 1145
96 1164
96 1177
96 1178
97 17
97 108
97 120
97 163
97 164
97 165
97 166
97 167
97 168
97 428
97 588
97 609
97 610
97 787
98 48
98 49
98 50
98 51
98 52
98 53
98 54
98 94
98 95
98 96
98 98
98 99
98 100
98 101
98 102
98 104
98 106
98 107
98 109
98 110
98 111
98 113
98 116
98 136
98 189
98 225
98 271
98 281
98 384
98 397
98 498
98 521
98 522
98 523
98 543
98 545
98 611
98 612
98 627
98 628
98 630
98 651
98 652
98 653
98 654
98 660
98 661
98 662
98 677
98 727
98 728
98 729
98 730
98 731
98 784
98 785
98 786
98 789
98 790
98 795
98 802
98 803
98 825
98 832
98 1108
98 1121
98 1126
98 1144
98 1145
98 1164
98 1177
98 1178
99 48
99 50
99 51
99 52
99 53
99 54
99 94
99 95
99 96
99 98
99 100
99 101
99 102
99 104
99 106
99 107
99 109
99 110
99 111
99 113
99 116
99 136
99 189
99 225
99 271
99 281
99 384
99 397
99 498
99 521
99 522
99 523
99 543
99 545
99 627
99 628
99 630
99 631
99 651
99 652
99 653
99 654
99 660
99 661
99 662
99 677
99 727
99 728
99 729
99 730
99 731
99 784
99 785
99 786
99 788
99 789
99 790
99 795
99 802
99 803
99 825
99 832
99 1108
99 1121
99 1126
99 1144
99 1145
99 1164
99 1177
99 1178
100 48
100 49
100 50
100 51
100 52
100 53
100 54
100 94
100 95
100 96
100 98
100 99
100 101
100 102
100 104
100 106
100 107
100 109
100 110
100 111
100 113
100 116
100 136
100 189
100 225
100 271
100 281
100 384
100 397
100 498
100 521
100 522
100 523
100 543
100 545
100 627
100 628
100 630
100 631
100 651
100 652
100 653
100 654
100 660
100 661
100 662
100 677
100 727
100 728
100 729
100 730
100 731
100 784
100 785
100 786
100 788
100 789
100 790
100 795
100 802
100 803
100 825
100 832
100 1108
100 1121
100 1126
100 1144
100 1145
100 1164
100 1177
100 1178
101 48
101 49
101 50
101 51
101 52
101 53
101 54
101 56
101 94
101 95
101 96
101 98
101 99
101 100
101 102
101 104
101 106
101 107
101 109
101 110
101 111
101 113
101 116
101 136
101 189
101 225
101 271
101 281
101 314
101 384
101 397
101 498
101 521
101 522
101 523
101 543
101 545
101 593
101 611
101 612
101 627
101 628
101 630
101 651
101 652
101 653
101 654
101 660
101 661
101 662
101 677
101 727
101 728
101 729
101 730
101 731
101 784
101 785
101 789
101 790
101 795
101 802
101 803
101 825
101 832
101 1108
101 1121
101 1126
101 1144
101 1145
101 1164
101 1177
101 1178
102 22
102 48
102 49
102 50
102 51
102 52
102 53
102 54
102 94
102 95
102 96
102 98
102 99
102 100
102 101
102 104
102 106
102 107
102 109
102 110
102 111
102 113
102 116
102 136
102 189
102 225
102 271
102 281
102 384
102 397
102 451
102 498
102 521
102 522
102 523
102 543
102 545
102 627
102 628
102 630
102 651
102 652
102 653
102 654
102 660
102 661
102 662
102 677
102 698
102 727
102 728
102 729
102 730
102 731
102 784
102 785
102 786
102 789
102 790
102 795
102 802
102 803
102 825
102 832
102 1108
102 1121
102 1126
102 1144
102 1145
102 1164
102 1177
102 1178
103 18
103 25
103 28
103 38
103 56
103 75
103 76
103 77
103 78
103 82
103 103
103 143
103 145
103 149
103 156
103 157
103 158
103 161
103 162
103 190
103 209
103 351
103 352
103 367
103 484
103 487
103 525
103 526
103 528
103 565
103 577
103 593
103 602
103 605
103 613
103 620
103 621
103 622
103 623
103 643
103 666
103 667
103 670
103 685
103 687
103 693
103 710
103 733
103 736
103 743
103 747
103 748
103 791
103 792
103 793
103 838
104 16
104 22
104 48
104 49
104 50
104 51
104 52
104 53
104 54
104 94
104 95
104 96
104 98
104 99
104 100
104 101
104 102
104 104
104 106
104 107
104 109
104 110
104 111
104 113
104 116
104 136
104 189
104 225
104 271
104 281
104 384
104 397
104 498
104 521
104 522
104 523
104 543
104 545
104 611
104 612
104 627
104 628
104 630
104 651
104 652
104 653
104 654
104 660
104 661
104 662
104 677
104 698
104 727
104 728
104 729
104 730
104 731
104 784
104 785
104 786
104 789
104 790
104 795
104 802
104 803
104 825
104 832
104 1108
104 1121
104 1126
104 1144
104 1145
104 1164
104 1177
104 1178
105 17
105 163
105 164
105 165
105 166
105 167
105 168
105 794
106 22
106 48
106 49
106 50
106 51
106 52
106 53
106 54
106 56
106 94
106 95
106 96
106 98
106 99
106 100
106 101
106 102
106 104
106 107
106 109
106 110
106 111
106 113
106 116
106 136
106 189
106 225
106 271
106 281
106 384
106 397
106 498
106 521
106 522
106 523
106 543
106 545
106 593
106 611
106 612
106 627
106 628
106 630
106 651
106 652
106 653
106 654
106 660
106 661
106 662
106 677
106 698
106 727
106 728
106 729
106 730
106 731
106 784
106 785
106 786
106 789
106 790
106 795
106 802
106 803
106 825
106 832
106 1108
106 1121
106 1126
106 1144
106 1145
106 1164
106 1177
106 1178
107 22
107 48
107 49
107 50
107 51
107 52
107 53
107 54
107 56
107 94
107 95
107 96
107 98
107 99
107 100
107 101
107 102
107 104
107 106
107 109
107 110
107 111
107 113
107 116
107 136
107 189
107 225
107 271
107 281
107 384
107 397
107 498
107 521
107 522
107 523
107 543
107 544
107 545
107 593
107 605
107 627
107 628
107 630
107 651
107 652
107 653
107 654
107 660
107 661
107 662
107 677
107 698
107 727
107 728
107 729
107 730
107 731
107 735
107 784
107 785
107 786
107 790
107 795
107 796
107 802
107 803
107 825
107 832
107 1108
107 1121
107 1126
107 1144
107 1145
107 1164
107 1177
107 1178
108 17
108 93
108 97
108 120
108 163
108 164
108 165
108 166
108 167
108 168
108 588
108 609
108 610
108 787
108 797
109 48
109 49
109 50
109 51
109 52
109 53
109 54
109 56
109 94
109 95
109 96
109 98
109 99
109 100
109 101
109 102
109 104
109 106
109 107
109 110
109 111
109 113
109 116
109 136
109 162
109 189
109 225
109 271
109 281
109 314
109 384
109 397
109 423
109 521
109 522
109 523
109 543
109 544
109 545
109 593
109 605
109 611
109 612
109 627
109 628
109 630
109 651
109 652
109 653
109 654
109 660
109 661
109 662
109 677
109 727
109 728
109 729
109 730
109 731
109 735
109 784
109 785
109 786
109 789
109 790
109 795
109 796
109 798
109 799
109 800
109 802
109 803
109 825
109 832
109 1108
109 1121
109 1126
109 1144
109 1145
109 1164
109 1177
109 1178
110 48
110 49
110 50
110 51
110 52
110 53
110 54
110 94
110 95
110 96
110 98
110 99
110 100
110 101
110 102
110 104
110 106
110 107
110 109
110 111
110 113
110 116
110 136
110 189
110 225
110 271
110 281
110 384
110 397
110 423
110 498
110 521
110 522
110 523
110 543
110 545
110 627
110 628
110 630
110 651
110 652
110 653
110 654
110 657
110 660
110 661
110 662
110 677
110 727
110 728
110 729
110 730
110 731
110 738
110 784
110 785
110 786
110 789
110 790
110 801
110 802
110 803
110 825
110 832
110 1108
110 1121
110 1126
110 1144
110 1145
110 1164
110 1177
110 1178
111 48
111 49
111 50
111 51
111 52
111 53
111 54
111 94
111 95
111 96
111 98
111 99
111 100
111 101
111 102
111 104
111 106
111 107
111 109
111 110
111 113
111 116
111 136
111 189
111 225
111 251
111 271
111 281
111 314
111 384
111 397
111 498
111 521
111 522
111 523
111 543
111 545
111 627
111 628
111 630
111 651
111 652
111 653
111 654
111 657
111 660
111 661
111 662
111 677
111 727
111 728
111 729
111 730
111 731
111 784
111 785
111 786
111 789
111 790
111 795
111 801
111 803
111 804
111 825
111 832
111 1108
111 1121
111 1126
111 1144
111 1145
111 1164
111 1177
111 1178
112 33
112 120
112 159
112 164
112 167
112 168
112 180
112 227
112 230
112 253
112 315
112 319
112 320
112 325
112 336
112 341
112 361
112 386
112 391
112 414
112 432
112 434
112 439
112 461
112 465
112 470
112 483
112 486
112 489
112 505
112 512
112 513
112 531
112 532
112 567
112 571
112 629
112 703
112 704
112 765
112 771
112 794
112 805
112 806
112 807
112 808
112 809
112 810
112 811
112 812
112 813
112 814
112 815
112 816
112 817
112 818
112 819
112 820
112 863
112 888
112 907
112 913
113 22
113 48
113 49
113 50
113 51
113 52
113 53
113 54
113 56
113 94
113 95
113 96
113 98
113 99
113 100
113 101
113 102
113 104
113 106
113 107
113 109
113 110
113 111
113 113
113 116
113 136
113 189
113 225
113 270
113 271
113 281
113 314
113 384
113 397
113 423
113 498
113 521
113 522
113 523
113 543
113 544
113 545
113 593
113 611
113 612
113 627
113 628
113 630
113 631
113 651
113 652
113 653
113 654
113 660
113 661
113 662
113 677
113 698
113 727
113 728
113 729
113 730
113 731
113 784
113 785
113 786
113 789
113 790
113 795
113 796
113 799
113 802
113 803
113 821
113 825
113 832
113 1108
113 1121
113 1126
113 1144
113 1145
113 1164
113 1177
113 1178
114 30
114 46
114 114
114 123
114 159
114 164
114 334
114 387
114 503
114 506
114 540
114 541
114 542
114 569
114 570
114 579
114 581
114 684
114 691
114 708
114 721
114 722
114 732
114 737
114 822
114 823
114 980
115 58
115 60
115 61
115 62
115 63
115 64
115 65
115 66
115 67
115 68
115 69
115 70
115 71
115 74
115 76
115 77
115 78
115 117
115 118
115 119
115 121
115 122
115 124
115 125
115 126
115 127
115 128
115 129
115 130
115 131
115 133
115 134
115 135
115 137
115 138
115 139
115 140
115 141
115 142
115 143
115 144
115 145
115 146
115 147
115 148
115 149
115 150
115 151
115 152
115 153
115 154
115 155
115 156
115 157
115 158
115 161
115 162
115 263
115 350
115 409
115 410
115 533
115 535
115 562
115 600
115 601
115 602
115 603
115 606
115 634
115 640
115 641
115 642
115 648
115 665
115 669
115 670
115 672
115 678
115 679
115 680
115 685
115 694
115 699
115 700
115 706
115 709
115 712
115 713
115 714
115 715
115 716
115 738
115 739
115 742
115 746
115 754
115 755
115 824
115 826
116 48
116 49
116 50
116 51
116 52
116 53
116 54
116 56
116 94
116 95
116 96
116 98
116 99
116 100
116 101
116 102
116 104
116 106
116 107
116 109
116 110
116 111
116 113
116 136
116 189
116 225
116 271
116 281
116 314
116 384
116 397
116 498
116 521
116 522
116 523
116 543
116 545
116 593
116 611
116 612
116 627
116 628
116 630
116 651
116 652
116 653
116 654
116 657
116 660
116 661
116 662
116 677
116 727
116 728
116 729
116 730
116 731
116 784
116 785
116 786
116 789
116 795
116 801
116 802
116 803
116 825
116 832
116 1108
116 1121
116 1126
116 1144
116 1145
116 1164
116 1177
116 1178
117 58
117 59
117 61
117 62
117 63
117 64
117 65
117 66
117 67
117 68
117 69
117 70
117 71
117 74
117 76
117 77
117 78
117 92
117 115
117 118
117 119
117 121
117 122
117 124
117 125
117 126
117 127
117 128
117 129
117 130
117 131
117 133
117 134
117 135
117 137
117 138
117 139
117 140
117 141
117 142
117 143
117 144
117 145
117 146
117 147
117 148
117 149
117 150
117 151
117 152
117 153
117 154
117 155
117 156
117 157
117 158
117 161
117 162
117 263
117 350
117 409
117 410
117 533
117 535
117 562
117 600
117 601
117 602
117 603
117 606
117 634
117 640
117 641
117 642
117 648
117 665
117 669
117 670
117 672
117 678
117 679
117 680
117 685
117 694
117 699
117 700
117 701
117 706
117 709
117 713
117 714
117 715
117 716
117 738
117 739
117 742
117 746
117 754
117 755
117 824
117 826
118 58
118 59
118 60
118 61
118 63
118 64
118 65
118 66
118 67
118 68
118 69
118 70
118 71
118 74
118 76
118 77
118 78
118 92
118 115
118 117
118 119
118 121
118 122
118 124
118 125
118 126
118 127
118 128
118 129
118 130
118 131
118 133
118 134
118 135
118 137
118 138
118 139
118 140
118 141
118 142
118 143
118 144
118 145
118 146
118 147
118 148
118 149
118 150
118 151
118 152
118 153
118 154
118 155
118 156
118 157
118 158
118 161
118 162
118 175
118 190
118 263
118 350
118 409
118 410
118 431
118 533
118 535
118 562
118 600
118 601
118 602
118 603
118 606
118 634
118 640
118 641
118 642
118 647
118 648
118 665
118 669
118 670
118 672
118 678
118 679
118 680
118 685
118 694
118 699
118 700
118 701
118 706
118 709
118 713
118 714
118 715
118 716
118 738
118 739
118 742
118 746
118 754
118 755
118 824
118 826
119 58
119 59
119 60
119 61
119 62
119 63
119 64
119 65
119 66
119 67
119 68
119 69
119 70
119 71
119 74
119 76
119 77
119 78
119 92
119 115
119 117
119 118
119 121
119 122
119 124
119 125
119 126
119 127
119 128
119 129
119 130
119 131
119 133
119 134
119 135
119 137
119 138
119 139
119 140
119 141
119 142
119 143
119 144
119 145
119 146
119 147
119 148
119 149
119 150
119 151
119 152
119 153
119 154
119 155
119 156
119 157
119 158
119 161
119 162
119 263
119 350
119 409
119 410
119 533
119 535
119 562
119 600
119 601
119 602
119 603
119 606
119 620
119 634
119 640
119 641
119 642
119 645
119 648
119 665
119 669
119 670
119 672
119 678
119 679
119 680
119 685
119 694
119 699
119 700
119 701
119 706
119 709
119 713
119 714
119 715
119 716
119 738
119 739
119 742
119 746
119 754
119 755
119 824
119 826
120 17
120 84
120 97
120 108
120 112
120 163
120 164
120 165
120 166
120 167
120 168
120 341
120 361
120 588
120 610
120 787
120 794
120 805
120 827
120 828
121 34
121 41
121 58
121 59
121 60
121 61
121 62
121 63
121 64
121 65
121 66
121 67
121 68
121 69
121 70
121 71
121 74
121 76
121 77
121 78
121 92
121 115
121 117
121 118
121 119
121 122
121 124
121 125
121 126
121 127
121 128
121 129
121 130
121 131
121 132
121 133
121 134
121 135
121 137
121 138
121 139
121 140
121 141
121 142
121 143
121 144
121 145
121 146
121 147
121 148
121 149
121 150
121 151
121 152
121 153
121 154
121 155
121 156
121 157
121 158
121 161
121 162
121 263
121 350
121 409
121 410
121 431
121 533
121 535
121 562
121 600
121 601
121 602
121 603
121 606
121 634
121 640
121 641
121 642
121 648
121 649
121 665
121 669
121 670
121 672
121 678
121 679
121 680
121 685
121 694
121 699
121 700
121 701
121 706
121 709
121 713
121 714
121 715
121 716
121 738
121 739
121 742
121 746
121 754
121 755
121 824
122 58
122 59
122 60
122 61
122 62
122 63
122 64
122 65
122 66
122 67
122 68
122 69
122 70
122 71
122 74
122 76
122 77
122 78
122 92
122 115
122 117
122 118
122 119
122 121
122 124
122 125
122 126
122 127
122 128
122 129
122 130
122 131
122 133
122 134
122 135
122 137
122 138
122 139
122 140
122 141
122 142
122 143
122 144
122 145
122 146
122 147
122 148
122 149
122 150
122 151
122 152
122 153
122 154
122 155
122 156
122 157
122 158
122 161
122 162
122 263
122 350
122 409
122 410
122 533
122 535
122 562
122 600
122 601
122 602
122 603
122 606
122 634
122 640
122 641
122 642
122 645
122 647
122 648
122 665
122 669
122 670
122 672
122 678
122 679
122 680
122 685
122 686
122 688
122 694
122 699
122 700
122 706
122 709
122 713
122 714
122 715
122 716
122 738
122 739
122 742
122 746
122 754
122 755
122 824
122 826
123 55
123 72
123 73
123 81
123 85
123 86
123 87
123 88
123 89
123 90
123 114
123 123
123 159
123 163
123 164
123 289
123 464
123 497
123 503
123 540
123 541
123 542
123 569
123 570
123 580
123 596
123 597
123 656
123 659
123 676
123 691
123 702
123 708
123 732
123 737
123 762
123 1159
124 31
124 34
124 58
124 59
124 60
124 61
124 62
124 64
124 65
124 66
124 67
124 68
124 69
124 70
124 71
124 74
124 76
124 77
124 78
124 92
124 115
124 117
124 118
124 119
124 121
124 122
124 125
124 126
124 127
124 128
124 129
124 130
124 131
124 133
124 134
124 135
124 137
124 138
124 139
124 140
124 141
124 142
124 143
124 144
124 145
124 146
124 147
124 148
124 149
124 150
124 151
124 152
124 153
124 154
124 155
124 156
124 157
124 158
124 161
124 162
124 175
124 190
124 263
124 350
124 409
124 410
124 431
124 533
124 535
124 561
124 562
124 600
124 601
124 602
124 603
124 606
124 620
124 623
124 634
124 640
124 641
124 642
124 647
124 648
124 665
124 669
124 670
124 672
124 678
124 679
124 680
124 685
124 694
124 699
124 700
124 706
124 709
124 713
124 714
124 715
124 716
124 738
124 739
124 742
124 746
124 754
124 755
124 824
124 826
125 31
125 34
125 58
125 59
125 60
125 61
125 62
125 63
125 64
125 65
125 66
125 67
125 68
125 69
125 70
125 71
125 74
125 76
125 77
125 78
125 92
125 115
125 117
125 118
125 119
125 121
125 122
125 124
125 126
125 127
125 128
125 129
125 130
125 131
125 133
125 134
125 135
125 137
125 138
125 139
125 140
125 141
125 142
125 143
125 144
125 145
125 146
125 147
125 148
125 149
125 150
125 151
125 152
125 153
125 154
125 155
125 156
125 157
125 158
125 161
125 162
125 263
125 350
125 409
125 410
125 431
125 533
125 535
125 562
125 600
125 601
125 602
125 603
125 606
125 634
125 640
125 641
125 642
125 645
125 647
125 648
125 649
125 665
125 669
125 670
125 672
125 678
125 679
125 680
125 685
125 694
125 699
125 700
125 701
125 706
125 709
125 713
125 714
125 715
125 716
125 717
125 738
125 739
125 742
125 745
125 746
125 754
125 755
125 824
125 826
126 29
126 31
126 58
126 59
126 60
126 61
126 62
126 63
126 64
126 65
126 66
126 67
126 68
126 69
126 70
126 71
126 74
126 76
126 77
126 78
126 115
126 117
126 118
126 119
126 121
126 122
126 124
126 125
126 126
126 127
126 128
126 129
126 130
126 131
126 132
126 133
126 134
126 135
126 137
126 138
126 139
126 140
126 141
126 142
126 143
126 144
126 145
126 146
126 147
126 148
126 149
126 150
126 151
126 152
126 153
126 154
126 155
126 156
126 157
126 158
126 161
126 162
126 175
126 263
126 350
126 409
126 410
126 524
126 533
126 535
126 562
126 600
126 601
126 602
126 603
126 606
126 634
126 640
126 641
126 642
126 644
126 648
126 650
126 665
126 666
126 669
126 670
126 672
126 678
126 679
126 680
126 685
126 694
126 699
126 700
126 706
126 709
126 712
126 713
126 714
126 715
126 716
126 738
126 739
126 742
126 746
126 754
126 755
126 824
126 826
126 829
127 58
127 59
127 60
127 62
127 63
127 64
127 65
127 66
127 67
127 68
127 69
127 70
127 71
127 74
127 76
127 77
127 78
127 80
127 92
127 115
127 117
127 118
127 119
127 121
127 122
127 124
127 125
127 126
127 128
127 129
127 130
127 131
127 133
127 134
127 135
127 137
127 138
127 139
127 140
127 141
127 142
127 143
127 144
127 145
127 146
127 147
127 148
127 149
127 150
127 151
127 152
127 153
127 154
127 155
127 156
127 157
127 158
127 161
127 162
127 263
127 350
127 409
127 410
127 431
127 453
127 520
127 524
127 533
127 535
127 562
127 600
127 601
127 602
127 603
127 606
127 634
127 640
127 641
127 642
127 647
127 648
127 665
127 669
127 670
127 672
127 678
127 679
127 680
127 685
127 694
127 699
127 700
127 701
127 706
127 709
127 713
127 714
127 715
127 716
127 738
127 739
127 742
127 746
127 754
127 755
127 824
127 826
128 58
128 59
128 60
128 61
128 62
128 63
128 64
128 65
128 66
128 67
128 68
128 69
128 70
128 71
128 74
128 76
128 77
128 78
128 80
128 92
128 115
128 117
128 118
128 119
128 121
128 122
128 124
128 125
128 126
128 127
128 129
128 130
128 131
128 133
128 134
128 135
128 137
128 138
128 139
128 140
128 141
128 142
128 143
128 144
128 145
128 146
128 147
128 148
128 149
128 150
128 151
128 152
128 153
128 154
128 155
128 156
128 157
128 158
128 161
128 162
128 263
128 350
128 409
128 410
128 520
128 533
128 535
128 562
128 600
128 601
128 602
128 603
128 606
128 620
128 634
128 640
128 641
128 642
128 645
128 648
128 650
128 665
128 669
128 670
128 672
128 678
128 679
128 680
128 685
128 694
128 699
128 700
128 701
128 706
128 709
128 713
128 714
128 715
128 716
128 738
128 739
128 742
128 746
128 754
128 755
128 824
128 826
129 31
129 38
129 58
129 59
129 60
129 61
129 62
129 63
129 64
129 65
129 66
129 68
129 69
129 70
129 71
129 74
129 76
129 77
129 78
129 80
129 92
129 115
129 117
129 118
129 119
129 121
129 122
129 124
129 125
129 126
129 127
129 128
129 130
129 131
129 133
129 134
129 135
129 137
129 138
129 139
129 140
129 141
129 142
129 143
129 144
129 145
129 146
129 147
129 148
129 149
129 150
129 151
129 152
129 153
129 154
129 155
129 156
129 157
129 158
129 161
129 162
129 190
129 263
129 350
129 409
129 410
129 431
129 452
129 453
129 533
129 535
129 562
129 563
129 600
129 601
129 602
129 603
129 606
129 640
129 641
129 642
129 644
129 647
129 648
129 649
129 650
129 665
129 669
129 670
129 672
129 678
129 679
129 680
129 685
129 694
129 699
129 700
129 701
129 706
129 709
129 713
129 714
129 715
129 716
129 717
129 738
129 739
129 740
129 742
129 745
129 746
129 754
129 755
129 824
129 826
130 23
130 31
130 58
130 59
130 60
130 61
130 62
130 63
130 64
130 65
130 66
130 67
130 68
130 69
130 70
130 71
130 74
130 76
130 77
130 78
130 80
130 92
130 115
130 117
130 118
130 119
130 121
130 122
130 124
130 125
130 126
130 127
130 128
130 129
130 130
130 131
130 133
130 134
130 135
130 137
130 138
130 139
130 140
130 141
130 142
130 143
130 144
130 145
130 146
130 147
130 148
130 149
130 150
130 151
130 152
130 153
130 154
130 155
130 156
130 157
130 158
130 161
130 162
130 175
130 190
130 263
130 271
130 350
130 409
130 410
130 431
130 533
130 535
130 562
130 600
130 601
130 602
130 603
130 606
130 634
130 640
130 641
130 642
130 647
130 648
130 649
130 665
130 669
130 670
130 672
130 678
130 679
130 680
130 681
130 685
130 694
130 699
130 700
130 701
130 706
130 709
130 713
130 714
130 715
130 716
130 717
130 738
130 739
130 742
130 745
130 746
130 754
130 755
130 824
130 826
131 31
131 38
131 58
131 59
131 60
131 61
131 62
131 63
131 64
131 65
131 66
131 67
131 68
131 70
131 71
131 74
131 76
131 77
131 78
131 79
131 82
131 92
131 115
131 117
131 118
131 119
131 121
131 122
131 124
131 125
131 126
131 127
131 128
131 129
131 130
131 133
131 134
131 135
131 137
131 138
131 139
131 140
131 141
131 142
131 143
131 144
131 145
131 146
131 147
131 148
131 149
131 150
131 151
131 152
131 153
131 154
131 155
131 156
131 157
131 158
131 161
131 162
131 175
131 263
131 350
131 351
131 365
131 409
131 410
131 431
131 524
131 533
131 535
131 562
131 577
131 600
131 601
131 602
131 603
131 606
131 622
131 634
131 640
131 641
131 642
131 647
131 648
131 649
131 665
131 669
131 670
131 672
131 678
131 679
131 680
131 685
131 694
131 699
131 700
131 701
131 706
131 709
131 713
131 714
131 715
131 716
131 717
131 738
131 739
131 742
131 745
131 746
131 754
131 755
131 824
131 826
132 28
132 36
132 38
132 39
132 64
132 65
132 68
132 70
132 71
132 74
132 75
132 76
132 77
132 78
132 79
132 121
132 126
132 133
132 137
132 138
132 140
132 141
132 142
132 143
132 144
132 145
132 146
132 147
132 148
132 149
132 150
132 151
132 152
132 153
132 154
132 155
132 156
132 157
132 162
132 175
132 225
132 317
132 365
132 367
132 384
132 409
132 410
132 526
132 533
132 534
132 535
132 602
132 603
132 613
132 640
132 641
132 645
132 667
132 669
132 670
132 678
132 687
132 693
132 694
132 701
132 706
132 709
132 710
132 712
132 713
132 714
132 715
132 716
132 717
132 745
132 746
132 826
133 34
133 36
133 39
133 41
133 58
133 59
133 60
133 61
133 62
133 63
133 64
133 65
133 66
133 67
133 68
133 69
133 70
133 71
133 74
133 76
133 77
133 78
133 92
133 115
133 117
133 118
133 119
133 121
133 122
133 124
133 125
133 126
133 127
133 128
133 129
133 130
133 131
133 132
133 134
133 135
133 137
133 138
133 139
133 140
133 141
133 142
133 143
133 144
133 145
133 146
133 147
133 148
133 149
133 150
133 151
133 152
133 153
133 154
133 155
133 156
133 157
133 158
133 161
133 162
133 175
133 190
133 263
133 350
133 365
133 409
133 410
133 431
133 533
133 535
133 562
133 600
133 601
133 602
133 603
133 606
133 634
133 640
133 641
133 642
133 647
133 648
133 649
133 665
133 669
133 670
133 672
133 678
133 679
133 680
133 681
133 685
133 686
133 688
133 694
133 699
133 700
133 701
133 706
133 709
133 712
133 714
133 715
133 716
133 717
133 738
133 739
133 742
133 745
133 746
133 754
133 755
133 824
133 826
134 58
134 59
134 60
134 61
134 62
134 63
134 64
134 65
134 66
134 67
134 68
134 69
134 70
134 71
134 74
134 76
134 77
134 78
134 115
134 117
134 118
134 119
134 121
134 122
134 124
134 125
134 126
134 127
134 128
134 129
134 130
134 131
134 133
134 135
134 137
134 138
134 139
134 140
134 141
134 142
134 143
134 144
134 145
134 146
134 147
134 148
134 149
134 150
134 151
134 152
134 153
134 154
134 155
134 156
134 157
134 158
134 161
134 162
134 263
134 350
134 352
134 409
134 410
134 533
134 535
134 562
134 600
134 601
134 602
134 603
134 606
134 634
134 640
134 641
134 642
134 646
134 648
134 665
134 667
134 669
134 670
134 672
134 678
134 679
134 680
134 685
134 693
134 694
134 699
134 700
134 706
134 709
134 713
134 714
134 715
134 716
134 738
134 739
134 742
134 746
134 754
134 755
134 824
134 826
135 58
135 59
135 60
135 61
135 62
135 63
135 64
135 65
135 66
135 67
135 68
135 69
135 70
135 71
135 74
135 76
135 77
135 78
135 92
135 115
135 117
135 118
135 119
135 121
135 122
135 124
135 125
135 126
135 127
135 128
135 129
135 130
135 131
135 133
135 134
135 137
135 138
135 139
135 140
135 141
135 142
135 143
135 144
135 145
135 146
135 147
135 148
135 149
135 150
135 151
135 152
135 153
135 154
135 155
135 156
135 157
135 158
135 161
135 162
135 263
135 350
135 351
135 352
135 409
135 410
135 525
135 526
135 527
135 528
135 533
135 535
135 554
135 562
135 599
135 600
135 601
135 602
135 603
135 606
135 634
135 640
135 641
135 642
135 645
135 648
135 665
135 669
135 670
135 672
135 678
135 679
135 680
135 685
135 686
135 688
135 694
135 699
135 700
135 701
135 706
135 709
135 713
135 714
135 715
135 716
135 738
135 739
135 742
135 746
135 747
135 754
135 755
135 791
135 824
135 826
135 830
135 831
136 16
136 22
136 48
136 49
136 50
136 51
136 52
136 53
136 54
136 56
136 94
136 95
136 96
136 98
136 99
136 100
136 101
136 102
136 104
136 106
136 107
136 109
136 110
136 111
136 113
136 116
136 189
136 225
136 270
136 271
136 281
136 314
136 384
136 392
136 397
136 404
136 423
136 498
136 521
136 522
136 523
136 543
136 544
136 545
136 593
136 605
136 611
136 612
136 627
136 628
136 630
136 631
136 651
136 652
136 653
136 654
136 657
136 660
136 661
136 662
136 677
136 698
136 727
136 728
136 729
136 730
136 731
136 735
136 784
136 785
136 786
136 788
136 789
136 790
136 795
136 796
136 799
136 801
136 802
136 803
136 832
136 833
136 1108
136 1121
136 1126
136 1144
136 1145
136 1164
136 1177
136 1178
137 34
137 38
137 39
137 41
137 58
137 59
137 60
137 61
137 62
137 63
137 64
137 65
137 66
137 67
137 68
137 69
137 70
137 71
137 74
137 75
137 76
137 77
137 78
137 79
137 92
137 115
137 117
137 118
137 119
137 121
137 122
137 124
137 125
137 126
137 127
137 128
137 129
137 130
137 131
137 132
137 133
137 134
137 135
137 138
137 139
137 140
137 141
137 142
137 143
137 144
137 145
137 146
137 147
137 148
137 149
137 150
137 151
137 152
137 153
137 154
137 155
137 156
137 157
137 158
137 161
137 162
137 175
137 190
137 263
137 350
137 365
137 409
137 410
137 431
137 533
137 535
137 562
137 600
137 601
137 602
137 603
137 606
137 634
137 640
137 641
137 642
137 646
137 647
137 648
137 665
137 669
137 670
137 672
137 678
137 679
137 680
137 685
137 686
137 687
137 688
137 694
137 699
137 700
137 701
137 706
137 709
137 710
137 713
137 714
137 715
137 716
137 738
137 739
137 742
137 746
137 749
137 754
137 755
137 824
137 826
138 36
138 38
138 39
138 41
138 58
138 59
138 60
138 61
138 62
138 63
138 64
138 65
138 66
138 67
138 68
138 69
138 70
138 71
138 74
138 75
138 76
138 77
138 78
138 79
138 115
138 117
138 118
138 119
138 121
138 122
138 124
138 125
138 126
138 127
138 128
138 129
138 130
138 131
138 132
138 133
138 134
138 135
138 137
138 139
138 140
138 141
138 142
138 143
138 144
138 145
138 146
138 147
138 148
138 149
138 150
138 151
138 152
138 153
138 154
138 155
138 156
138 157
138 158
138 161
138 162
138 175
138 263
138 317
138 350
138 365
138 367
138 409
138 410
138 526
138 533
138 534
138 535
138 562
138 600
138 601
138 602
138 603
138 606
138 634
138 640
138 641
138 642
138 648
138 665
138 669
138 670
138 672
138 678
138 679
138 680
138 685
138 687
138 694
138 699
138 700
138 701
138 706
138 709
138 710
138 712
138 713
138 714
138 715
138 716
138 717
138 738
138 739
138 742
138 745
138 746
138 754
138 755
138 824
138 826
139 31
139 38
139 58
139 59
139 60
139 61
139 62
139 63
139 64
139 65
139 66
139 67
139 68
139 69
139 70
139 71
139 74
139 75
139 76
139 77
139 78
139 80
139 92
139 115
139 117
139 118
139 119
139 121
139 122
139 124
139 125
139 126
139 127
139 128
139 129
139 130
139 131
139 133
139 134
139 135
139 137
139 138
139 140
139 141
139 142
139 143
139 144
139 145
139 146
139 147
139 148
139 149
139 150
139 151
139 152
139 153
139 154
139 155
139 156
139 157
139 158
139 161
139 162
139 263
139 350
139 409
139 410
139 520
139 528
139 533
139 535
139 561
139 562
139 600
139 601
139 602
139 603
139 604
139 606
139 634
139 640
139 641
139 642
139 644
139 648
139 650
139 665
139 669
139 670
139 672
139 678
139 679
139 680
139 685
139 686
139 687
139 688
139 694
139 699
139 700
139 701
139 706
139 709
139 713
139 714
139 715
139 716
139 738
139 739
139 742
139 746
139 754
139 755
139 824
139 826
139 834
140 39
140 41
140 58
140 59
140 60
140 61
140 62
140 63
140 64
140 65
140 66
140 67
140 68
140 69
140 70
140 71
140 74
140 76
140 77
140 78
140 92
140 115
140 117
140 118
140 119
140 121
140 122
140 124
140 125
140 126
140 127
140 128
140 129
140 130
140 131
140 132
140 133
140 134
140 135
140 137
140 138
140 139
140 141
140 142
140 143
140 144
140 145
140 146
140 147
140 148
140 149
140 150
140 151
140 152
140 153
140 154
140 155
140 156
140 157
140 158
140 161
140 162
140 175
140 263
140 350
140 409
140 410
140 533
140 535
140 562
140 600
140 601
140 602
140 603
140 606
140 634
140 640
140 641
140 642
140 648
140 665
140 667
140 669
140 670
140 672
140 678
140 679
140 680
140 685
140 686
140 688
140 693
140 694
140 699
140 700
140 701
140 706
140 709
140 713
140 714
140 715
140 716
140 738
140 739
140 742
140 746
140 754
140 755
140 824
140 826
141 36
141 39
141 41
141 58
141 59
141 60
141 61
141 62
141 63
141 65
141 66
141 67
141 68
141 69
141 70
141 71
141 74
141 76
141 77
141 78
141 92
141 115
141 117
141 118
141 119
141 121
141 122
141 124
141 125
141 126
141 127
141 128
141 129
141 130
141 131
141 132
141 133
141 134
141 135
141 137
141 138
141 139
141 140
141 142
141 143
141 144
141 145
141 146
141 147
141 148
141 149
141 150
141 151
141 152
141 153
141 154
141 155
141 156
141 157
141 158
141 161
141 162
141 190
141 263
141 350
141 409
141 410
141 431
141 533
141 535
141 562
141 600
141 601
141 602
141 603
141 606
141 634
141 640
141 641
141 642
141 647
141 648
141 665
141 667
141 669
141 670
141 672
141 678
141 679
141 680
141 685
141 686
141 688
141 693
141 694
141 699
141 700
141 701
141 706
141 709
141 712
141 713
141 714
141 715
141 716
141 738
141 739
141 742
141 746
141 754
141 755
141 824
141 826
142 19
142 38
142 41
142 58
142 59
142 60
142 61
142 62
142 63
142 64
142 65
142 66
142 67
142 68
142 69
142 70
142 71
142 74
142 75
142 76
142 77
142 78
142 79
142 92
142 115
142 117
142 118
142 119
142 121
142 122
142 124
142 125
142 126
142 127
142 128
142 129
142 130
142 131
142 132
142 133
142 134
142 135
142 137
142 138
142 139
142 140
142 141
142 143
142 144
142 145
142 146
142 147
142 148
142 149
142 150
142 151
142 152
142 153
142 154
142 155
142 156
142 157
142 158
142 161
142 162
142 175
142 263
142 350
142 365
142 409
142 410
142 533
142 535
142 562
142 563
142 600
142 601
142 602
142 603
142 606
142 634
142 640
142 641
142 642
142 647
142 648
142 665
142 668
142 669
142 670
142 672
142 678
142 679
142 680
142 685
142 694
142 699
142 700
142 701
142 706
142 709
142 710
142 713
142 714
142 715
142 716
142 738
142 739
142 742
142 746
142 750
142 754
142 755
142 824
142 826
143 28
143 31
143 41
143 58
143 59
143 60
143 61
143 62
143 63
143 64
143 65
143 66
143 67
143 68
143 69
143 70
143 71
143 74
143 76
143 77
143 78
143 82
143 92
143 103
143 115
143 117
143 118
143 119
143 121
143 122
143 124
143 125
143 126
143 127
143 128
143 129
143 130
143 131
143 132
143 133
143 134
143 135
143 137
143 138
143 139
143 140
143 141
143 142
143 144
143 145
143 146
143 147
143 148
143 149
143 150
143 151
143 152
143 153
143 154
143 155
143 156
143 157
143 158
143 161
143 162
143 263
143 350
143 409
143 410
143 431
143 533
143 535
143 562
143 600
143 601
143 602
143 603
143 606
143 613
143 634
143 640
143 641
143 642
143 647
143 648
143 649
143 665
143 669
143 670
143 672
143 678
143 679
143 680
143 685
143 694
143 699
143 700
143 706
143 709
143 713
143 714
143 715
143 716
143 738
143 739
143 742
143 746
143 754
143 755
143 824
143 826
144 28
144 31
144 36
144 39
144 41
144 58
144 59
144 60
144 61
144 62
144 63
144 64
144 65
144 66
144 67
144 68
144 69
144 70
144 71
144 74
144 76
144 77
144 78
144 115
144 117
144 118
144 119
144 121
144 122
144 124
144 125
144 126
144 127
144 128
144 129
144 130
144 131
144 132
144 133
144 134
144 135
144 137
144 138
144 139
144 140
144 141
144 142
144 143
144 145
144 146
144 147
144 148
144 149
144 150
144 151
144 152
144 153
144 154
144 155
144 156
144 157
144 158
144 161
144 162
144 175
144 263
144 350
144 409
144 410
144 533
144 535
144 562
144 600
144 601
144 602
144 603
144 606
144 613
144 634
144 640
144 641
144 642
144 644
144 648
144 649
144 650
144 665
144 669
144 670
144 672
144 678
144 679
144 680
144 685
144 686
144 688
144 699
144 700
144 706
144 709
144 712
144 713
144 714
144 715
144 716
144 738
144 739
144 742
144 746
144 754
144 755
144 824
144 826
144 834
144 835
145 29
145 31
145 36
145 58
145 59
145 60
145 61
145 62
145 63
145 64
145 65
145 66
145 67
145 68
145 69
145 70
145 71
145 74
145 76
145 77
145 78
145 79
145 80
145 82
145 92
145 103
145 115
145 117
145 118
145 119
145 121
145 122
145 124
145 125
145 126
145 127
145 128
145 129
145 130
145 131
145 132
145 133
145 134
145 135
145 137
145 138
145 139
145 140
145 141
145 142
145 143
145 144
145 146
145 147
145 148
145 149
145 150
145 151
145 152
145 153
145 154
145 155
145 156
145 157
145 158
145 161
145 162
145 175
145 263
145 350
145 352
145 409
145 410
145 524
145 533
145 535
145 554
145 561
145 562
145 565
145 577
145 600
145 601
145 602
145 603
145 604
145 606
145 622
145 623
145 634
145 641
145 642
145 643
145 644
145 646
145 647
145 648
145 649
145 650
145 665
145 666
145 669
145 670
145 672
145 678
145 679
145 680
145 685
145 686
145 688
145 694
145 699
145 700
145 701
145 706
145 709
145 712
145 713
145 714
145 715
145 716
145 738
145 739
145 742
145 743
145 746
145 748
145 753
145 754
145 755
145 756
145 793
145 824
145 826
145 829
145 836
145 837
145 838
146 28
146 36
146 39
146 41
146 58
146 59
146 60
146 61
146 62
146 63
146 64
146 65
146 66
146 67
146 68
146 69
146 70
146 71
146 74
146 76
146 77
146 78
146 92
146 115
146 117
146 118
146 119
146 121
146 122
146 124
146 125
146 126
146 127
146 128
146 129
146 130
146 131
146 132
146 133
146 134
146 135
146 137
146 138
146 139
146 140
146 141
146 142
146 143
146 144
146 145
146 147
146 148
146 149
146 150
146 151
146 152
146 153
146 154
146 155
146 156
146 157
146 158
146 161
146 162
146 175
146 263
146 317
146 350
146 365
146 409
146 410
146 452
146 516
146 524
146 533
146 535
146 562
146 600
146 601
146 602
146 603
146 604
146 606
146 613
146 634
146 640
146 641
146 642
146 647
146 648
146 665
146 669
146 670
146 672
146 678
146 679
146 680
146 681
146 685
146 694
146 699
146 700
146 701
146 706
146 709
146 712
146 713
146 714
146 715
146 716
146 717
146 738
146 739
146 742
146 745
146 746
146 747
146 754
146 755
146 791
146 824
146 826
147 28
147 39
147 41
147 58
147 59
147 60
147 61
147 62
147 63
147 64
147 65
147 66
147 67
147 68
147 69
147 70
147 71
147 74
147 76
147 77
147 78
147 92
147 115
147 117
147 118
147 119
147 121
147 122
147 124
147 125
147 126
147 127
147 128
147 129
147 130
147 131
147 132
147 133
147 134
147 135
147 137
147 138
147 139
147 140
147 141
147 142
147 143
147 144
147 145
147 146
147 148
147 149
147 150
147 151
147 152
147 153
147 154
147 155
147 156
147 157
147 158
147 161
147 162
147 190
147 263
147 350
147 351
147 409
147 410
147 431
147 527
147 533
147 535
147 561
147 562
147 600
147 601
147 602
147 603
147 606
147 613
147 634
147 640
147 641
147 642
147 644
147 647
147 648
147 649
147 650
147 665
147 668
147 669
147 670
147 672
147 678
147 679
147 680
147 685
147 694
147 699
147 700
147 706
147 709
147 713
147 714
147 715
147 716
147 738
147 739
147 742
147 746
147 750
147 754
147 755
147 824
147 826
148 31
148 36
148 38
148 41
148 58
148 59
148 60
148 61
148 62
148 63
148 64
148 65
148 66
148 67
148 68
148 69
148 70
148 71
148 74
148 75
148 76
148 77
148 78
148 79
148 82
148 92
148 115
148 117
148 118
148 119
148 121
148 122
148 124
148 125
148 126
148 127
148 128
148 129
148 130
148 131
148 132
148 133
148 134
148 135
148 137
148 138
148 139
148 140
148 141
148 142
148 143
148 144
148 145
148 146
148 147
148 149
148 150
148 151
148 152
148 153
148 154
148 155
148 156
148 157
148 158
148 161
148 162
148 175
148 263
148 317
148 350
148 351
148 352
148 409
148 410
148 431
148 527
148 533
148 534
148 535
148 561
148 562
148 600
148 601
148 602
148 603
148 606
148 634
148 640
148 641
148 642
148 644
148 647
148 648
148 650
148 665
148 667
148 668
148 669
148 670
148 672
148 678
148 679
148 680
148 685
148 686
148 687
148 688
148 693
148 694
148 699
148 700
148 706
148 709
148 712
148 713
148 714
148 715
148 716
148 738
148 739
148 742
148 743
148 746
148 750
148 754
148 755
148 824
148 826
148 838
149 25
149 28
149 31
149 36
149 41
149 58
149 59
149 60
149 61
149 62
149 63
149 64
149 65
149 66
149 67
149 68
149 69
149 70
149 71
149 74
149 76
149 77
149 78
149 79
149 82
149 92
149 103
149 115
149 117
149 118
149 119
149 121
149 122
149 124
149 125
149 126
149 127
149 128
149 129
149 130
149 131
149 132
149 133
149 134
149 135
149 137
149 138
149 139
149 140
149 141
149 142
149 143
149 144
149 145
149 146
149 147
149 148
149 150
149 151
149 152
149 153
149 154
149 155
149 156
149 157
149 158
149 161
149 162
149 175
149 263
149 350
149 409
149 410
149 431
149 524
149 525
149 527
149 533
149 534
149 535
149 561
149 562
149 600
149 601
149 602
149 603
149 606
149 613
149 622
149 634
149 640
149 641
149 642
149 643
149 644
149 645
149 647
149 648
149 650
149 665
149 669
149 672
149 678
149 679
149 680
149 685
149 686
149 688
149 694
149 699
149 700
149 706
149 709
149 712
149 713
149 714
149 715
149 716
149 738
149 739
149 741
149 742
149 743
149 746
149 754
149 755
149 824
149 826
149 838
149 839
150 19
150 23
150 36
150 41
150 58
150 59
150 60
150 61
150 62
150 63
150 64
150 65
150 66
150 67
150 68
150 69
150 70
150 71
150 74
150 76
150 77
150 78
150 79
150 92
150 115
150 117
150 118
150 119
150 121
150 122
150 124
150 125
150 126
150 127
150 128
150 129
150 130
150 131
150 132
150 133
150 134
150 135
150 137
150 138
150 139
150 140
150 141
150 142
150 143
150 144
150 145
150 146
150 147
150 148
150 149
150 151
150 152
150 153
150 154
150 155
150 156
150 157
150 158
150 161
150 162
150 175
150 190
150 263
150 350
150 410
150 431
150 527
150 533
150 534
150 535
150 562
150 563
150 600
150 601
150 602
150 603
150 606
150 634
150 640
150 641
150 642
150 644
150 645
150 646
150 647
150 648
150 650
150 657
150 665
150 667
150 669
150 670
150 672
150 678
150 679
150 680
150 685
150 686
150 688
150 693
150 694
150 699
150 700
150 706
150 709
150 710
150 712
150 713
150 714
150 715
150 716
150 738
150 739
150 742
150 746
150 754
150 755
150 801
150 824
150 826
150 835
150 839
151 23
151 28
151 31
151 34
151 36
151 39
151 41
151 58
151 59
151 60
151 61
151 62
151 63
151 64
151 65
151 66
151 67
151 68
151 69
151 70
151 71
151 74
151 75
151 76
151 77
151 78
151 92
151 115
151 117
151 118
151 119
151 121
151 122
151 124
151 125
151 126
151 127
151 128
151 129
151 130
151 131
151 132
151 133
151 134
151 135
151 137
151 138
151 139
151 140
151 141
151 142
151 143
151 144
151 145
151 146
151 147
151 148
151 149
151 150
151 152
151 153
151 154
151 155
151 156
151 157
151 158
151 161
151 162
151 175
151 190
151 263
151 317
151 350
151 409
151 410
151 431
151 524
151 533
151 534
151 535
151 562
151 565
151 600
151 601
151 602
151 603
151 606
151 613
151 622
151 623
151 634
151 640
151 641
151 642
151 644
151 645
151 647
151 648
151 649
151 650
151 665
151 667
151 669
151 670
151 672
151 679
151 680
151 685
151 686
151 687
151 688
151 693
151 694
151 699
151 700
151 701
151 706
151 709
151 710
151 712
151 713
151 714
151 715
151 716
151 717
151 738
151 739
151 742
151 746
151 748
151 749
151 754
151 755
151 824
151 826
152 28
152 34
152 36
152 39
152 41
152 58
152 59
152 60
152 61
152 62
152 63
152 64
152 66
152 67
152 68
152 69
152 70
152 71
152 74
152 75
152 76
152 77
152 78
152 79
152 92
152 115
152 117
152 118
152 119
152 121
152 122
152 124
152 125
152 126
152 127
152 128
152 129
152 130
152 131
152 132
152 133
152 134
152 135
152 137
152 138
152 139
152 140
152 141
152 142
152 143
152 144
152 145
152 146
152 147
152 148
152 149
152 150
152 151
152 153
152 154
152 155
152 156
152 157
152 158
152 161
152 162
152 175
152 263
152 317
152 350
152 365
152 409
152 410
152 452
152 524
152 533
152 534
152 535
152 562
152 600
152 601
152 602
152 603
152 604
152 606
152 613
152 634
152 640
152 641
152 642
152 645
152 646
152 647
152 648
152 649
152 657
152 665
152 669
152 670
152 672
152 678
152 679
152 680
152 685
152 686
152 687
152 688
152 694
152 699
152 700
152 706
152 709
152 710
152 712
152 713
152 714
152 715
152 716
152 717
152 738
152 739
152 742
152 745
152 746
152 754
152 755
152 801
152 824
152 826
153 28
153 31
153 36
153 38
153 41
153 58
153 59
153 60
153 61
153 62
153 63
153 64
153 65
153 66
153 67
153 69
153 70
153 71
153 74
153 75
153 76
153 77
153 78
153 79
153 80
153 92
153 115
153 117
153 118
153 119
153 121
153 122
153 124
153 125
153 126
153 127
153 128
153 129
153 130
153 131
153 132
153 133
153 134
153 135
153 137
153 138
153 139
153 140
153 141
153 142
153 143
153 144
153 145
153 146
153 147
153 148
153 149
153 150
153 151
153 152
153 154
153 155
153 156
153 157
153 158
153 161
153 162
153 175
153 263
153 350
153 365
153 409
153 410
153 431
153 520
153 526
153 533
153 535
153 562
153 600
153 601
153 602
153 603
153 604
153 606
153 613
153 620
153 623
153 634
153 640
153 641
153 642
153 644
153 645
153 647
153 648
153 649
153 650
153 657
153 665
153 669
153 670
153 672
153 678
153 679
153 680
153 681
153 685
153 686
153 687
153 688
153 694
153 699
153 700
153 706
153 709
153 710
153 712
153 713
153 714
153 715
153 716
153 738
153 739
153 742
153 754
153 755
153 801
153 824
153 826
154 28
154 36
154 39
154 41
154 58
154 59
154 60
154 61
154 62
154 63
154 64
154 65
154 66
154 67
154 68
154 69
154 70
154 71
154 74
154 76
154 77
154 78
154 79
154 92
154 115
154 117
154 118
154 119
154 121
154 122
154 124
154 125
154 126
154 127
154 128
154 129
154 130
154 131
154 132
154 133
154 134
154 135
154 137
154 138
154 139
154 140
154 141
154 142
154 143
154 144
154 145
154 146
154 147
154 148
154 149
154 150
154 151
154 152
154 153
154 155
154 156
154 157
154 158
154 161
154 162
154 175
154 263
154 350
154 351
154 409
154 410
154 431
154 524
154 533
154 534
154 535
154 561
154 562
154 600
154 601
154 602
154 603
154 606
154 613
154 634
154 640
154 641
154 642
154 647
154 648
154 665
154 667
154 668
154 669
154 670
154 672
154 678
154 679
154 680
154 685
154 693
154 694
154 699
154 700
154 706
154 709
154 710
154 712
154 713
154 714
154 715
154 716
154 717
154 738
154 739
154 742
154 745
154 746
154 750
154 754
154 755
154 824
154 826
154 831
155 19
155 36
155 38
155 39
155 41
155 56
155 58
155 59
155 60
155 61
155 62
155 63
155 64
155 65
155 66
155 67
155 68
155 69
155 70
155 71
155 74
155 75
155 76
155 77
155 78
155 82
155 92
155 115
155 117
155 118
155 119
155 121
155 122
155 124
155 125
155 126
155 127
155 128
155 129
155 130
155 131
155 132
155 133
155 134
155 135
155 137
155 138
155 139
155 140
155 141
155 142
155 143
155 144
155 145
155 146
155 147
155 148
155 149
155 150
155 151
155 152
155 153
155 154
155 156
155 157
155 158
155 161
155 162
155 175
155 190
155 263
155 350
155 409
155 410
155 431
155 527
155 533
155 535
155 562
155 563
155 593
155 600
155 601
155 602
155 603
155 604
155 606
155 634
155 640
155 641
155 642
155 645
155 647
155 648
155 657
155 665
155 667
155 668
155 669
155 670
155 672
155 678
155 679
155 680
155 685
155 686
155 687
155 688
155 693
155 694
155 699
155 700
155 706
155 709
155 712
155 713
155 714
155 715
155 734
155 738
155 739
155 742
155 746
155 749
155 750
155 754
155 755
155 801
155 824
155 826
156 28
156 31
156 34
156 38
156 39
156 41
156 58
156 59
156 60
156 61
156 62
156 63
156 64
156 65
156 66
156 67
156 68
156 69
156 70
156 71
156 74
156 75
156 76
156 82
156 92
156 103
156 115
156 117
156 118
156 119
156 121
156 122
156 124
156 125
156 126
156 127
156 128
156 129
156 130
156 131
156 132
156 133
156 134
156 135
156 137
156 138
156 139
156 140
156 141
156 142
156 143
156 144
156 145
156 146
156 147
156 148
156 149
156 150
156 151
156 152
156 153
156 154
156 155
156 157
156 158
156 161
156 162
156 175
156 263
156 317
156 350
156 409
156 410
156 452
156 524
156 533
156 535
156 561
156 562
156 565
156 600
156 601
156 602
156 603
156 604
156 606
156 613
156 620
156 621
156 622
156 623
156 634
156 640
156 641
156 642
156 643
156 644
156 645
156 647
156 648
156 649
156 650
156 657
156 665
156 667
156 669
156 670
156 672
156 678
156 679
156 680
156 685
156 686
156 687
156 688
156 693
156 694
156 699
156 700
156 706
156 709
156 710
156 713
156 714
156 715
156 716
156 738
156 739
156 742
156 746
156 747
156 748
156 749
156 754
156 755
156 791
156 801
156 824
156 826
157 28
157 31
157 34
157 36
157 38
157 41
157 58
157 59
157 60
157 61
157 62
157 63
157 64
157 65
157 66
157 67
157 68
157 69
157 70
157 71
157 74
157 75
157 77
157 78
157 79
157 80
157 103
157 115
157 117
157 118
157 119
157 121
157 122
157 124
157 125
157 126
157 127
157 128
157 129
157 130
157 131
157 132
157 133
157 134
157 135
157 137
157 138
157 139
157 140
157 141
157 142
157 143
157 144
157 145
157 146
157 147
157 148
157 149
157 150
157 151
157 152
157 153
157 154
157 155
157 156
157 158
157 161
157 162
157 175
157 190
157 263
157 350
157 351
157 365
157 409
157 410
157 431
157 516
157 520
157 524
157 526
157 533
157 535
157 561
157 562
157 565
157 600
157 601
157 602
157 603
157 604
157 606
157 613
157 620
157 621
157 622
157 623
157 634
157 640
157 641
157 642
157 643
157 644
157 645
157 648
157 650
157 657
157 665
157 669
157 670
157 672
157 678
157 679
157 680
157 681
157 685
157 687
157 694
157 699
157 700
157 706
157 709
157 712
157 713
157 714
157 715
157 716
157 738
157 739
157 742
157 743
157 746
157 747
157 748
157 754
157 755
157 791
157 801
157 824
157 826
157 829
157 831
157 838
157 840
158 16
158 23
158 25
158 28
158 36
158 38
158 58
158 59
158 60
158 61
158 63
158 69
158 71
158 74
158 75
158 78
158 80
158 82
158 92
158 103
158 115
158 117
158 118
158 119
158 121
158 122
158 124
158 125
158 126
158 127
158 128
158 129
158 130
158 131
158 133
158 134
158 135
158 137
158 138
158 139
158 140
158 141
158 142
158 143
158 144
158 145
158 146
158 147
158 148
158 149
158 150
158 151
158 152
158 153
158 154
158 155
158 156
158 157
158 158
158 161
158 162
158 175
158 190
158 263
158 350
158 351
158 409
158 410
158 451
158 452
158 510
158 516
158 520
158 528
158 533
158 534
158 535
158 562
158 577
158 600
158 601
158 602
158 603
158 605
158 606
158 613
158 634
158 640
158 641
158 642
158 643
158 647
158 648
158 657
158 665
158 666
158 667
158 668
158 669
158 670
158 672
158 678
158 680
158 681
158 685
158 686
158 687
158 688
158 693
158 694
158 699
158 700
158 706
158 709
158 712
158 713
158 714
158 715
158 733
158 735
158 736
158 738
158 739
158 742
158 746
158 750
158 754
158 792
158 793
158 801
158 824
158 826
158 834
158 840
159 17
159 83
159 84
159 93
159 112
159 114
159 123
159 164
159 165
159 166
159 168
159 183
159 227
159 253
159 283
159 336
159 386
159 470
159 487
159 512
159 540
159 541
159 542
159 569
159 570
159 655
159 708
159 732
159 737
159 765
159 767
159 773
159 794
159 797
160 15
160 17
160 35
160 37
160 42
160 83
160 87
160 91
160 164
160 165
160 168
160 174
160 205
160 236
160 313
160 330
160 363
160 364
160 378
160 406
160 412
160 417
160 434
160 435
160 461
160 482
160 491
160 494
160 537
160 568
160 674
160 711
160 757
160 761
160 762
160 766
160 841
160 842
160 843
160 844
160 845
160 846
160 847
160 855
160 859
160 911
160 943
160 978
161 19
161 23
161 28
161 31
161 36
161 38
161 58
161 59
161 60
161 61
161 62
161 63
161 64
161 65
161 66
161 67
161 68
161 69
161 70
161 71
161 74
161 75
161 76
161 77
161 78
161 80
161 82
161 103
161 115
161 117
161 118
161 119
161 121
161 122
161 124
161 125
161 126
161 127
161 128
161 129
161 130
161 131
161 133
161 134
161 135
161 137
161 138
161 139
161 140
161 141
161 142
161 143
161 144
161 145
161 146
161 147
161 148
161 149
161 150
161 151
161 152
161 153
161 154
161 155
161 156
161 157
161 158
161 162
161 175
161 190
161 263
161 350
161 351
161 352
161 409
161 410
161 484
161 487
161 520
161 524
161 525
161 526
161 527
161 528
161 533
161 535
161 554
161 561
161 562
161 563
161 577
161 600
161 601
161 602
161 603
161 604
161 606
161 613
161 634
161 640
161 641
161 642
161 643
161 645
161 648
161 665
161 666
161 667
161 668
161 669
161 670
161 672
161 678
161 679
161 680
161 685
161 687
161 693
161 694
161 699
161 700
161 706
161 709
161 712
161 713
161 714
161 715
161 716
161 738
161 739
161 741
161 742
161 746
161 747
161 750
161 753
161 754
161 755
161 756
161 791
161 792
161 793
161 824
161 826
161 829
161 831
161 837
161 839
161 840
161 848
162 19
162 23
162 25
162 28
162 29
162 31
162 34
162 36
162 38
162 39
162 41
162 58
162 59
162 60
162 61
162 62
162 63
162 64
162 65
162 66
162 67
162 68
162 69
162 70
162 71
162 74
162 75
162 76
162 77
162 78
162 79
162 80
162 82
162 92
162 103
162 109
162 115
162 117
162 118
162 119
162 121
162 122
162 124
162 125
162 126
162 127
162 128
162 129
162 130
162 131
162 132
162 133
162 134
162 135
162 137
162 138
162 139
162 140
162 141
162 142
162 143
162 144
162 145
162 146
162 147
162 148
162 149
162 150
162 151
162 152
162 153
162 154
162 155
162 156
162 157
162 158
162 161
162 175
162 190
162 263
162 350
162 351
162 365
162 409
162 410
162 431
162 452
162 510
162 520
162 524
162 525
162 526
162 527
162 533
162 535
162 561
162 562
162 563
162 565
162 577
162 599
162 600
162 601
162 602
162 603
162 604
162 606
162 613
162 620
162 622
162 623
162 634
162 640
162 641
162 642
162 644
162 645
162 646
162 647
162 648
162 650
162 657
162 665
162 666
162 667
162 668
162 669
162 670
162 672
162 678
162 679
162 680
162 681
162 685
162 686
162 687
162 688
162 693
162 694
162 699
162 700
162 701
162 706
162 707
162 709
162 710
162 712
162 713
162 714
162 715
162 716
162 717
162 738
162 739
162 741
162 742
162 743
162 745
162 746
162 747
162 748
162 749
162 750
162 754
162 755
162 756
162 791
162 793
162 801
162 824
162 826
162 829
162 830
162 831
162 835
162 836
162 838
162 839
162 848
162 849
163 17
163 43
163 93
163 97
163 105
163 108
163 120
163 123
163 164
163 165
163 166
163 167
163 168
163 183
163 234
163 235
163 312
163 406
163 408
163 420
163 428
163 480
163 538
163 539
163 541
163 542
163 569
163 570
163 573
163 610
163 689
163 708
163 732
163 737
163 757
163 758
163 763
163 771
163 787
163 794
163 797
163 805
163 827
163 828
163 850
163 851
163 852
163 853
163 854
164 17
164 35
164 89
164 97
164 105
164 108
164 112
164 114
164 120
164 123
164 159
164 160
164 163
164 165
164 167
164 168
164 174
164 180
164 205
164 221
164 226
164 235
164 236
164 237
164 289
164 301
164 319
164 320
164 323
164 341
164 342
164 361
164 394
164 406
164 408
164 419
164 421
164 426
164 428
164 434
164 461
164 470
164 479
164 480
164 482
164 492
164 503
164 505
164 517
164 531
164 538
164 540
164 541
164 542
164 553
164 567
164 569
164 570
164 588
164 609
164 610
164 629
164 631
164 691
164 708
164 711
164 719
164 720
164 732
164 737
164 758
164 763
164 766
164 771
164 783
164 787
164 788
164 805
164 851
164 855
164 856
164 857
164 858
164 859
164 860
164 861
164 862
164 863
164 864
164 865
164 866
164 867
164 868
164 869
164 874
164 878
164 890
164 896
164 914
164 944
164 1130
164 1139
164 1146
164 1169
165 15
165 26
165 30
165 32
165 35
165 40
165 42
165 44
165 46
165 55
165 57
165 72
165 73
165 81
165 85
165 86
165 87
165 88
165 89
165 90
165 91
165 93
165 97
165 105
165 108
165 120
165 159
165 160
165 163
165 164
165 166
165 167
165 168
165 174
165 180
165 191
165 205
165 222
165 223
165 226
165 227
165 234
165 235
165 236
165 238
165 252
165 258
165 264
165 265
165 274
165 289
165 313
165 316
165 328
165 330
165 333
165 334
165 335
165 346
165 358
165 364
165 378
165 379
165 387
165 388
165 406
165 407
165 412
165 417
165 428
165 434
165 435
165 437
165 440
165 447
165 459
165 461
165 464
165 466
165 472
165 477
165 480
165 482
165 489
165 493
165 496
165 497
165 505
165 506
165 515
165 517
165 519
165 538
165 539
165 553
165 567
165 568
165 573
165 579
165 580
165 581
165 588
165 596
165 597
165 609
165 610
165 616
165 617
165 618
165 629
165 655
165 656
165 658
165 659
165 674
165 676
165 684
165 690
165 692
165 702
165 711
165 718
165 720
165 721
165 722
165 757
165 759
165 760
165 762
165 764
165 765
165 766
165 767
165 768
165 771
165 773
165 775
165 776
165 777
165 779
165 780
165 781
165 782
165 783
165 787
165 794
165 797
165 805
165 811
165 813
165 816
165 819
165 822
165 823
165 827
165 828
165 841
165 842
165 843
165 844
165 845
165 846
165 847
165 850
165 851
165 852
165 854
165 855
165 859
165 860
165 861
165 865
165 867
165 868
165 870
165 871
165 872
165 873
165 874
165 875
165 876
165 877
165 878
165 879
165 880
165 881
165 901
165 911
165 923
165 943
165 944
165 945
165 961
165 962
165 967
165 969
165 970
165 971
165 978
165 979
165 980
165 998
165 1050
165 1093
165 1114
165 1115
165 1116
165 1117
165 1119
165 1132
165 1149
165 1153
165 1154
165 1158
165 1159
165 1160
165 1162
165 1168
165 1169
165 1170
165 1171
166 13
166 15
166 17
166 25
166 26
166 30
166 32
166 35
166 40
166 42
166 44
166 46
166 55
166 57
166 72
166 73
166 81
166 85
166 86
166 87
166 88
166 89
166 90
166 91
166 93
166 97
166 105
166 108
166 120
166 159
166 163
166 165
166 166
166 167
166 168
166 174
166 180
166 191
166 205
166 220
166 222
166 223
166 226
166 227
166 230
166 233
166 236
166 238
166 252
166 255
166 258
166 264
166 265
166 274
166 289
166 301
166 313
166 315
166 316
166 320
166 328
166 330
166 333
166 334
166 335
166 337
166 338
166 341
166 346
166 358
166 364
166 378
166 379
166 387
166 388
166 406
166 407
166 412
166 417
166 432
166 434
166 435
166 437
166 440
166 447
166 459
166 461
166 464
166 465
166 466
166 470
166 472
166 475
166 476
166 477
166 479
166 482
166 483
166 488
166 489
166 493
166 496
166 497
166 505
166 506
166 515
166 517
166 519
166 529
166 530
166 538
166 539
166 553
166 567
166 568
166 571
166 579
166 580
166 581
166 588
166 596
166 597
166 609
166 610
166 616
166 617
166 618
166 629
166 656
166 658
166 659
166 674
166 675
166 676
166 684
166 690
166 692
166 702
166 704
166 711
166 718
166 720
166 721
166 722
166 757
166 759
166 760
166 762
166 764
166 765
166 766
166 767
166 768
166 769
166 771
166 773
166 774
166 775
166 776
166 777
166 779
166 780
166 781
166 782
166 783
166 787
166 797
166 805
166 811
166 813
166 816
166 819
166 822
166 823
166 841
166 842
166 843
166 844
166 845
166 846
166 847
166 852
166 855
166 859
166 860
166 861
166 863
166 865
166 867
166 868
166 869
166 870
166 871
166 872
166 873
166 874
166 875
166 876
166 877
166 878
166 879
166 880
166 881
166 882
166 883
166 884
166 885
166 886
166 887
166 888
166 889
166 890
166 894
166 901
166 909
166 911
166 912
166 920
166 923
166 943
166 944
166 945
166 961
166 962
166 967
166 969
166 970
166 971
166 977
166 978
166 979
166 980
166 998
166 1050
166 1067
166 1093
166 1114
166 1115
166 1116
166 1117
166 1119
166 1132
166 1143
166 1147
166 1149
166 1153
166 1154
166 1158
166 1159
166 1160
166 1162
166 1168
166 1169
166 1170
166 1171
167 15
167 21
167 26
167 30
167 32
167 33
167 35
167 40
167 42
167 43
167 44
167 46
167 55
167 57
167 72
167 73
167 81
167 84
167 85
167 86
167 87
167 88
167 89
167 90
167 91
167 93
167 97
167 105
167 108
167 112
167 120
167 163
167 164
167 165
167 166
167 168
167 174
167 180
167 183
167 184
167 191
167 199
167 202
167 205
167 207
167 208
167 214
167 217
167 220
167 222
167 223
167 226
167 229
167 230
167 236
167 237
167 238
167 240
167 252
167 253
167 254
167 257
167 264
167 265
167 274
167 276
167 282
167 283
167 284
167 288
167 301
167 305
167 307
167 308
167 313
167 316
167 319
167 320
167 322
167 323
167 324
167 326
167 328
167 330
167 331
167 334
167 335
167 336
167 341
167 342
167 346
167 361
167 364
167 378
167 379
167 380
167 386
167 387
167 388
167 394
167 395
167 402
167 403
167 406
167 407
167 408
167 411
167 412
167 414
167 417
167 419
167 426
167 432
167 434
167 437
167 439
167 440
167 444
167 447
167 459
167 461
167 464
167 466
167 468
167 470
167 472
167 477
167 483
167 485
167 486
167 487
167 488
167 489
167 492
167 493
167 497
167 504
167 506
167 509
167 511
167 512
167 515
167 517
167 519
167 529
167 530
167 531
167 548
167 553
167 555
167 566
167 568
167 571
167 578
167 579
167 580
167 581
167 587
167 588
167 596
167 597
167 609
167 610
167 615
167 616
167 617
167 618
167 629
167 632
167 655
167 656
167 658
167 659
167 674
167 675
167 676
167 683
167 684
167 689
167 690
167 692
167 702
167 703
167 704
167 711
167 718
167 719
167 720
167 721
167 722
167 733
167 736
167 757
167 758
167 759
167 760
167 762
167 763
167 764
167 766
167 767
167 768
167 771
167 773
167 775
167 776
167 777
167 779
167 780
167 781
167 782
167 783
167 787
167 794
167 797
167 805
167 807
167 809
167 811
167 813
167 816
167 817
167 819
167 820
167 823
167 827
167 828
167 841
167 842
167 843
167 844
167 846
167 847
167 857
167 859
167 860
167 861
167 863
167 864
167 865
167 867
167 868
167 869
167 871
167 872
167 873
167 875
167 877
167 878
167 879
167 880
167 883
167 887
167 888
167 889
167 890
167 891
167 892
167 893
167 894
167 895
167 896
167 897
167 898
167 899
167 900
167 901
167 902
167 903
167 904
167 905
167 906
167 907
167 908
167 909
167 910
167 911
167 912
167 913
167 914
167 915
167 916
167 917
167 918
167 920
167 922
167 923
167 925
167 927
167 943
167 944
167 945
167 961
167 962
167 967
167 969
167 970
167 971
167 972
167 973
167 977
167 978
167 979
167 980
167 998
167 999
167 1019
167 1031
167 1037
167 1038
167 1042
167 1048
167 1050
167 1060
167 1067
167 1093
167 1114
167 1115
167 1116
167 1117
167 1119
167 1128
167 1130
167 1131
167 1134
167 1136
167 1139
167 1146
167 1147
167 1148
167 1149
167 1150
167 1151
167 1153
167 1154
167 1158
167 1159
167 1160
167 1162
167 1163
167 1168
167 1169
167 1170
167 1171
167 1179
167 1180
168 15
168 17
168 26
168 30
168 32
168 35
168 40
168 42
168 44
168 46
168 55
168 57
168 72
168 73
168 81
168 85
168 86
168 87
168 88
168 89
168 90
168 91
168 93
168 97
168 105
168 108
168 112
168 120
168 159
168 160
168 163
168 164
168 165
168 166
168 167
168 174
168 180
168 183
168 191
168 205
168 212
168 222
168 223
168 226
168 227
168 230
168 234
168 235
168 236
168 238
168 252
168 253
168 258
168 264
168 265
168 274
168 289
168 292
168 301
168 313
168 316
168 321
168 328
168 330
168 333
168 334
168 335
168 336
168 346
168 358
168 362
168 364
168 378
168 379
168 386
168 387
168 388
168 393
168 394
168 402
168 403
168 406
168 407
168 408
168 411
168 412
168 417
168 426
168 434
168 435
168 437
168 440
168 447
168 459
168 461
168 464
168 466
168 472
168 477
168 478
168 479
168 482
168 487
168 488
168 489
168 491
168 492
168 493
168 496
168 497
168 505
168 506
168 509
168 512
168 515
168 517
168 519
168 532
168 538
168 539
168 548
168 553
168 564
168 567
168 568
168 573
168 578
168 579
168 580
168 581
168 588
168 596
168 597
168 609
168 610
168 616
168 617
168 618
168 629
168 632
168 656
168 658
168 659
168 674
168 676
168 683
168 684
168 690
168 692
168 702
168 703
168 711
168 718
168 719
168 720
168 721
168 722
168 752
168 757
168 758
168 759
168 760
168 761
168 762
168 763
168 764
168 765
168 766
168 767
168 768
168 771
168 773
168 775
168 776
168 777
168 779
168 780
168 781
168 782
168 783
168 787
168 794
168 797
168 811
168 813
168 816
168 819
168 822
168 823
168 827
168 828
168 841
168 842
168 843
168 844
168 845
168 846
168 847
168 851
168 852
168 855
168 856
168 857
168 859
168 860
168 861
168 865
168 867
168 868
168 870
168 871
168 872
168 873
168 874
168 875
168 876
168 878
168 879
168 880
168 881
168 888
168 899
168 901
168 911
168 919
168 920
168 921
168 922
168 923
168 924
168 925
168 926
168 927
168 943
168 944
168 945
168 961
168 962
168 967
168 969
168 970
168 971
168 978
168 979
168 980
168 998
168 1050
168 1093
168 1114
168 1115
168 1116
168 1117
168 1119
168 1132
168 1149
168 1153
168 1154
168 1158
168 1159
168 1160
168 1162
168 1168
168 1169
168 1170
168 1171
169 268
169 427
169 928
169 929
169 930
170 415
170 425
170 931
170 932
171 300
171 456
171 458
171 460
171 463
171 933
171 934
171 935
172 293
172 359
172 360
172 936
172 937
172 938
172 939
173 213
173 940
173 941
174 37
174 40
174 42
174 87
174 88
174 89
174 91
174 160
174 164
174 165
174 166
174 167
174 168
174 205
174 324
174 362
174 363
174 472
174 491
174 494
174 505
174 536
174 546
174 682
174 683
174 761
174 766
174 778
174 841
174 844
174 942
174 943
174 944
174 945
175 19
175 36
175 38
175 41
175 62
175 63
175 65
175 68
175 69
175 70
175 71
175 74
175 75
175 76
175 77
175 78
175 79
175 118
175 124
175 126
175 130
175 131
175 132
175 133
175 137
175 138
175 140
175 142
175 144
175 145
175 146
175 148
175 149
175 150
175 151
175 152
175 153
175 154
175 155
175 156
175 157
175 158
175 161
175 162
175 175
175 263
175 318
175 365
175 367
175 409
175 410
175 516
175 526
175 533
175 534
175 535
175 561
175 562
175 563
175 602
175 603
175 614
175 640
175 641
175 667
175 669
175 670
175 678
175 679
175 680
175 685
175 687
175 693
175 694
175 701
175 706
175 709
175 710
175 712
175 713
175 716
175 717
175 742
175 743
175 744
175 745
175 746
175 824
175 838
175 848
175 946
175 947
175 948
176 180
176 406
176 768
176 949
177 206
177 213
177 282
177 424
177 950
177 951
177 952
177 1036
178 185
178 212
178 292
178 953
179 245
179 261
179 369
179 370
179 372
179 373
179 725
179 954
180 17
180 84
180 91
180 112
180 164
180 165
180 166
180 167
180 168
180 176
180 184
180 341
180 386
180 505
180 703
180 794
180 955
180 956
180 957
180 958
181 187
181 200
181 959
182 282
182 960
183 13
183 15
183 21
183 24
183 26
183 28
183 35
183 42
183 43
183 44
183 46
183 57
183 72
183 73
183 85
183 86
183 90
183 159
183 163
183 167
183 168
183 183
183 215
183 217
183 220
183 226
183 233
183 238
183 274
183 275
183 280
183 290
183 316
183 320
183 321
183 326
183 331
183 334
183 335
183 346
183 353
183 387
183 388
183 389
183 390
183 393
183 394
183 396
183 408
183 411
183 417
183 426
183 438
183 440
183 464
183 468
183 469
183 475
183 476
183 485
183 488
183 492
183 495
183 499
183 500
183 505
183 506
183 509
183 514
183 519
183 529
183 530
183 566
183 567
183 568
183 578
183 613
183 632
183 659
183 674
183 675
183 676
183 684
183 689
183 692
183 718
183 719
183 720
183 721
183 722
183 752
183 759
183 762
183 770
183 811
183 816
183 819
183 843
183 857
183 861
183 879
183 886
183 892
183 899
183 909
183 912
183 916
183 924
183 926
183 943
183 961
183 962
183 963
183 964
183 965
183 966
183 967
183 968
183 969
183 970
183 971
183 972
183 973
183 974
183 975
183 976
183 977
183 978
183 979
183 980
183 1049
183 1094
183 1114
183 1116
183 1118
183 1147
183 1150
183 1154
183 1163
183 1166
183 1168
183 1170
184 13
184 91
184 167
184 180
184 266
184 981
185 178
185 982
186 551
186 1182
187 181
187 200
187 201
187 356
187 357
187 401
187 443
187 445
187 457
187 984
187 985
187 986
187 987
187 988
188 228
188 229
188 299
188 311
188 340
188 371
188 455
188 458
188 560
188 575
188 576
188 624
188 625
188 626
188 989
188 990
188 991
188 992
188 1152
189 22
189 48
189 49
189 50
189 51
189 52
189 53
189 54
189 94
189 95
189 96
189 98
189 99
189 100
189 101
189 102
189 104
189 106
189 107
189 109
189 110
189 111
189 113
189 116
189 136
189 225
189 270
189 271
189 281
189 314
189 380
189 384
189 397
189 404
189 423
189 498
189 521
189 522
189 523
189 543
189 544
189 545
189 627
189 628
189 630
189 631
189 651
189 652
189 653
189 654
189 657
189 660
189 661
189 662
189 677
189 698
189 727
189 728
189 729
189 730
189 731
189 784
189 785
189 786
189 788
189 789
189 790
189 795
189 796
189 799
189 801
189 802
189 803
189 804
189 825
189 832
189 833
189 993
189 1108
189 1121
189 1126
189 1144
189 1145
189 1164
189 1177
189 1178
190 28
190 62
190 63
190 64
190 66
190 67
190 70
190 103
190 118
190 124
190 129
190 130
190 133
190 137
190 141
190 147
190 150
190 151
190 155
190 157
190 158
190 161
190 162
190 350
190 351
190 409
190 410
190 431
190 516
190 533
190 600
190 602
190 603
190 604
190 613
190 634
190 643
190 667
190 668
190 669
190 672
190 678
190 679
190 680
190 685
190 693
190 706
190 709
190 713
190 716
190 740
190 750
190 831
190 994
190 995
190 996
191 91
191 165
191 166
191 167
191 168
191 217
191 234
191 459
191 481
191 505
191 573
191 997
191 998
192 203
192 229
192 999
192 1000
192 1001
193 216
193 272
193 306
193 340
193 462
193 467
193 473
193 474
193 550
193 559
193 1002
193 1003
193 1004
193 1005
193 1006
193 1007
193 1008
193 1009
193 1075
193 1111
193 1112
193 1181
194 262
194 296
194 298
194 1010
195 33
195 96
195 385
195 398
195 432
195 436
195 453
195 484
195 584
195 649
195 705
195 785
195 1011
195 1012
195 1013
196 12
196 269
196 453
196 590
196 591
196 592
196 594
196 595
196 605
196 619
196 735
196 812
196 818
196 1014
196 1015
196 1016
196 1176
197 198
197 206
197 1017
197 1018
198 197
198 257
198 1017
198 1019
199 167
199 284
199 1020
199 1021
200 181
200 187
200 201
200 273
200 282
200 300
200 309
200 311
200 339
200 354
200 355
200 356
200 357
200 400
200 401
200 443
200 445
200 448
200 454
200 457
200 471
200 984
200 986
200 987
200 988
200 1022
200 1023
200 1024
200 1025
200 1026
200 1027
200 1028
200 1113
200 1140
200 1155
201 187
201 200
201 273
201 354
201 355
201 356
201 357
201 401
201 445
201 448
201 454
201 457
201 984
201 987
201 988
201 1023
201 1024
201 1027
201 1028
201 1029
201 1030
201 1113
201 1140
201 1155
202 167
202 237
202 308
202 420
202 421
202 422
202 1031
203 70
203 192
203 203
203 218
203 230
203 410
203 669
203 1032
204 221
204 313
204 1033
204 1034
205 84
205 160
205 164
205 165
205 166
205 167
205 168
205 174
205 302
205 505
205 546
205 548
205 956
205 957
206 177
206 197
206 592
206 602
206 1035
206 1036
207 167
207 312
207 869
207 890
207 1037
208 167
208 605
208 735
208 1038
209 103
209 307
209 1039
209 1040
210 446
210 489
210 1059
211 1039
211 1040
212 168
212 178
212 256
212 261
212 592
212 631
212 864
212 1020
212 1021
213 173
213 177
213 251
213 282
213 424
213 935
213 941
213 1044
213 1045
213 1051
214 167
214 383
214 385
214 398
214 1035
214 1046
215 183
215 564
215 772
215 921
215 1047
216 193
216 216
217 167
217 183
217 191
217 217
217 235
217 247
217 280
217 302
217 331
217 396
217 571
217 578
217 704
217 770
217 851
217 973
217 1001
217 1047
217 1049
217 1050
217 1051
217 1150
218 203
218 1043
218 1052
218 1053
219 219
219 416
219 1054
220 13
220 21
220 166
220 167
220 183
220 233
220 321
220 341
220 393
220 394
220 426
220 475
220 476
220 886
220 1055
220 1056
221 164
221 204
221 303
221 313
221 330
221 348
221 349
221 911
221 1033
221 1034
221 1057
221 1138
222 165
222 166
222 167
222 168
222 379
222 441
222 1058
223 165
223 166
223 167
223 168
223 379
223 441
223 493
223 1058
224 379
224 441
224 442
224 444
224 446
224 502
224 918
224 1059
224 1060
225 41
225 48
225 49
225 50
225 51
225 52
225 53
225 54
225 94
225 95
225 96
225 98
225 99
225 100
225 101
225 102
225 104
225 106
225 107
225 109
225 110
225 111
225 113
225 116
225 132
225 136
225 189
225 225
225 270
225 271
225 281
225 384
225 397
225 423
225 498
225 521
225 522
225 523
225 543
225 545
225 627
225 628
225 630
225 651
225 652
225 653
225 654
225 660
225 661
225 662
225 677
225 727
225 728
225 729
225 730
225 731
225 784
225 785
225 786
225 789
225 790
225 795
225 798
225 799
225 802
225 803
225 821
225 825
225 832
225 833
225 1053
225 1061
225 1108
225 1121
225 1126
225 1144
225 1145
225 1164
225 1177
225 1178
226 43
226 164
226 165
226 166
226 167
226 168
226 183
226 346
226 387
226 468
226 469
226 488
226 505
226 509
226 541
226 542
226 578
226 632
226 689
226 690
226 692
226 794
226 974
227 17
227 84
227 112
227 159
227 165
227 166
227 168
227 302
227 386
227 479
227 567
227 866
228 188
228 229
228 299
228 304
228 309
228 332
228 339
228 340
228 371
228 376
228 399
228 455
228 551
228 560
228 575
228 576
228 624
228 625
228 626
228 990
228 991
228 992
228 999
228 1062
228 1063
228 1064
228 1065
228 1066
228 1152
229 167
229 188
229 192
229 228
229 299
229 304
229 309
229 332
229 339
229 371
229 376
229 399
229 455
229 551
229 560
229 575
229 576
229 624
229 625
229 626
229 990
229 991
229 992
229 999
229 1062
229 1063
229 1064
229 1065
229 1066
229 1152
230 112
230 166
230 167
230 168
230 203
230 386
230 414
230 432
230 439
230 809
230 889
230 1032
230 1067
231 5
231 239
231 256
231 405
231 932
231 1068
231 1069
232 1029
232 1070
233 166
233 183
233 220
233 475
233 476
233 488
233 675
233 1055
233 1056
234 91
234 163
234 165
234 168
234 191
234 235
234 478
234 480
234 481
234 507
234 588
234 758
234 763
234 850
234 851
234 854
234 1071
235 163
235 164
235 165
235 168
235 217
235 234
235 235
235 507
235 573
235 758
235 763
235 851
235 1071
236 160
236 164
236 165
236 166
236 167
236 168
236 342
236 349
236 466
236 782
236 1057
236 1072
237 164
237 167
237 202
237 308
237 420
237 422
237 470
237 853
237 904
237 1073
238 83
238 165
238 166
238 167
238 168
238 183
238 529
238 530
238 1072
239 5
239 231
239 239
239 256
239 405
239 1068
239 1069
240 167
240 269
240 470
240 571
240 1074
241 259
241 310
241 311
241 1075
241 1076
242 247
242 1077
242 1078
243 284
243 908
244 244
244 1082
245 179
245 370
245 372
245 1083
246 264
246 421
246 862
247 217
247 242
247 1077
248 47
248 249
248 261
248 374
248 375
248 377
248 450
248 671
248 726
248 1084
248 1085
248 1086
248 1087
248 1089
249 47
249 248
249 261
249 373
249 374
249 375
249 377
249 433
249 450
249 671
249 673
249 696
249 725
249 726
249 1084
249 1085
249 1086
249 1088
249 1089
250 277
250 344
250 633
250 1035
250 1090
250 1091
251 111
251 213
251 253
251 271
251 806
251 810
252 91
252 165
252 166
252 167
252 168
252 265
252 379
252 472
252 493
252 505
252 841
252 1092
252 1093
253 33
253 112
253 159
253 167
253 168
253 251
253 315
253 320
253 336
253 365
253 386
253 391
253 465
253 483
253 487
253 531
253 532
253 571
253 629
253 703
253 806
253 810
253 820
253 878
253 907
253 913
254 167
254 312
254 413
254 508
254 509
254 511
254 1094
254 1157
254 1180
255 166
255 302
255 769
255 774
256 212
256 231
256 239
256 261
256 273
256 292
256 404
256 405
256 608
256 1068
256 1069
256 1095
256 1096
256 1100
257 167
257 198
257 257
257 605
257 735
257 1019
258 165
258 166
258 168
258 333
258 541
258 542
258 1097
259 241
259 260
259 306
259 310
259 311
259 549
259 1025
259 1098
260 259
260 310
260 311
260 549
260 1025
260 1075
260 1076
260 1098
261 4
261 5
261 7
261 11
261 14
261 18
261 27
261 45
261 47
261 179
261 212
261 248
261 249
261 256
261 261
261 273
261 292
261 311
261 343
261 345
261 373
261 374
261 381
261 382
261 402
261 403
261 404
261 423
261 433
261 449
261 450
261 490
261 501
261 547
261 552
261 555
261 556
261 589
261 605
261 607
261 608
261 635
261 636
261 637
261 638
261 639
261 663
261 664
261 671
261 673
261 695
261 696
261 697
261 723
261 724
261 725
261 726
261 735
261 799
261 800
261 1025
261 1085
261 1087
261 1088
261 1096
261 1099
261 1100
261 1101
261 1109
261 1161
261 1165
261 1167
262 194
262 296
262 298
262 887
262 1095
262 1102
262 1103
263 29
263 31
263 58
263 59
263 60
263 61
263 62
263 63
263 64
263 65
263 66
263 67
263 68
263 69
263 70
263 71
263 74
263 76
263 77
263 78
263 115
263 117
263 118
263 119
263 121
263 122
263 124
263 125
263 126
263 127
263 128
263 129
263 130
263 131
263 133
263 134
263 135
263 137
263 138
263 139
263 140
263 141
263 142
263 143
263 144
263 145
263 146
263 147
263 148
263 149
263 150
263 151
263 152
263 153
263 154
263 155
263 156
263 157
263 158
263 161
263 162
263 175
263 350
263 409
263 410
263 533
263 535
263 562
263 600
263 601
263 602
263 603
263 606
263 634
263 640
263 641
263 642
263 644
263 645
263 646
263 648
263 650
263 665
263 666
263 668
263 669
263 670
263 672
263 678
263 679
263 680
263 685
263 694
263 699
263 700
263 706
263 709
263 713
263 714
263 715
263 716
263 738
263 739
263 746
263 750
263 754
263 755
263 793
263 824
263 826
263 829
263 836
264 91
264 165
264 166
264 167
264 168
264 246
264 283
264 421
264 428
264 480
264 505
264 862
264 917
264 1104
265 165
265 166
265 167
265 168
265 252
265 1092
266 15
266 184
266 284
266 843
266 908
267 268
267 329
267 427
267 582
267 591
267 906
267 928
267 930
267 958
267 1105
268 169
268 267
268 385
268 398
268 582
268 583
268 584
268 585
268 586
268 587
268 598
268 902
268 928
268 930
268 1011
268 1013
268 1106
268 1174
268 1175
269 12
269 196
269 240
269 590
269 591
269 592
269 594
269 595
269 619
269 818
269 1074
270 54
270 113
270 136
270 189
270 225
270 271
270 314
270 380
270 423
270 543
270 544
270 545
270 651
270 730
270 1107
270 1108
271 16
271 18
271 22
271 48
271 49
271 50
271 51
271 52
271 53
271 54
271 56
271 94
271 95
271 96
271 98
271 99
271 100
271 101
271 102
271 104
271 106
271 107
271 109
271 110
271 111
271 113
271 116
271 130
271 136
271 189
271 225
271 251
271 270
271 277
271 281
271 314
271 329
271 380
271 384
271 392
271 397
271 423
271 451
271 498
271 521
271 522
271 523
271 543
271 544
271 545
271 593
271 605
271 627
271 628
271 630
271 631
271 633
271 652
271 653
271 654
271 660
271 661
271 662
271 677
271 679
271 680
271 698
271 727
271 728
271 729
271 730
271 731
271 734
271 735
271 784
271 785
271 786
271 788
271 789
271 790
271 795
271 796
271 799
271 802
271 803
271 804
271 821
271 825
271 832
271 833
271 1105
271 1107
271 1108
271 1109
271 1110
271 1121
271 1126
271 1144
271 1145
271 1164
271 1177
271 1178
272 193
272 462
272 467
272 473
272 474
272 1003
272 1009
272 1111
273 5
273 200
273 201
273 256
273 261
273 311
273 354
273 443
273 448
273 454
273 608
273 986
273 1112
273 1113
274 83
274 91
274 165
274 166
274 167
274 168
274 183
274 280
274 353
274 388
274 468
274 472
274 492
274 497
274 505
274 519
274 618
274 655
274 656
274 658
274 659
274 719
274 721
274 841
274 879
274 962
274 971
274 979
274 1114
274 1115
274 1116
274 1117
274 1118
274 1119
275 81
275 183
275 353
275 387
275 388
275 389
275 492
275 719
275 762
275 962
275 1118
276 8
276 167
276 305
276 312
276 413
276 508
276 509
276 511
276 632
276 1094
276 1120
276 1156
276 1157
276 1179
276 1180
277 250
277 271
277 451
277 605
277 657
277 735
277 740
277 801
277 1121
277 1122
278 1076
278 1123
279 404
279 1041
279 1081
279 1124
279 1125
280 183
280 217
280 274
280 280
280 302
280 331
280 388
280 411
280 413
280 495
280 578
280 759
280 899
280 962
280 1049
280 1097
280 1120
281 16
281 22
281 48
281 49
281 50
281 51
281 52
281 53
281 54
281 56
281 94
281 95
281 96
281 98
281 99
281 100
281 101
281 102
281 104
281 106
281 107
281 109
281 110
281 111
281 113
281 116
281 136
281 189
281 225
281 271
281 384
281 397
281 404
281 498
281 521
281 522
281 523
281 543
281 544
281 545
281 593
281 605
281 611
281 612
281 627
281 628
281 630
281 631
281 651
281 652
281 653
281 654
281 657
281 660
281 661
281 662
281 677
281 698
281 727
281 728
281 729
281 730
281 731
281 735
281 784
281 785
281 786
281 788
281 789
281 790
281 795
281 796
281 801
281 802
281 804
281 825
281 832
281 1108
281 1110
281 1121
281 1126
281 1144
281 1145
281 1164
281 1177
281 1178
282 167
282 177
282 182
282 200
282 213
282 309
282 339
282 415
282 424
282 425
282 551
282 1022
282 1026
282 1127
282 1128
282 1129
283 13
283 91
283 159
283 167
283 264
283 320
283 323
283 419
283 567
283 777
283 841
283 886
283 914
283 1130
284 167
284 199
284 243
284 266
284 1131
285 288
285 631
285 788
285 891
285 1110
286 286
286 291
286 294
286 295
287 1102
288 167
288 285
288 288
288 891
288 1096
288 1100
289 123
289 164
289 165
289 166
289 168
289 358
289 732
289 1132
290 183
290 307
290 314
290 316
290 1133
291 286
291 294
291 295
291 1133
292 168
292 178
292 256
292 261
292 592
292 631
292 1021
293 172
293 359
293 360
293 937
293 938
294 286
294 291
294 294
294 295
294 551
294 1133
295 286
295 291
295 294
295 295
295 1128
295 1133
296 194
296 262
296 298
296 1044
296 1102
297 798
297 1061
297 1134
298 1
298 194
298 262
298 296
298 1048
298 1102
299 188
299 228
299 229
299 455
299 575
299 625
299 1135
300 171
300 200
300 311
300 339
300 443
300 460
300 986
301 164
301 166
301 167
301 168
301 322
301 1136
302 84
302 205
302 217
302 227
302 255
302 280
302 539
302 773
302 774
302 916
302 957
302 1137
303 221
303 313
303 349
303 1034
303 1057
303 1138
304 228
304 229
304 311
304 332
304 339
304 1066
305 167
305 276
305 312
305 413
305 508
305 509
305 511
305 1139
305 1157
305 1180
306 193
306 259
306 471
306 1113
306 1140
306 1141
307 167
307 209
307 290
307 963
307 1142
308 167
308 202
308 237
308 420
308 422
308 853
308 904
308 1073
309 200
309 228
309 229
309 282
309 311
309 551
309 1026
309 1127
309 1129
309 1135
310 241
310 259
310 260
310 311
310 549
310 1025
310 1098
310 1141
311 47
311 188
311 200
311 241
311 259
311 260
311 261
311 273
311 300
311 304
311 309
311 310
311 339
311 340
311 458
311 460
311 463
311 549
311 550
311 551
311 726
311 934
311 935
311 1062
311 1141
312 8
312 163
312 207
312 254
312 276
312 305
312 408
312 413
312 508
312 509
312 511
312 615
312 632
312 869
312 1120
312 1143
312 1156
312 1157
312 1179
312 1180
313 160
313 165
313 166
313 167
313 168
313 204
313 221
313 303
313 330
313 348
313 349
313 466
313 858
313 1057
313 1138
314 22
314 52
314 54
314 101
314 109
314 111
314 113
314 116
314 136
314 189
314 270
314 271
314 290
314 423
314 453
314 498
314 521
314 526
314 544
314 545
314 627
314 628
314 651
314 662
314 698
314 740
314 786
314 790
314 796
314 799
314 802
314 821
314 825
314 833
314 963
314 994
314 1144
314 1145
315 33
315 84
315 112
315 166
315 253
315 315
315 319
315 320
315 325
315 336
315 337
315 341
315 386
315 391
315 414
315 432
315 439
315 465
315 470
315 512
315 513
315 531
315 532
315 703
315 809
315 815
315 820
315 863
315 885
315 900
315 913
316 43
316 165
316 166
316 167
316 168
316 183
316 290
316 417
316 468
316 503
316 674
316 689
316 691
316 963
317 41
317 65
317 77
317 78
317 132
317 138
317 146
317 148
317 151
317 152
317 156
317 602
317 678
317 1134
318 74
318 175
318 327
318 329
318 347
318 535
318 1105
318 1134
318 1146
319 33
319 112
319 164
319 167
319 315
319 336
319 386
319 432
319 439
319 465
319 505
319 703
319 808
319 894
320 112
320 164
320 166
320 167
320 183
320 253
320 283
320 315
320 322
320 336
320 337
320 465
320 808
321 81
321 168
321 183
321 220
321 388
321 394
321 407
321 408
321 426
321 675
321 879
321 909
321 962
321 979
321 1147
322 167
322 301
322 320
322 322
322 323
322 325
322 388
322 505
322 592
322 815
322 962
322 1130
322 1136
323 164
323 167
323 283
323 322
323 505
323 1136
324 89
324 167
324 174
324 615
324 711
324 944
324 1148
325 112
325 315
325 322
325 336
325 341
325 361
325 863
325 896
326 167
326 183
326 378
326 615
326 846
326 1148
327 318
327 327
327 1146
328 165
328 166
328 167
328 168
328 364
328 517
328 541
328 542
328 615
328 860
328 1148
329 267
329 271
329 318
329 329
329 1105
330 93
330 160
330 165
330 166
330 167
330 168
330 221
330 313
330 346
330 378
330 437
330 472
330 505
330 692
330 797
330 846
330 856
330 858
330 873
330 911
330 1149
331 91
331 167
331 183
331 217
331 280
331 335
331 578
331 841
331 1049
331 1150
332 228
332 229
332 304
332 575
332 576
332 625
332 1063
332 1066
333 165
333 166
333 168
333 258
333 408
333 822
333 870
333 1097
334 43
334 114
334 165
334 166
334 167
334 168
334 183
334 346
334 393
334 540
334 689
334 692
334 924
334 926
335 91
335 165
335 166
335 167
335 168
335 183
335 331
335 541
335 542
335 841
335 973
336 33
336 112
336 159
336 167
336 168
336 253
336 315
336 319
336 320
336 325
336 337
336 379
336 386
336 391
336 420
336 432
336 439
336 465
336 493
336 512
336 531
336 532
336 567
336 703
336 805
336 811
336 815
336 820
336 885
336 913
337 166
337 315
337 320
337 336
337 337
337 408
337 465
337 857
337 869
337 885
337 890
338 166
338 395
338 895
338 958
338 1151
339 200
339 228
339 229
339 282
339 300
339 304
339 311
339 551
339 1022
339 1025
339 1026
339 1127
339 1129
339 1135
339 1152
340 188
340 193
340 228
340 311
340 576
340 1007
340 1112
341 13
341 112
341 120
341 164
341 166
341 167
341 180
341 220
341 315
341 325
341 361
341 432
341 439
341 470
341 475
341 476
341 513
341 675
341 768
341 771
341 886
341 896
341 920
342 164
342 167
342 236
342 444
342 492
342 529
342 530
342 719
342 1143
343 27
343 261
343 345
343 373
343 501
343 589
343 608
343 663
343 664
343 1101
344 250
344 344
344 1065
344 1079
344 1090
345 7
345 11
345 14
345 27
345 45
345 47
345 261
345 343
345 373
345 382
345 402
345 403
345 433
345 449
345 450
345 490
345 547
345 552
345 555
345 556
345 589
345 607
345 608
345 635
345 636
345 637
345 638
345 639
345 663
345 664
345 673
345 695
345 696
345 697
345 723
345 724
345 725
345 726
345 1099
345 1101
345 1161
345 1165
345 1167
346 24
346 26
346 30
346 35
346 57
346 72
346 73
346 81
346 83
346 93
346 165
346 166
346 167
346 168
346 183
346 226
346 330
346 334
346 378
346 387
346 407
346 411
346 437
346 440
346 468
346 469
346 472
346 488
346 492
346 505
346 676
346 684
346 690
346 718
346 719
346 720
346 722
346 797
346 811
346 816
346 819
346 899
346 926
346 967
346 980
346 1153
346 1154
346 1170
347 318
347 347
347 367
347 614
348 221
348 313
348 349
348 1034
348 1138
349 221
349 236
349 303
349 313
349 348
349 858
350 58
350 59
350 60
350 61
350 62
350 63
350 64
350 65
350 66
350 67
350 68
350 69
350 70
350 71
350 74
350 76
350 77
350 78
350 92
350 115
350 117
350 118
350 119
350 121
350 122
350 124
350 125
350 126
350 127
350 128
350 129
350 130
350 131
350 133
350 134
350 135
350 137
350 138
350 139
350 140
350 141
350 142
350 143
350 144
350 145
350 146
350 147
350 148
350 149
350 150
350 151
350 152
350 153
350 154
350 155
350 156
350 157
350 158
350 161
350 162
350 190
350 263
350 351
350 409
350 410
350 431
350 533
350 535
350 562
350 599
350 600
350 601
350 602
350 603
350 606
350 634
350 640
350 641
350 642
350 648
350 657
350 665
350 667
350 669
350 670
350 672
350 678
350 679
350 680
350 685
350 686
350 688
350 693
350 694
350 699
350 700
350 701
350 706
350 709
350 713
350 714
350 715
350 716
350 738
350 739
350 742
350 746
350 754
350 755
350 801
350 824
350 826
350 830
350 831
350 840
351 19
351 23
351 38
351 56
351 66
351 69
351 103
351 131
351 135
351 147
351 148
351 154
351 157
351 158
351 161
351 162
351 190
351 350
351 352
351 360
351 431
351 487
351 516
351 554
351 563
351 577
351 593
351 599
351 600
351 603
351 605
351 611
351 612
351 643
351 657
351 667
351 668
351 685
351 686
351 688
351 693
351 733
351 736
351 750
351 753
351 756
351 801
351 830
351 834
351 837
351 840
351 848
352 23
352 74
352 80
352 82
352 103
352 134
352 135
352 145
352 148
352 161
352 351
352 516
352 520
352 525
352 526
352 527
352 528
352 535
352 554
352 561
352 577
352 599
352 643
352 657
352 686
352 688
352 741
352 747
352 791
352 792
352 801
352 830
352 837
352 839
352 848
353 183
353 274
353 275
353 388
353 962
353 975
354 200
354 201
354 273
354 355
354 356
354 357
354 445
354 448
354 1028
354 1113
354 1140
354 1155
355 200
355 201
355 354
355 356
355 357
355 443
355 448
355 1028
355 1155
356 187
356 200
356 201
356 354
356 355
356 443
356 445
356 457
356 471
356 984
356 988
356 1024
356 1027
356 1028
356 1155
357 187
357 200
357 201
357 354
357 355
357 443
357 988
357 1024
357 1027
357 1028
358 165
358 166
358 168
358 289
358 874
359 172
359 293
359 360
359 936
359 937
360 172
360 293
360 351
360 359
360 528
360 544
360 728
360 792
360 796
360 831
360 832
360 936
360 938
361 112
361 120
361 164
361 167
361 325
361 341
361 432
361 439
361 492
361 504
361 505
361 513
361 532
361 539
361 719
361 771
361 815
361 852
361 863
361 1156
361 1157
362 168
362 174
362 363
362 496
362 711
362 876
363 160
363 174
363 362
363 364
363 496
363 711
363 856
363 876
364 55
364 91
364 160
364 165
364 166
364 167
364 168
364 328
364 363
364 379
364 472
364 491
364 493
364 505
364 517
364 579
364 580
364 581
364 616
364 775
364 776
364 781
364 823
364 841
364 860
364 875
364 1158
364 1159
364 1160
365 23
365 36
365 38
365 41
365 66
365 68
365 69
365 70
365 74
365 75
365 76
365 79
365 131
365 132
365 133
365 137
365 138
365 142
365 146
365 152
365 153
365 157
365 162
365 175
365 253
365 367
365 410
365 526
365 534
365 535
365 600
365 614
365 669
365 681
365 687
365 701
365 710
365 712
365 713
365 717
365 745
365 746
365 848
365 947
365 948
366 75
366 367
366 614
366 687
366 947
366 948
367 41
367 74
367 75
367 103
367 132
367 138
367 175
367 347
367 365
367 366
367 368
367 526
367 534
367 535
367 643
367 687
367 710
367 717
367 745
367 947
367 948
368 367
368 470
368 614
368 947
368 948
368 1046
369 4
369 179
369 370
369 372
369 1083
370 4
370 179
370 245
370 369
370 1078
370 1083
371 188
371 228
371 229
371 376
371 991
372 4
372 179
372 245
372 369
373 4
373 11
373 14
373 45
373 47
373 179
373 249
373 261
373 343
373 345
373 382
373 402
373 403
373 423
373 433
373 449
373 450
373 490
373 501
373 552
373 556
373 589
373 607
373 608
373 635
373 636
373 637
373 638
373 639
373 663
373 664
373 673
373 696
373 697
373 723
373 724
373 726
373 799
373 800
373 1099
373 1161
373 1165
374 248
374 249
374 261
374 375
374 377
374 450
374 671
374 1084
374 1086
374 1087
374 1089
375 248
375 249
375 374
375 375
375 377
375 1086
376 228
376 229
376 371
376 991
377 47
377 248
377 249
377 374
377 375
377 726
377 1085
377 1086
377 1087
377 1089
378 160
378 165
378 166
378 167
378 168
378 326
378 330
378 346
378 417
378 437
378 472
378 505
378 537
378 596
378 597
378 674
378 692
378 842
378 1162
379 6
379 91
379 165
379 166
379 167
379 168
379 222
379 223
379 224
379 252
379 336
379 364
379 412
379 441
379 447
379 472
379 477
379 489
379 502
379 505
379 629
379 655
379 702
379 760
379 764
379 781
379 813
379 841
379 867
379 868
379 871
379 872
379 877
379 878
379 880
379 901
379 923
379 1093
379 1171
380 18
380 22
380 96
380 167
380 189
380 270
380 271
380 698
380 804
380 833
380 1107
380 1109
381 18
381 261
381 382
381 490
381 552
381 556
381 636
381 1109
382 7
382 11
382 18
382 45
382 47
382 261
382 345
382 373
382 381
382 433
382 449
382 450
382 490
382 501
382 552
382 556
382 607
382 636
382 637
382 638
382 639
382 696
382 697
382 723
382 725
382 726
382 1099
382 1109
383 3
383 214
383 385
383 864
383 905
384 53
384 94
384 95
384 96
384 98
384 99
384 100
384 101
384 102
384 104
384 106
384 107
384 109
384 110
384 111
384 113
384 116
384 132
384 136
384 189
384 225
384 271
384 281
384 397
384 521
384 523
384 543
384 545
384 627
384 628
384 630
384 653
384 660
384 661
384 662
384 677
384 727
384 728
384 729
384 730
384 731
384 798
384 821
384 1053
384 1121
384 1164
385 195
385 214
385 268
385 383
385 427
385 582
385 583
385 584
385 585
385 586
385 587
385 598
385 902
385 1011
385 1013
385 1035
385 1106
385 1174
385 1175
386 33
386 112
386 159
386 167
386 168
386 180
386 227
386 230
386 253
386 315
386 319
386 336
386 432
386 439
386 465
386 567
386 571
386 704
386 765
386 888
387 43
387 83
387 114
387 165
387 166
387 167
387 168
387 183
387 226
387 275
387 346
387 488
387 514
387 540
387 684
387 689
387 692
387 975
388 165
388 166
388 167
388 168
388 183
388 274
388 275
388 280
388 321
388 322
388 353
388 389
388 411
388 413
388 492
388 505
388 719
388 899
388 975
388 1049
388 1120
389 183
389 275
389 388
389 393
389 411
389 438
389 485
389 499
389 500
389 899
389 924
389 975
389 976
389 1163
389 1166
390 2
390 183
390 401
390 987
390 1030
391 112
391 253
391 315
391 336
391 432
391 439
391 465
391 470
391 483
391 512
391 532
391 820
391 907
391 913
392 22
392 136
392 271
392 657
392 698
392 800
392 801
392 1164
393 168
393 183
393 220
393 334
393 389
393 394
393 411
393 426
393 438
393 485
393 499
393 500
393 675
393 899
393 912
393 971
393 976
393 977
393 1116
393 1163
393 1166
394 21
394 164
394 167
394 168
394 183
394 220
394 321
394 393
394 438
394 475
394 476
394 509
394 566
394 578
394 632
394 675
394 752
394 912
394 971
394 977
394 1147
395 167
395 338
395 396
395 770
395 895
395 1151
396 84
396 183
396 217
396 395
396 404
396 408
396 895
396 1151
397 22
397 48
397 49
397 50
397 51
397 52
397 53
397 54
397 94
397 95
397 96
397 98
397 99
397 100
397 101
397 102
397 104
397 106
397 107
397 109
397 110
397 111
397 113
397 116
397 136
397 189
397 225
397 271
397 281
397 384
397 423
397 498
397 521
397 522
397 523
397 543
397 545
397 627
397 628
397 630
397 631
397 651
397 652
397 653
397 654
397 660
397 661
397 662
397 677
397 698
397 727
397 728
397 729
397 730
397 731
397 784
397 785
397 786
397 788
397 789
397 790
397 795
397 800
397 802
397 803
397 825
397 832
397 1108
397 1121
397 1126
397 1144
397 1145
397 1164
397 1177
397 1178
398 195
398 214
398 268
398 582
398 583
398 584
398 585
398 586
398 587
398 598
398 1013
398 1035
399 228
399 229
399 1006
399 1152
400 2
400 200
400 1030
401 2
401 187
401 200
401 201
401 390
401 1030
402 45
402 47
402 167
402 168
402 261
402 345
402 373
402 403
402 433
402 449
402 490
402 556
402 607
402 638
402 664
402 697
402 889
402 1165
403 45
403 47
403 167
403 168
403 261
403 345
403 373
403 402
403 403
403 433
403 449
403 490
403 555
403 556
403 607
403 638
403 664
403 697
403 723
403 725
403 889
403 1165
404 5
404 136
404 189
404 256
404 261
404 279
404 281
404 396
404 630
404 1081
405 5
405 231
405 239
405 256
405 1068
406 83
406 160
406 163
406 164
406 165
406 166
406 167
406 168
406 176
406 529
406 530
406 536
406 537
406 538
406 794
406 856
407 43
407 165
407 166
407 167
407 168
407 321
407 346
407 437
407 438
407 541
407 542
407 689
407 692
407 752
408 163
408 164
408 167
408 168
408 183
408 312
408 321
408 333
408 337
408 396
408 411
408 470
408 500
408 509
408 511
408 532
408 578
408 632
408 752
408 770
408 861
408 899
408 1156
408 1157
408 1166
409 23
409 71
409 79
409 115
409 117
409 118
409 119
409 121
409 122
409 124
409 125
409 126
409 127
409 128
409 129
409 130
409 131
409 132
409 133
409 134
409 135
409 137
409 138
409 139
409 140
409 141
409 142
409 143
409 144
409 145
409 146
409 147
409 148
409 149
409 151
409 152
409 153
409 154
409 155
409 156
409 157
409 158
409 161
409 162
409 175
409 190
409 263
409 350
409 410
409 533
409 535
409 562
409 600
409 601
409 602
409 603
409 606
409 642
409 645
409 648
409 650
409 665
409 672
409 699
409 700
409 709
409 710
409 715
409 738
409 739
409 835
410 28
410 31
410 36
410 41
410 58
410 59
410 60
410 61
410 62
410 63
410 64
410 65
410 66
410 67
410 68
410 69
410 71
410 74
410 76
410 77
410 78
410 92
410 115
410 117
410 118
410 119
410 121
410 122
410 124
410 125
410 126
410 127
410 128
410 129
410 130
410 131
410 132
410 133
410 134
410 135
410 137
410 138
410 139
410 140
410 141
410 142
410 143
410 144
410 145
410 146
410 147
410 148
410 149
410 150
410 151
410 152
410 153
410 154
410 155
410 156
410 157
410 158
410 161
410 162
410 175
410 190
410 203
410 263
410 350
410 365
410 409
410 431
410 452
410 533
410 534
410 535
410 561
410 562
410 565
410 600
410 601
410 602
410 603
410 606
410 613
410 623
410 634
410 640
410 641
410 642
410 644
410 645
410 646
410 647
410 648
410 649
410 650
410 657
410 665
410 670
410 672
410 678
410 679
410 680
410 681
410 685
410 686
410 688
410 694
410 699
410 700
410 706
410 709
410 710
410 712
410 713
410 714
410 715
410 716
410 738
410 739
410 741
410 742
410 743
410 746
410 749
410 754
410 755
410 801
410 824
410 826
410 835
410 838
411 21
411 167
411 168
411 183
411 280
411 346
411 388
411 389
411 393
411 408
411 438
411 485
411 499
411 500
411 509
411 566
411 578
411 632
411 656
411 658
411 720
411 811
411 924
411 976
411 1115
411 1163
411 1166
412 160
412 165
412 166
412 167
412 168
412 379
412 493
412 871
412 880
413 8
413 254
413 276
413 280
413 305
413 312
413 388
413 508
413 509
413 511
413 539
413 632
413 1049
413 1156
413 1157
413 1179
413 1180
414 33
414 112
414 167
414 230
414 315
414 414
414 416
414 432
414 439
414 571
414 704
414 809
415 170
415 282
415 424
415 429
415 951
415 1008
415 1022
415 1026
416 219
416 414
416 809
417 15
417 20
417 24
417 32
417 44
417 46
417 83
417 85
417 86
417 90
417 91
417 160
417 165
417 166
417 167
417 168
417 183
417 316
417 378
417 464
417 468
417 469
417 472
417 492
417 505
417 506
417 617
417 719
417 762
417 780
417 841
417 843
417 961
417 970
417 1168
418 9
418 10
418 550
418 557
418 558
418 559
418 560
418 572
418 574
418 1027
418 1173
419 13
419 86
419 164
419 167
419 283
419 505
419 886
420 163
420 202
420 237
420 308
420 336
420 422
420 904
420 1073
421 164
421 202
421 246
421 264
421 904
421 1104
422 202
422 237
422 308
422 420
422 853
422 904
423 22
423 25
423 50
423 51
423 52
423 54
423 95
423 109
423 110
423 113
423 136
423 189
423 225
423 261
423 270
423 271
423 314
423 373
423 397
423 522
423 523
423 544
423 545
423 627
423 628
423 630
423 651
423 698
423 725
423 728
423 795
423 796
423 804
423 825
423 832
423 833
423 1144
424 177
424 213
424 282
424 415
424 425
424 951
424 1022
424 1026
424 1135
425 170
425 282
425 424
425 429
425 951
425 1008
425 1026
426 21
426 164
426 167
426 168
426 183
426 220
426 321
426 393
426 438
426 912
426 971
426 1147
427 169
427 267
427 385
427 582
427 583
427 584
427 585
427 586
427 587
427 598
427 930
427 1013
428 97
428 163
428 164
428 165
428 264
428 777
428 794
428 861
429 415
429 425
429 952
429 1022
429 1026
429 1124
430 1022
430 1026
430 1082
431 34
431 62
431 63
431 64
431 66
431 92
431 118
431 121
431 124
431 125
431 127
431 129
431 130
431 131
431 133
431 137
431 141
431 143
431 147
431 148
431 149
431 150
431 151
431 153
431 154
431 155
431 157
431 162
431 190
431 350
431 351
431 410
431 524
431 533
431 600
431 603
431 604
431 644
431 645
431 646
431 647
431 648
431 649
431 650
431 672
431 678
431 679
431 680
431 701
431 706
431 707
431 709
431 713
431 716
431 717
431 745
431 749
431 840
432 33
432 112
432 166
432 167
432 195
432 230
432 315
432 319
432 336
432 341
432 361
432 386
432 391
432 414
432 465
432 470
432 505
432 513
432 531
432 532
432 571
432 703
432 704
432 705
432 820
432 863
432 913
432 920
433 11
433 14
433 27
433 45
433 47
433 249
433 261
433 345
433 373
433 382
433 402
433 403
433 449
433 490
433 501
433 552
433 556
433 589
433 607
433 608
433 636
433 637
433 638
433 639
433 664
433 673
433 697
433 723
433 724
433 725
433 726
433 1099
433 1161
433 1165
434 112
434 160
434 164
434 165
434 166
434 167
434 168
434 466
434 782
434 817
435 160
435 165
435 166
435 168
435 482
435 491
435 494
435 496
435 855
436 195
436 740
436 994
437 165
437 166
437 167
437 168
437 330
437 346
437 378
437 407
437 440
437 472
437 505
437 692
437 842
437 846
437 1153
438 183
438 389
438 393
438 394
438 407
438 411
438 426
438 485
438 499
438 500
438 658
438 899
438 924
438 976
438 1153
438 1163
438 1166
439 33
439 112
439 167
439 230
439 315
439 319
439 336
439 341
439 361
439 386
439 391
439 414
439 470
439 513
439 531
439 532
439 571
439 705
440 26
440 165
440 166
440 167
440 168
440 183
440 346
440 437
440 472
440 505
440 568
440 978
441 6
441 222
441 223
441 224
441 379
441 493
442 6
442 224
442 489
442 813
443 187
443 200
443 273
443 300
443 355
443 356
443 357
443 448
443 454
443 457
443 984
444 6
444 167
444 224
444 342
444 477
444 872
445 187
445 200
445 201
445 354
445 356
445 448
445 454
445 457
445 984
446 6
446 210
446 224
447 165
447 166
447 167
447 168
447 379
447 477
447 489
447 493
447 502
447 813
447 872
448 200
448 201
448 273
448 354
448 355
448 443
448 445
448 455
448 457
448 471
448 984
449 11
449 14
449 45
449 47
449 261
449 345
449 373
449 382
449 402
449 403
449 433
449 490
449 501
449 552
449 556
449 589
449 607
449 608
449 635
449 636
449 637
449 638
449 639
449 663
449 664
449 673
449 696
449 697
449 724
449 725
449 726
449 1099
449 1161
449 1167
450 11
450 27
450 47
450 248
450 249
450 261
450 345
450 373
450 374
450 382
450 501
450 607
450 608
450 663
450 1099
451 51
451 102
451 158
451 271
451 277
451 452
451 453
451 510
451 590
451 630
451 633
451 731
451 740
451 994
451 1040
452 67
452 129
452 146
452 152
452 156
452 158
452 162
452 410
452 451
452 453
452 634
452 652
452 688
452 740
452 848
452 994
453 67
453 127
453 129
453 195
453 196
453 314
453 451
453 452
453 562
453 621
453 634
453 740
453 741
453 994
454 200
454 201
454 273
454 443
454 445
454 455
454 457
455 188
455 228
455 229
455 299
455 448
455 454
456 171
456 456
456 460
456 934
456 935
457 187
457 200
457 201
457 356
457 443
457 445
457 448
457 454
458 171
458 188
458 311
458 460
458 463
458 934
458 935
459 8
459 91
459 165
459 166
459 167
459 168
459 191
459 508
459 1050
460 171
460 300
460 311
460 456
460 458
460 463
460 934
460 935
460 1025
461 112
461 160
461 164
461 165
461 166
461 167
461 168
461 817
462 193
462 272
462 467
462 473
462 474
462 559
462 1009
463 171
463 311
463 458
463 460
463 934
463 935
464 43
464 123
464 165
464 166
464 167
464 168
464 183
464 417
464 468
464 514
464 674
464 689
464 732
464 1168
465 33
465 84
465 112
465 166
465 253
465 315
465 319
465 320
465 336
465 337
465 386
465 391
465 432
465 531
465 532
465 820
465 900
466 91
466 165
466 166
466 167
466 168
466 236
466 313
466 434
466 504
466 865
466 911
466 1143
466 1169
467 193
467 272
467 462
467 473
467 474
467 1007
467 1009
468 15
468 30
468 35
468 46
468 73
468 81
468 167
468 183
468 226
468 274
468 316
468 346
468 417
468 464
468 469
468 472
468 519
468 618
468 658
468 674
468 684
468 692
468 718
468 720
468 759
468 762
468 811
468 843
468 967
468 971
468 980
468 1116
468 1117
468 1119
468 1170
469 15
469 35
469 73
469 81
469 183
469 226
469 346
469 417
469 468
469 618
469 658
469 674
469 692
469 720
469 843
469 879
469 967
469 979
469 980
469 1119
469 1170
470 112
470 159
470 164
470 166
470 167
470 237
470 240
470 315
470 341
470 368
470 391
470 408
470 432
470 439
470 489
470 504
470 505
470 567
470 794
470 813
470 869
470 890
470 903
471 200
471 306
471 356
471 448
471 1113
471 1140
472 32
472 91
472 165
472 166
472 167
472 168
472 174
472 252
472 274
472 330
472 346
472 364
472 378
472 379
472 417
472 437
472 440
472 468
472 493
472 505
472 617
472 674
472 711
472 759
472 841
472 877
472 970
473 193
473 272
473 462
473 467
473 474
473 550
473 1002
473 1009
474 193
474 272
474 462
474 467
474 473
474 1002
474 1009
475 166
475 183
475 220
475 233
475 341
475 394
475 495
475 966
475 968
475 1056
476 166
476 183
476 220
476 233
476 341
476 394
476 495
476 675
476 966
476 968
476 1056
477 165
477 166
477 167
477 168
477 379
477 444
477 447
477 493
477 1171
478 168
478 234
478 480
478 481
478 573
478 758
478 763
478 850
478 854
479 164
479 166
479 168
479 227
479 805
479 920
480 163
480 164
480 165
480 234
480 264
480 478
480 573
480 758
480 763
480 850
480 854
481 191
481 234
481 478
481 573
481 758
481 763
481 850
481 854
482 160
482 164
482 165
482 166
482 168
482 435
482 491
482 845
483 112
483 166
483 167
483 253
483 391
483 571
483 920
484 80
484 103
484 161
484 195
484 516
484 520
484 643
484 733
484 736
485 21
485 167
485 183
485 389
485 393
485 411
485 438
485 499
485 500
485 506
485 566
485 899
485 924
485 976
485 1166
486 19
486 112
486 167
486 563
486 733
486 736
487 23
487 56
487 103
487 159
487 161
487 167
487 168
487 253
487 351
487 567
487 593
487 643
487 733
487 736
488 166
488 167
488 168
488 183
488 226
488 233
488 346
488 387
488 505
488 692
488 920
489 112
489 165
489 166
489 167
489 168
489 210
489 379
489 442
489 447
489 470
489 493
489 502
489 1171
490 14
490 27
490 45
490 47
490 261
490 345
490 373
490 381
490 382
490 402
490 403
490 433
490 449
490 501
490 552
490 556
490 589
490 607
490 608
490 635
490 637
490 638
490 639
490 663
490 664
490 673
490 696
490 697
490 723
490 724
490 725
490 726
490 1161
491 83
491 89
491 160
491 168
491 174
491 364
491 435
491 482
491 581
491 711
491 845
491 855
491 944
492 43
492 164
492 167
492 168
492 183
492 274
492 275
492 342
492 346
492 361
492 388
492 417
492 499
492 509
492 529
492 530
492 578
492 632
492 976
493 91
493 165
493 166
493 167
493 168
493 223
493 252
493 336
493 364
493 412
493 441
493 447
493 472
493 477
493 489
493 629
493 655
493 764
493 868
493 877
493 880
493 923
494 160
494 174
494 435
494 517
494 711
494 845
494 860
495 183
495 280
495 475
495 476
495 1117
496 165
496 166
496 168
496 362
496 363
496 435
496 845
497 123
497 165
497 166
497 167
497 168
497 274
497 732
497 759
497 1117
498 94
498 95
498 96
498 98
498 99
498 100
498 101
498 102
498 104
498 106
498 107
498 110
498 111
498 113
498 116
498 136
498 189
498 225
498 271
498 281
498 314
498 397
498 521
498 523
498 543
498 545
498 627
498 628
498 630
498 653
498 654
498 660
498 661
498 662
498 677
498 727
498 728
498 729
498 730
498 731
498 798
498 1121
498 1164
499 21
499 72
499 90
499 183
499 389
499 393
499 411
499 438
499 485
499 492
499 500
499 509
499 566
499 578
499 632
499 816
499 819
499 899
499 924
499 1163
499 1166
500 21
500 183
500 389
500 393
500 408
500 411
500 438
500 485
500 499
500 509
500 566
500 578
500 632
500 899
500 924
500 976
500 1163
501 14
501 27
501 45
501 47
501 261
501 343
501 373
501 382
501 433
501 449
501 450
501 490
501 555
501 556
501 589
501 607
501 638
501 639
501 663
501 664
501 695
501 697
501 1165
502 6
502 224
502 379
502 447
502 489
502 813
502 1171
503 114
503 123
503 164
503 316
503 503
503 540
503 541
503 542
503 569
503 570
503 691
503 708
503 718
503 732
503 737
503 1160
503 1170
504 81
504 167
504 361
504 466
504 470
504 505
504 782
505 15
505 32
505 84
505 91
505 112
505 164
505 165
505 166
505 168
505 174
505 180
505 183
505 191
505 205
505 226
505 252
505 264
505 274
505 319
505 322
505 323
505 330
505 346
505 361
505 364
505 378
505 379
505 388
505 417
505 419
505 432
505 437
505 440
505 470
505 472
505 488
505 504
505 596
505 609
505 776
505 783
505 873
505 880
505 883
505 917
505 927
505 979
505 1169
506 21
506 43
506 90
506 114
506 165
506 166
506 167
506 168
506 183
506 417
506 485
506 514
506 540
506 566
506 674
506 689
506 1163
507 234
507 235
507 573
507 758
507 763
507 851
508 254
508 276
508 305
508 312
508 413
508 459
508 509
508 511
508 515
508 632
508 1120
508 1156
508 1157
508 1179
508 1180
509 8
509 13
509 43
509 167
509 168
509 183
509 226
509 254
509 276
509 305
509 312
509 394
509 408
509 411
509 413
509 492
509 499
509 500
509 508
509 511
509 578
509 719
509 1120
509 1156
509 1157
509 1179
509 1180
510 22
510 158
510 162
510 451
510 666
510 685
510 698
510 730
510 793
510 1108
511 8
511 167
511 254
511 276
511 305
511 312
511 408
511 413
511 508
511 509
511 632
511 1120
511 1156
511 1157
511 1179
511 1180
512 112
512 159
512 167
512 168
512 315
512 336
512 391
512 532
512 571
512 810
512 820
513 112
513 315
513 341
513 361
513 432
513 439
513 863
514 24
514 30
514 90
514 183
514 387
514 464
514 506
514 879
514 979
515 8
515 91
515 165
515 166
515 167
515 168
515 508
515 882
516 23
516 75
516 146
516 157
516 158
516 175
516 190
516 351
516 352
516 484
516 525
516 526
516 527
516 528
516 554
516 561
516 604
516 606
516 642
516 747
516 829
516 848
517 164
517 165
517 166
517 167
517 168
517 328
517 364
517 494
517 579
517 580
517 581
517 775
517 776
518 657
518 801
518 810
519 165
519 166
519 167
519 168
519 183
519 274
519 468
519 892
519 964
520 80
520 127
520 128
520 139
520 153
520 157
520 158
520 161
520 162
520 352
520 484
520 554
520 563
520 606
520 612
520 648
520 667
520 668
520 739
520 751
521 48
521 49
521 50
521 51
521 52
521 53
521 54
521 94
521 95
521 96
521 98
521 99
521 100
521 101
521 102
521 104
521 106
521 107
521 109
521 110
521 111
521 113
521 116
521 136
521 189
521 225
521 271
521 281
521 314
521 384
521 397
521 498
521 522
521 523
521 543
521 544
521 545
521 611
521 612
521 627
521 628
521 630
521 651
521 652
521 653
521 654
521 660
521 661
521 662
521 677
521 727
521 728
521 729
521 730
521 731
521 784
521 785
521 786
521 789
521 790
521 795
521 796
521 802
521 803
521 810
521 825
521 832
521 1108
521 1121
521 1126
521 1144
521 1145
521 1164
521 1177
521 1178
522 94
522 95
522 96
522 98
522 99
522 100
522 101
522 102
522 104
522 106
522 107
522 109
522 110
522 111
522 113
522 116
522 136
522 189
522 225
522 271
522 281
522 397
522 423
522 521
522 543
522 545
522 627
522 628
522 630
522 652
522 653
522 654
522 660
522 661
522 662
522 677
522 727
522 728
522 729
522 730
522 731
522 810
522 1121
522 1164
523 48
523 49
523 50
523 51
523 52
523 53
523 54
523 94
523 95
523 96
523 98
523 99
523 100
523 101
523 102
523 104
523 106
523 107
523 109
523 110
523 111
523 113
523 116
523 136
523 189
523 225
523 271
523 281
523 384
523 397
523 423
523 498
523 521
523 543
523 545
523 627
523 628
523 630
523 631
523 651
523 652
523 653
523 654
523 660
523 661
523 662
523 677
523 727
523 728
523 729
523 730
523 731
523 784
523 785
523 786
523 788
523 789
523 790
523 795
523 802
523 803
523 810
523 825
523 832
523 1108
523 1121
523 1126
523 1144
523 1145
523 1164
523 1177
523 1178
524 34
524 61
524 65
524 69
524 76
524 77
524 78
524 92
524 126
524 127
524 131
524 145
524 146
524 149
524 151
524 152
524 154
524 156
524 157
524 161
524 162
524 431
524 528
524 554
524 602
524 603
524 622
524 640
524 641
524 644
524 645
524 646
524 647
524 648
524 649
524 650
524 670
524 678
524 706
524 707
524 717
524 745
524 748
524 749
524 792
524 837
525 103
525 135
525 149
525 161
525 162
525 352
525 516
525 526
525 527
525 528
525 554
525 561
525 563
525 577
525 599
525 620
525 642
525 668
525 741
525 753
525 792
525 837
525 839
526 41
526 68
526 74
526 75
526 76
526 82
526 103
526 132
526 135
526 138
526 153
526 157
526 161
526 162
526 175
526 314
526 352
526 365
526 367
526 516
526 525
526 527
526 528
526 534
526 535
526 554
526 577
526 606
526 621
526 623
526 642
526 643
526 666
526 687
526 710
526 717
526 741
526 745
526 746
526 747
526 748
526 753
526 756
526 792
526 793
526 829
526 837
526 839
527 19
527 28
527 31
527 82
527 135
527 147
527 148
527 149
527 150
527 155
527 161
527 162
527 352
527 516
527 525
527 526
527 528
527 554
527 563
527 601
527 602
527 606
527 613
527 665
527 686
527 688
527 716
527 741
527 753
527 754
527 755
527 792
527 837
528 19
528 36
528 103
528 135
528 139
528 158
528 161
528 352
528 360
528 516
528 524
528 525
528 526
528 527
528 554
528 563
528 577
528 712
528 741
528 753
528 756
528 837
528 839
529 166
529 167
529 183
529 238
529 342
529 406
529 492
529 530
529 847
529 869
530 166
530 167
530 183
530 238
530 342
530 406
530 492
530 529
530 530
530 719
530 847
530 869
531 112
531 164
531 167
531 253
531 315
531 336
531 432
531 439
531 465
531 532
531 571
531 629
531 820
531 913
532 112
532 168
532 253
532 315
532 336
532 361
532 391
532 408
532 432
532 439
532 465
532 512
532 531
532 805
532 820
532 913
533 31
533 36
533 39
533 41
533 58
533 59
533 60
533 61
533 62
533 63
533 64
533 65
533 66
533 67
533 68
533 69
533 70
533 71
533 74
533 76
533 77
533 78
533 79
533 92
533 115
533 117
533 118
533 119
533 121
533 122
533 124
533 125
533 126
533 127
533 128
533 129
533 130
533 131
533 132
533 133
533 134
533 135
533 137
533 138
533 139
533 140
533 141
533 142
533 143
533 144
533 145
533 146
533 147
533 148
533 149
533 150
533 151
533 152
533 153
533 154
533 155
533 156
533 157
533 158
533 161
533 162
533 175
533 190
533 263
533 350
533 409
533 410
533 431
533 535
533 562
533 600
533 601
533 602
533 603
533 606
533 634
533 640
533 641
533 642
533 644
533 645
533 647
533 648
533 650
533 665
533 666
533 669
533 670
533 672
533 678
533 679
533 680
533 685
533 686
533 688
533 694
533 699
533 700
533 701
533 706
533 709
533 710
533 712
533 713
533 714
533 715
533 716
533 738
533 739
533 742
533 746
533 754
533 755
533 793
533 824
533 826
534 38
534 75
534 79
534 132
534 138
534 148
534 149
534 150
534 151
534 152
534 154
534 158
534 175
534 365
534 367
534 410
534 526
534 535
534 602
534 701
534 710
534 712
534 717
534 744
534 948
535 36
535 38
535 41
535 58
535 59
535 60
535 61
535 62
535 63
535 64
535 65
535 66
535 67
535 68
535 69
535 70
535 71
535 75
535 76
535 77
535 78
535 79
535 115
535 117
535 118
535 119
535 121
535 122
535 124
535 125
535 126
535 127
535 128
535 129
535 130
535 131
535 132
535 133
535 134
535 135
535 137
535 138
535 139
535 140
535 141
535 142
535 143
535 144
535 145
535 146
535 147
535 148
535 149
535 150
535 151
535 152
535 153
535 154
535 155
535 156
535 157
535 158
535 161
535 162
535 175
535 263
535 318
535 350
535 352
535 365
535 367
535 409
535 410
535 526
535 533
535 534
535 562
535 600
535 601
535 602
535 603
535 606
535 634
535 640
535 641
535 642
535 648
535 665
535 669
535 670
535 672
535 678
535 679
535 680
535 685
535 687
535 694
535 699
535 700
535 701
535 706
535 709
535 710
535 712
535 713
535 714
535 715
535 716
535 717
535 738
535 739
535 742
535 743
535 744
535 745
535 746
535 754
535 755
535 824
535 826
536 174
536 406
536 711
536 757
537 160
537 378
537 406
537 757
537 846
538 163
538 164
538 165
538 166
538 168
538 406
538 757
539 163
539 165
539 166
539 168
539 302
539 361
539 413
539 850
539 854
539 1120
540 30
540 46
540 114
540 123
540 159
540 164
540 334
540 387
540 503
540 506
540 542
540 569
540 570
540 579
540 581
540 684
540 721
540 722
540 822
540 823
540 980
541 26
541 44
541 114
541 123
541 159
541 163
541 164
541 226
541 258
541 328
541 335
541 407
541 503
541 542
541 569
541 570
541 658
541 690
541 720
541 781
541 811
541 875
542 26
542 44
542 114
542 123
542 159
542 163
542 164
542 226
542 258
542 328
542 335
542 407
542 503
542 540
542 541
542 542
542 569
542 570
542 658
542 690
542 691
542 708
542 720
542 732
542 737
542 781
542 811
542 875
543 48
543 49
543 50
543 51
543 52
543 53
543 54
543 94
543 95
543 96
543 98
543 99
543 100
543 101
543 102
543 104
543 106
543 107
543 109
543 110
543 111
543 113
543 116
543 136
543 189
543 225
543 270
543 271
543 281
543 384
543 397
543 498
543 521
543 522
543 523
543 545
543 627
543 628
543 630
543 651
543 652
543 653
543 654
543 660
543 661
543 662
543 677
543 727
543 728
543 729
543 730
543 731
543 784
543 785
543 786
543 789
543 790
543 795
543 802
543 803
543 825
543 832
543 833
543 1108
543 1121
543 1126
543 1144
543 1145
543 1164
543 1177
543 1178
544 52
544 54
544 107
544 109
544 113
544 136
544 189
544 270
544 271
544 281
544 314
544 360
544 423
544 521
544 545
544 630
544 631
544 788
544 799
544 833
545 22
545 48
545 49
545 50
545 51
545 53
545 54
545 94
545 95
545 96
545 98
545 99
545 100
545 101
545 102
545 104
545 106
545 107
545 109
545 110
545 111
545 113
545 116
545 136
545 189
545 225
545 270
545 271
545 281
545 314
545 384
545 397
545 423
545 498
545 521
545 522
545 523
545 543
545 544
545 627
545 628
545 630
545 651
545 652
545 653
545 654
545 660
545 661
545 662
545 677
545 698
545 727
545 728
545 729
545 730
545 731
545 784
545 785
545 786
545 789
545 790
545 795
545 796
545 799
545 802
545 803
545 825
545 832
545 833
545 1108
545 1121
545 1126
545 1144
545 1145
545 1164
545 1177
545 1178
546 174
546 205
546 615
546 711
546 766
547 261
547 345
547 552
547 555
547 556
547 1167
548 167
548 168
548 205
548 564
548 766
549 259
549 260
549 310
549 311
549 1025
549 1141
550 9
550 10
550 193
550 311
550 418
550 473
550 557
550 558
550 559
550 560
550 572
550 574
550 1025
550 1173
551 186
551 228
551 229
551 282
551 294
551 309
551 311
551 339
551 1025
551 1172
552 27
552 45
552 47
552 261
552 345
552 373
552 381
552 382
552 433
552 449
552 490
552 547
552 555
552 556
552 607
552 638
552 664
552 697
552 1167
553 93
553 164
553 165
553 166
553 167
553 168
553 797
554 80
554 92
554 135
554 145
554 161
554 351
554 352
554 516
554 520
554 524
554 525
554 526
554 527
554 528
554 647
554 686
554 688
554 741
554 753
554 792
554 839
555 167
555 261
555 345
555 403
555 501
555 547
555 552
555 556
556 27
556 45
556 47
556 261
556 345
556 373
556 381
556 382
556 402
556 403
556 433
556 449
556 490
556 501
556 547
556 552
556 555
556 556
556 607
556 608
556 636
556 637
556 638
556 639
556 664
556 673
556 696
556 697
556 723
556 724
556 725
556 726
556 1167
557 9
557 10
557 418
557 550
557 557
557 558
557 559
557 560
557 572
557 574
557 1173
558 9
558 418
558 550
558 557
558 559
558 560
558 572
558 574
558 1173
559 9
559 10
559 193
559 418
559 462
559 550
559 557
559 558
559 560
559 572
559 574
559 1113
559 1173
560 9
560 10
560 188
560 228
560 229
560 418
560 550
560 557
560 558
560 559
560 572
560 574
560 575
560 576
560 624
560 625
560 626
560 990
560 1062
560 1173
561 28
561 36
561 63
561 66
561 70
561 75
561 76
561 77
561 78
561 124
561 139
561 145
561 147
561 148
561 149
561 154
561 156
561 157
561 161
561 162
561 175
561 352
561 410
561 516
561 525
561 577
561 600
561 602
561 604
561 613
561 640
561 648
561 669
561 670
561 712
561 753
561 756
562 58
562 59
562 60
562 61
562 62
562 63
562 64
562 65
562 66
562 67
562 68
562 69
562 70
562 71
562 74
562 76
562 77
562 78
562 92
562 115
562 117
562 118
562 119
562 121
562 122
562 124
562 125
562 126
562 127
562 128
562 129
562 130
562 131
562 133
562 134
562 135
562 137
562 138
562 139
562 140
562 141
562 142
562 143
562 144
562 145
562 146
562 147
562 148
562 149
562 150
562 151
562 152
562 153
562 154
562 155
562 156
562 157
562 158
562 161
562 162
562 175
562 263
562 350
562 409
562 410
562 453
562 533
562 535
562 577
562 600
562 601
562 602
562 603
562 606
562 634
562 640
562 641
562 642
562 647
562 648
562 665
562 669
562 670
562 672
562 678
562 679
562 680
562 685
562 686
562 688
562 694
562 699
562 700
562 706
562 709
562 713
562 714
562 715
562 716
562 738
562 739
562 742
562 746
562 754
562 755
562 756
562 826
563 19
563 67
563 80
563 82
563 129
563 142
563 150
563 155
563 161
563 162
563 175
563 351
563 486
563 520
563 525
563 527
563 528
563 563
563 577
563 599
563 602
563 606
563 622
563 634
563 667
563 668
563 672
563 693
563 750
563 756
564 168
564 215
564 548
564 922
565 103
565 145
565 151
565 156
565 157
565 162
565 410
565 604
565 640
565 643
565 743
565 838
566 167
566 183
566 394
566 411
566 485
566 499
566 500
566 506
566 656
566 676
566 819
567 84
567 112
567 164
567 165
567 166
567 168
567 183
567 227
567 283
567 336
567 386
567 470
567 487
567 655
567 773
568 43
568 160
568 165
568 166
568 167
568 168
568 183
568 440
568 570
568 689
568 708
569 57
569 114
569 123
569 159
569 163
569 164
569 503
569 540
569 541
569 542
569 569
569 570
569 616
569 617
569 618
569 691
569 708
569 732
569 737
570 35
570 114
570 123
570 159
570 163
570 164
570 503
570 540
570 541
570 542
570 568
570 569
570 570
570 691
570 708
570 732
570 737
571 33
571 112
571 166
571 167
571 217
571 240
571 253
571 386
571 414
571 432
571 439
571 483
571 512
571 531
571 703
571 903
571 907
572 10
572 418
572 550
572 557
572 558
572 559
572 560
572 574
573 91
573 163
573 165
573 168
573 191
573 235
573 478
573 480
573 481
573 507
573 588
573 763
573 854
574 10
574 418
574 550
574 557
574 558
574 559
574 560
574 572
574 1173
575 188
575 228
575 229
575 299
575 332
575 560
575 576
575 624
575 626
575 990
575 1062
576 188
576 228
576 229
576 332
576 340
576 560
576 575
576 624
576 625
576 626
576 990
576 1062
577 69
577 82
577 103
577 131
577 145
577 158
577 161
577 162
577 351
577 352
577 525
577 526
577 528
577 561
577 562
577 563
577 640
577 643
577 685
577 686
577 688
577 753
578 13
578 21
578 167
578 168
578 183
578 217
578 226
578 280
578 331
578 394
578 408
578 411
578 492
578 499
578 500
578 509
578 892
578 968
579 114
579 165
579 166
579 167
579 168
579 364
579 517
579 540
579 581
579 775
579 776
579 860
580 123
580 165
580 166
580 167
580 168
580 364
580 517
580 732
580 860
581 114
581 165
581 166
581 167
581 168
581 364
581 491
581 517
581 540
581 579
581 775
581 776
581 860
582 267
582 268
582 385
582 398
582 427
582 583
582 584
582 585
582 586
582 587
582 598
582 902
582 1011
582 1013
582 1106
582 1174
582 1175
583 268
583 385
583 398
583 427
583 582
583 584
583 585
583 586
583 587
583 598
583 902
583 1011
583 1013
583 1174
583 1175
584 195
584 268
584 385
584 398
584 427
584 582
584 583
584 585
584 586
584 587
584 598
584 902
584 1013
584 1106
584 1174
584 1175
585 268
585 385
585 398
585 427
585 582
585 583
585 584
585 586
585 587
585 598
585 902
585 1011
585 1013
585 1106
585 1174
585 1175
586 268
586 385
586 398
586 427
586 582
586 583
586 584
586 585
586 587
586 598
586 902
586 1011
586 1013
586 1106
586 1175
587 167
587 268
587 385
587 398
587 427
587 582
587 583
587 584
587 585
587 586
587 598
587 1011
587 1013
587 1106
587 1174
587 1175
588 17
588 97
588 108
588 120
588 164
588 165
588 166
588 167
588 168
588 234
588 573
588 610
588 771
588 787
589 27
589 45
589 261
589 343
589 345
589 373
589 433
589 449
589 490
589 501
589 608
589 636
589 638
589 663
589 664
589 697
589 723
589 724
589 725
590 196
590 269
590 451
590 591
590 592
590 594
590 595
590 619
590 812
590 818
590 1014
590 1176
591 12
591 196
591 267
591 269
591 590
591 592
591 594
591 595
591 619
591 812
591 818
591 1014
591 1176
592 12
592 196
592 206
592 212
592 269
592 292
592 322
592 590
592 591
592 594
592 595
592 619
592 812
592 818
592 1014
592 1176
593 101
593 103
593 106
593 107
593 109
593 113
593 116
593 136
593 155
593 271
593 281
593 351
593 487
593 601
593 604
593 612
593 613
593 627
593 630
593 660
593 661
593 734
593 736
594 12
594 196
594 269
594 590
594 591
594 592
594 594
594 595
594 619
594 812
594 818
594 1014
594 1176
595 12
595 196
595 269
595 590
595 591
595 592
595 594
595 619
595 812
595 818
595 1014
596 123
596 165
596 166
596 167
596 168
596 378
596 505
596 732
596 846
597 123
597 165
597 166
597 167
597 168
597 378
597 732
597 846
598 268
598 385
598 398
598 427
598 582
598 583
598 584
598 585
598 586
598 587
598 598
598 902
598 1011
598 1013
598 1106
598 1174
598 1175
599 19
599 135
599 162
599 350
599 351
599 352
599 525
599 563
599 667
599 693
599 747
599 791
599 831
600 36
600 58
600 59
600 60
600 61
600 62
600 63
600 64
600 65
600 67
600 68
600 69
600 70
600 71
600 74
600 76
600 77
600 78
600 92
600 115
600 117
600 118
600 119
600 121
600 122
600 124
600 125
600 126
600 127
600 128
600 129
600 130
600 131
600 133
600 134
600 135
600 137
600 138
600 139
600 140
600 141
600 142
600 143
600 144
600 145
600 146
600 147
600 148
600 149
600 150
600 151
600 152
600 153
600 154
600 155
600 156
600 157
600 158
600 161
600 162
600 190
600 263
600 350
600 351
600 365
600 409
600 410
600 431
600 533
600 535
600 561
600 562
600 601
600 602
600 603
600 606
600 634
600 640
600 641
600 642
600 648
600 665
600 669
600 670
600 672
600 678
600 679
600 680
600 681
600 685
600 694
600 699
600 700
600 701
600 706
600 709
600 712
600 713
600 714
600 715
600 716
600 738
600 739
600 742
600 746
600 754
600 755
600 824
600 826
600 831
601 56
601 59
601 60
601 61
601 62
601 63
601 64
601 65
601 66
601 67
601 68
601 69
601 70
601 71
601 74
601 76
601 77
601 78
601 115
601 117
601 118
601 119
601 121
601 122
601 124
601 125
601 126
601 127
601 128
601 129
601 130
601 131
601 133
601 134
601 135
601 137
601 138
601 139
601 140
601 141
601 142
601 143
601 144
601 145
601 146
601 147
601 148
601 149
601 150
601 151
601 152
601 153
601 154
601 155
601 156
601 157
601 158
601 161
601 162
601 263
601 350
601 409
601 410
601 527
601 533
601 535
601 562
601 593
601 600
601 602
601 603
601 604
601 606
601 634
601 640
601 641
601 642
601 648
601 665
601 669
601 670
601 672
601 678
601 679
601 680
601 685
601 694
601 699
601 700
601 706
601 709
601 713
601 714
601 715
601 716
601 734
601 738
601 739
601 742
601 746
601 754
601 755
601 824
601 826
601 839
602 19
602 28
602 31
602 34
602 36
602 38
602 41
602 58
602 59
602 60
602 61
602 62
602 63
602 64
602 65
602 66
602 67
602 68
602 69
602 70
602 71
602 74
602 75
602 76
602 77
602 78
602 82
602 92
602 103
602 115
602 117
602 118
602 119
602 121
602 122
602 124
602 125
602 126
602 127
602 128
602 129
602 130
602 131
602 132
602 133
602 134
602 135
602 137
602 138
602 139
602 140
602 141
602 142
602 143
602 144
602 145
602 146
602 147
602 148
602 149
602 150
602 151
602 152
602 153
602 154
602 155
602 156
602 157
602 158
602 161
602 162
602 175
602 190
602 206
602 263
602 317
602 350
602 409
602 410
602 524
602 527
602 533
602 534
602 535
602 561
602 562
602 563
602 600
602 601
602 603
602 606
602 613
602 620
602 634
602 640
602 641
602 642
602 644
602 645
602 646
602 647
602 648
602 649
602 650
602 665
602 667
602 669
602 670
602 672
602 678
602 679
602 680
602 685
602 687
602 693
602 694
602 699
602 700
602 706
602 709
602 712
602 713
602 714
602 715
602 716
602 738
602 739
602 741
602 742
602 743
602 746
602 754
602 755
602 824
602 826
602 838
602 839
602 840
603 34
603 36
603 38
603 39
603 41
603 58
603 59
603 60
603 61
603 62
603 63
603 64
603 65
603 66
603 67
603 68
603 69
603 70
603 71
603 74
603 75
603 76
603 77
603 78
603 79
603 80
603 92
603 115
603 117
603 118
603 119
603 121
603 122
603 124
603 125
603 126
603 127
603 128
603 129
603 130
603 131
603 132
603 133
603 134
603 135
603 137
603 138
603 139
603 140
603 141
603 142
603 143
603 144
603 145
603 146
603 147
603 148
603 149
603 150
603 151
603 152
603 153
603 154
603 155
603 156
603 157
603 158
603 161
603 162
603 175
603 190
603 263
603 350
603 351
603 409
603 410
603 431
603 524
603 533
603 535
603 562
603 600
603 601
603 602
603 604
603 606
603 634
603 640
603 641
603 642
603 646
603 647
603 648
603 649
603 665
603 669
603 670
603 672
603 678
603 679
603 680
603 685
603 687
603 694
603 699
603 700
603 701
603 709
603 710
603 712
603 713
603 714
603 715
603 716
603 738
603 739
603 741
603 742
603 746
603 754
603 755
603 824
603 826
603 831
604 36
604 56
604 65
604 68
604 76
604 77
604 78
604 139
604 145
604 146
604 152
604 153
604 155
604 156
604 157
604 161
604 162
604 190
604 431
604 516
604 561
604 565
604 593
604 601
604 603
604 613
604 640
604 686
604 688
604 712
604 734
604 746
605 56
605 103
605 107
605 109
605 136
605 158
605 196
605 208
605 257
605 261
605 271
605 277
605 281
605 351
605 627
605 643
605 657
605 660
605 661
605 801
605 831
606 19
606 58
606 59
606 60
606 61
606 62
606 63
606 64
606 65
606 66
606 67
606 68
606 69
606 70
606 71
606 74
606 76
606 77
606 78
606 80
606 115
606 117
606 118
606 119
606 121
606 122
606 124
606 125
606 126
606 127
606 128
606 129
606 130
606 131
606 133
606 134
606 135
606 137
606 138
606 139
606 140
606 141
606 142
606 143
606 144
606 145
606 146
606 147
606 148
606 149
606 150
606 151
606 152
606 153
606 154
606 155
606 156
606 157
606 158
606 161
606 162
606 263
606 350
606 409
606 410
606 516
606 520
606 526
606 527
606 533
606 535
606 562
606 563
606 600
606 601
606 602
606 603
606 634
606 640
606 641
606 642
606 648
606 665
606 667
606 669
606 670
606 672
606 678
606 679
606 680
606 685
606 686
606 688
606 693
606 694
606 699
606 700
606 706
606 709
606 713
606 714
606 715
606 716
606 738
606 739
606 742
606 746
606 754
606 755
606 824
606 826
606 829
606 839
607 45
607 47
607 261
607 345
607 373
607 382
607 402
607 403
607 433
607 449
607 450
607 490
607 501
607 552
607 556
607 608
607 636
607 637
607 638
607 639
607 663
607 664
607 673
607 696
607 697
607 723
607 724
607 725
607 726
608 7
608 11
608 27
608 45
608 47
608 256
608 261
608 273
608 343
608 345
608 373
608 433
608 449
608 450
608 490
608 556
608 589
608 607
608 638
608 663
608 664
608 673
608 697
609 17
609 97
609 108
609 164
609 165
609 166
609 167
609 168
609 505
609 610
609 783
609 787
610 17
610 97
610 108
610 120
610 163
610 164
610 165
610 166
610 167
610 168
610 588
610 609
610 610
610 787
611 56
611 98
611 101
611 104
611 106
611 109
611 113
611 116
611 136
611 281
611 351
611 521
611 627
611 630
611 653
611 660
611 661
611 662
611 667
611 734
612 56
612 80
612 98
612 101
612 104
612 106
612 109
612 113
612 116
612 136
612 281
612 351
612 520
612 521
612 593
612 627
612 630
612 653
612 660
612 661
612 662
612 667
612 693
612 734
613 22
613 25
613 56
613 82
613 84
613 103
613 132
613 143
613 144
613 146
613 147
613 149
613 151
613 152
613 153
613 154
613 156
613 157
613 158
613 161
613 162
613 183
613 190
613 410
613 527
613 561
613 593
613 602
613 604
613 620
613 642
613 668
613 686
613 688
613 698
613 734
614 175
614 347
614 365
614 366
614 368
614 948
615 167
615 312
615 324
615 326
615 328
615 546
615 869
615 890
616 55
616 165
616 166
616 167
616 168
616 364
616 569
616 737
617 43
617 90
617 165
617 166
617 167
617 168
617 417
617 472
617 569
617 674
617 689
617 737
618 43
618 165
618 166
618 167
618 168
618 274
618 468
618 469
618 569
618 689
618 737
618 759
619 12
619 196
619 269
619 590
619 591
619 592
619 594
619 595
619 619
619 812
619 818
619 1014
619 1176
620 28
620 63
620 76
620 77
620 78
620 103
620 119
620 124
620 128
620 153
620 156
620 157
620 162
620 525
620 602
620 613
620 621
620 622
620 623
620 643
620 645
620 657
620 700
620 739
620 747
620 791
620 801
621 76
621 77
621 78
621 103
621 156
621 157
621 453
621 526
621 620
621 622
621 623
621 643
621 747
621 791
622 19
622 69
622 76
622 77
622 78
622 103
622 131
622 145
622 149
622 151
622 156
622 157
622 162
622 524
622 563
622 620
622 621
622 623
622 640
622 643
622 747
622 791
623 76
623 77
623 78
623 103
623 124
623 145
623 151
623 153
623 156
623 157
623 162
623 410
623 526
623 620
623 621
623 622
623 643
623 747
623 791
623 829
624 188
624 228
624 229
624 560
624 575
624 576
624 624
624 625
624 626
624 990
624 1062
625 188
625 228
625 229
625 299
625 332
625 560
625 576
625 624
625 626
626 188
626 228
626 229
626 560
626 575
626 576
626 624
626 625
627 16
627 22
627 48
627 49
627 50
627 51
627 52
627 53
627 54
627 56
627 94
627 95
627 96
627 98
627 99
627 100
627 101
627 102
627 104
627 106
627 107
627 109
627 110
627 111
627 113
627 116
627 136
627 189
627 225
627 271
627 281
627 314
627 384
627 397
627 423
627 498
627 521
627 522
627 523
627 543
627 545
627 593
627 605
627 611
627 612
627 628
627 630
627 631
627 651
627 652
627 653
627 654
627 657
627 660
627 661
627 662
627 677
627 698
627 727
627 728
627 729
627 730
627 731
627 735
627 784
627 785
627 786
627 788
627 789
627 790
627 795
627 799
627 801
627 802
627 803
627 825
627 832
627 1108
627 1121
627 1126
627 1145
627 1164
627 1177
627 1178
628 48
628 49
628 50
628 51
628 52
628 53
628 54
628 94
628 95
628 96
628 98
628 99
628 100
628 101
628 102
628 104
628 106
628 107
628 109
628 110
628 111
628 113
628 116
628 136
628 189
628 225
628 271
628 281
628 314
628 384
628 397
628 423
628 498
628 521
628 522
628 523
628 543
628 545
628 627
628 628
628 630
628 651
628 652
628 653
628 654
628 660
628 661
628 662
628 677
628 727
628 728
628 729
628 730
628 731
628 784
628 785
628 786
628 789
628 790
628 795
628 799
628 802
628 803
628 825
628 832
628 1108
628 1121
628 1126
628 1144
628 1145
628 1164
628 1177
628 1178
629 112
629 164
629 165
629 166
629 167
629 168
629 253
629 379
629 493
629 531
629 794
630 22
630 48
630 49
630 50
630 51
630 52
630 53
630 54
630 56
630 94
630 95
630 96
630 98
630 99
630 100
630 101
630 102
630 104
630 106
630 107
630 109
630 110
630 111
630 113
630 116
630 136
630 189
630 225
630 271
630 281
630 384
630 397
630 404
630 423
630 451
630 498
630 521
630 522
630 523
630 543
630 544
630 545
630 593
630 611
630 612
630 627
630 628
630 630
630 631
630 651
630 652
630 653
630 654
630 657
630 660
630 661
630 662
630 677
630 698
630 727
630 728
630 729
630 730
630 731
630 784
630 785
630 786
630 788
630 789
630 790
630 795
630 796
630 801
630 802
630 803
630 825
630 832
630 1108
630 1121
630 1126
630 1144
630 1145
630 1164
630 1177
630 1178
631 22
631 54
631 99
631 100
631 113
631 136
631 164
631 189
631 212
631 271
631 281
631 285
631 292
631 397
631 523
631 544
631 627
631 630
631 652
631 653
631 654
631 698
631 796
632 13
632 43
632 167
632 168
632 183
632 226
632 276
632 312
632 394
632 408
632 411
632 413
632 492
632 499
632 500
632 508
632 511
632 1157
632 1180
633 250
633 271
633 451
633 740
633 1121
633 1122
634 80
634 92
634 115
634 117
634 118
634 119
634 121
634 122
634 124
634 125
634 126
634 127
634 128
634 130
634 131
634 133
634 134
634 135
634 137
634 138
634 139
634 140
634 141
634 142
634 143
634 144
634 145
634 146
634 147
634 148
634 149
634 150
634 151
634 152
634 153
634 154
634 155
634 156
634 157
634 158
634 161
634 162
634 190
634 263
634 350
634 410
634 452
634 453
634 533
634 535
634 562
634 563
634 600
634 601
634 602
634 603
634 606
634 642
634 648
634 650
634 665
634 672
634 699
634 700
634 701
634 709
634 715
634 717
634 738
634 739
634 740
635 14
635 45
635 261
635 345
635 373
635 449
635 490
635 636
635 637
635 638
635 639
635 1161
636 14
636 27
636 45
636 47
636 261
636 345
636 373
636 381
636 382
636 433
636 449
636 556
636 589
636 607
636 635
636 638
636 639
636 664
636 673
636 697
637 14
637 27
637 45
637 47
637 261
637 345
637 373
637 382
637 433
637 449
637 490
637 556
637 607
637 635
637 638
637 664
637 697
638 14
638 45
638 47
638 261
638 345
638 373
638 382
638 402
638 403
638 433
638 449
638 490
638 501
638 552
638 556
638 589
638 607
638 608
638 635
638 636
638 637
638 639
638 664
638 695
638 697
638 723
638 725
638 726
639 14
639 27
639 45
639 47
639 261
639 345
639 373
639 382
639 433
639 449
639 490
639 501
639 556
639 607
639 635
639 636
639 638
639 664
639 697
639 723
639 1161
640 29
640 31
640 80
640 82
640 92
640 115
640 117
640 118
640 119
640 121
640 122
640 124
640 125
640 126
640 127
640 128
640 129
640 130
640 131
640 132
640 133
640 134
640 135
640 137
640 138
640 139
640 140
640 141
640 142
640 143
640 144
640 146
640 147
640 148
640 149
640 150
640 151
640 152
640 153
640 154
640 155
640 156
640 157
640 158
640 161
640 162
640 175
640 263
640 350
640 410
640 524
640 533
640 535
640 561
640 562
640 565
640 577
640 600
640 601
640 602
640 603
640 604
640 606
640 622
640 642
640 646
640 648
640 650
640 665
640 666
640 672
640 699
640 700
640 701
640 709
640 715
640 738
640 739
640 748
640 829
641 29
641 31
641 115
641 117
641 118
641 119
641 121
641 122
641 124
641 125
641 126
641 127
641 128
641 129
641 130
641 131
641 132
641 133
641 134
641 135
641 137
641 138
641 139
641 140
641 141
641 142
641 143
641 144
641 145
641 146
641 147
641 148
641 149
641 150
641 151
641 152
641 153
641 154
641 155
641 156
641 157
641 158
641 161
641 162
641 175
641 263
641 350
641 410
641 524
641 533
641 535
641 562
641 600
641 601
641 602
641 603
641 606
641 642
641 648
641 650
641 665
641 666
641 672
641 699
641 700
641 709
641 712
641 715
641 738
641 739
641 829
642 28
642 58
642 59
642 60
642 61
642 62
642 63
642 64
642 65
642 66
642 67
642 68
642 69
642 70
642 71
642 74
642 76
642 77
642 78
642 115
642 117
642 118
642 119
642 121
642 122
642 124
642 125
642 126
642 127
642 128
642 129
642 130
642 131
642 133
642 134
642 135
642 137
642 138
642 139
642 140
642 141
642 142
642 143
642 144
642 145
642 146
642 147
642 148
642 149
642 150
642 151
642 152
642 153
642 154
642 155
642 156
642 157
642 158
642 161
642 162
642 263
642 350
642 409
642 410
642 516
642 525
642 526
642 533
642 535
642 562
642 600
642 601
642 602
642 603
642 606
642 613
642 634
642 640
642 641
642 648
642 657
642 665
642 669
642 670
642 672
642 678
642 679
642 680
642 685
642 686
642 688
642 694
642 699
642 700
642 706
642 709
642 713
642 714
642 715
642 716
642 738
642 739
642 742
642 746
642 754
642 755
642 801
642 824
642 826
642 829
643 18
643 25
643 56
643 75
643 82
643 103
643 145
643 149
643 156
643 157
643 158
643 161
643 190
643 351
643 352
643 367
643 484
643 487
643 526
643 565
643 577
643 605
643 620
643 621
643 622
643 623
643 710
643 736
643 743
643 747
644 34
644 92
644 126
644 129
644 139
644 144
644 145
644 147
644 148
644 149
644 150
644 151
644 153
644 156
644 157
644 162
644 263
644 410
644 431
644 524
644 533
644 602
644 645
644 646
644 648
644 649
644 672
644 700
644 707
644 717
644 749
645 34
645 68
645 70
645 76
645 77
645 78
645 92
645 119
645 122
645 125
645 128
645 132
645 135
645 149
645 150
645 151
645 152
645 153
645 155
645 156
645 157
645 161
645 162
645 263
645 409
645 410
645 431
645 524
645 533
645 602
645 620
645 644
645 646
645 647
645 648
645 649
645 650
645 669
645 670
645 678
645 707
645 717
645 739
645 745
645 746
645 749
646 34
646 70
646 92
646 134
646 137
646 145
646 150
646 152
646 162
646 263
646 410
646 431
646 524
646 602
646 603
646 640
646 644
646 645
646 647
646 648
646 649
646 650
646 669
646 707
646 717
646 745
646 749
647 29
647 34
647 118
647 122
647 124
647 125
647 127
647 129
647 130
647 131
647 133
647 137
647 141
647 142
647 143
647 145
647 146
647 147
647 148
647 149
647 150
647 151
647 152
647 153
647 154
647 155
647 156
647 158
647 162
647 410
647 431
647 524
647 533
647 554
647 562
647 602
647 603
647 645
647 646
647 648
647 649
647 650
647 665
647 666
647 700
647 701
647 707
647 717
647 741
647 749
648 34
648 36
648 58
648 59
648 60
648 61
648 62
648 63
648 64
648 65
648 66
648 67
648 68
648 69
648 70
648 71
648 74
648 76
648 77
648 78
648 79
648 80
648 92
648 115
648 117
648 118
648 119
648 121
648 122
648 124
648 125
648 126
648 127
648 128
648 129
648 130
648 131
648 133
648 134
648 135
648 137
648 138
648 139
648 140
648 141
648 142
648 143
648 144
648 145
648 146
648 147
648 148
648 149
648 150
648 151
648 152
648 153
648 154
648 155
648 156
648 157
648 158
648 161
648 162
648 263
648 350
648 409
648 410
648 431
648 520
648 524
648 533
648 535
648 561
648 562
648 600
648 601
648 602
648 603
648 606
648 634
648 640
648 641
648 642
648 644
648 645
648 646
648 647
648 649
648 650
648 665
648 669
648 670
648 672
648 678
648 679
648 680
648 685
648 694
648 699
648 700
648 706
648 707
648 709
648 712
648 713
648 714
648 715
648 716
648 717
648 738
648 739
648 742
648 745
648 746
648 749
648 754
648 755
648 824
648 826
649 34
649 69
649 92
649 121
649 125
649 129
649 130
649 131
649 133
649 143
649 144
649 145
649 147
649 151
649 152
649 153
649 156
649 195
649 410
649 431
649 524
649 602
649 603
649 644
649 645
649 646
649 647
649 648
649 650
649 679
649 680
649 701
649 707
649 713
649 717
649 745
649 749
649 826
650 31
650 34
650 67
650 68
650 70
650 76
650 77
650 78
650 92
650 126
650 128
650 129
650 139
650 144
650 145
650 147
650 148
650 149
650 150
650 151
650 153
650 156
650 157
650 162
650 263
650 409
650 410
650 431
650 524
650 533
650 602
650 634
650 640
650 641
650 645
650 646
650 647
650 648
650 649
650 669
650 670
650 672
650 678
650 694
650 700
650 707
650 717
650 745
650 746
650 749
651 16
651 18
651 56
651 94
651 95
651 96
651 98
651 99
651 100
651 101
651 102
651 104
651 106
651 107
651 109
651 110
651 111
651 113
651 116
651 136
651 189
651 225
651 270
651 281
651 314
651 397
651 423
651 521
651 523
651 543
651 545
651 627
651 628
651 630
651 653
651 660
651 661
651 662
651 677
651 727
651 728
651 729
651 730
651 731
651 821
651 1121
651 1164
652 94
652 95
652 96
652 98
652 99
652 100
652 101
652 102
652 104
652 106
652 107
652 109
652 110
652 111
652 113
652 116
652 136
652 189
652 225
652 271
652 281
652 397
652 452
652 521
652 522
652 523
652 543
652 545
652 627
652 628
652 630
652 631
652 653
652 660
652 661
652 662
652 677
652 727
652 728
652 729
652 730
652 731
652 788
652 789
652 803
652 1121
652 1164
653 22
653 48
653 49
653 50
653 51
653 52
653 53
653 54
653 94
653 95
653 96
653 98
653 99
653 100
653 101
653 102
653 104
653 106
653 107
653 109
653 110
653 111
653 113
653 116
653 136
653 189
653 225
653 271
653 281
653 384
653 397
653 498
653 521
653 522
653 523
653 543
653 545
653 611
653 612
653 627
653 628
653 630
653 631
653 651
653 652
653 654
653 660
653 661
653 662
653 677
653 698
653 727
653 728
653 729
653 730
653 731
653 785
653 786
653 788
653 789
653 790
653 795
653 802
653 803
653 825
653 832
653 1108
653 1121
653 1126
653 1144
653 1145
653 1164
653 1177
653 1178
654 49
654 50
654 52
654 53
654 94
654 95
654 96
654 98
654 99
654 100
654 101
654 102
654 104
654 106
654 107
654 109
654 110
654 111
654 113
654 116
654 136
654 189
654 225
654 271
654 281
654 397
654 498
654 521
654 522
654 523
654 543
654 545
654 627
654 628
654 630
654 631
654 653
654 660
654 661
654 662
654 677
654 727
654 728
654 729
654 730
654 731
654 785
654 786
654 788
654 790
654 1108
654 1121
654 1164
654 1178
655 17
655 159
655 165
655 167
655 274
655 379
655 493
655 567
655 759
656 21
656 43
656 123
656 165
656 166
656 167
656 168
656 274
656 411
656 566
656 689
656 732
656 759
657 110
657 111
657 116
657 136
657 150
657 152
657 153
657 155
657 156
657 157
657 158
657 162
657 189
657 277
657 281
657 350
657 351
657 352
657 392
657 410
657 518
657 605
657 620
657 627
657 630
657 642
657 660
657 661
657 735
658 43
658 165
658 166
658 167
658 168
658 274
658 411
658 438
658 468
658 469
658 541
658 542
658 689
658 759
659 43
659 123
659 165
659 166
659 167
659 168
659 183
659 274
659 689
659 721
659 732
659 759
660 48
660 49
660 50
660 51
660 52
660 53
660 54
660 56
660 94
660 95
660 96
660 98
660 99
660 100
660 101
660 102
660 104
660 106
660 107
660 109
660 110
660 111
660 113
660 116
660 136
660 189
660 225
660 271
660 281
660 384
660 397
660 498
660 521
660 522
660 523
660 543
660 545
660 593
660 605
660 611
660 612
660 627
660 628
660 630
660 651
660 652
660 653
660 654
660 657
660 661
660 662
660 677
660 727
660 728
660 729
660 730
660 731
660 735
660 784
660 785
660 786
660 789
660 790
660 795
660 801
660 802
660 803
660 825
660 832
660 1108
660 1121
660 1126
660 1144
660 1145
660 1164
660 1177
660 1178
661 16
661 48
661 49
661 50
661 51
661 52
661 53
661 54
661 56
661 94
661 95
661 96
661 98
661 99
661 100
661 101
661 102
661 104
661 106
661 107
661 109
661 110
661 111
661 113
661 116
661 136
661 189
661 225
661 271
661 281
661 384
661 397
661 498
661 521
661 522
661 523
661 543
661 545
661 593
661 605
661 611
661 612
661 627
661 628
661 630
661 651
661 652
661 653
661 654
661 657
661 660
661 662
661 677
661 727
661 728
661 729
661 730
661 731
661 735
661 784
661 785
661 786
661 789
661 790
661 795
661 801
661 802
661 803
661 825
661 832
661 1108
661 1121
661 1126
661 1144
661 1145
661 1164
661 1178
662 16
662 48
662 49
662 50
662 51
662 52
662 53
662 54
662 94
662 95
662 96
662 98
662 99
662 100
662 101
662 102
662 104
662 106
662 107
662 109
662 110
662 111
662 113
662 116
662 136
662 189
662 225
662 271
662 281
662 314
662 384
662 397
662 498
662 521
662 522
662 523
662 543
662 545
662 611
662 612
662 627
662 628
662 630
662 651
662 652
662 653
662 654
662 660
662 661
662 677
662 727
662 728
662 729
662 730
662 731
662 784
662 785
662 786
662 789
662 790
662 795
662 802
662 803
662 825
662 832
662 1108
662 1121
662 1126
662 1144
662 1164
662 1177
662 1178
663 45
663 261
663 343
663 345
663 373
663 449
663 450
663 490
663 501
663 589
663 607
663 608
663 723
663 725
664 45
664 47
664 261
664 343
664 345
664 373
664 402
664 403
664 433
664 449
664 490
664 501
664 552
664 556
664 589
664 607
664 608
664 636
664 637
664 638
664 639
664 673
664 696
664 697
664 723
664 725
664 726
665 58
665 59
665 60
665 61
665 62
665 63
665 64
665 65
665 66
665 67
665 68
665 69
665 70
665 71
665 74
665 76
665 77
665 78
665 82
665 92
665 115
665 117
665 118
665 119
665 121
665 122
665 124
665 125
665 126
665 127
665 128
665 129
665 130
665 131
665 133
665 134
665 135
665 137
665 138
665 139
665 140
665 141
665 142
665 143
665 144
665 145
665 146
665 147
665 148
665 149
665 150
665 151
665 152
665 153
665 154
665 155
665 156
665 157
665 158
665 161
665 162
665 263
665 350
665 409
665 410
665 527
665 533
665 535
665 562
665 600
665 601
665 602
665 603
665 606
665 634
665 640
665 641
665 642
665 647
665 648
665 668
665 669
665 670
665 672
665 678
665 679
665 680
665 685
665 694
665 699
665 700
665 706
665 709
665 713
665 714
665 715
665 716
665 738
665 739
665 742
665 746
665 750
665 824
665 826
666 92
666 103
666 126
666 145
666 158
666 161
666 162
666 263
666 510
666 526
666 533
666 640
666 641
666 647
666 668
666 750
667 19
667 29
667 56
667 79
667 80
667 103
667 132
667 134
667 140
667 141
667 148
667 150
667 151
667 154
667 155
667 156
667 158
667 161
667 162
667 175
667 190
667 350
667 351
667 520
667 563
667 599
667 602
667 606
667 611
667 612
667 667
667 668
667 693
667 699
667 750
667 834
668 19
668 28
668 79
668 80
668 142
668 147
668 148
668 154
668 155
668 158
668 161
668 162
668 190
668 263
668 351
668 520
668 525
668 563
668 613
668 665
668 666
668 667
668 668
668 693
668 750
669 71
669 115
669 117
669 118
669 119
669 121
669 122
669 124
669 125
669 126
669 127
669 128
669 129
669 130
669 131
669 132
669 133
669 134
669 135
669 137
669 138
669 139
669 140
669 141
669 142
669 143
669 144
669 145
669 146
669 147
669 148
669 149
669 150
669 151
669 152
669 153
669 154
669 155
669 156
669 157
669 158
669 161
669 162
669 175
669 190
669 203
669 263
669 350
669 365
669 533
669 535
669 561
669 562
669 600
669 601
669 602
669 603
669 606
669 642
669 645
669 646
669 648
669 650
669 665
669 672
669 681
669 699
669 700
669 709
669 710
669 715
669 738
669 739
669 741
670 25
670 79
670 82
670 103
670 115
670 117
670 118
670 119
670 121
670 122
670 124
670 125
670 126
670 127
670 128
670 129
670 130
670 131
670 132
670 133
670 134
670 135
670 137
670 138
670 139
670 140
670 141
670 142
670 143
670 144
670 145
670 146
670 147
670 148
670 150
670 151
670 152
670 153
670 154
670 155
670 156
670 157
670 158
670 161
670 162
670 175
670 263
670 350
670 410
670 524
670 533
670 535
670 561
670 562
670 600
670 601
670 602
670 603
670 606
670 642
670 645
670 648
670 650
670 665
670 672
670 699
670 700
670 709
670 715
670 738
670 739
670 741
671 47
671 248
671 249
671 261
671 374
671 726
671 1088
672 19
672 31
672 58
672 59
672 60
672 61
672 62
672 63
672 64
672 65
672 66
672 67
672 68
672 69
672 70
672 71
672 74
672 76
672 77
672 78
672 92
672 115
672 117
672 118
672 119
672 121
672 122
672 124
672 125
672 126
672 127
672 128
672 129
672 130
672 131
672 133
672 134
672 135
672 137
672 138
672 139
672 140
672 141
672 142
672 143
672 144
672 145
672 146
672 147
672 148
672 149
672 150
672 151
672 152
672 153
672 154
672 155
672 156
672 157
672 158
672 161
672 162
672 190
672 263
672 350
672 409
672 410
672 431
672 533
672 535
672 562
672 563
672 600
672 601
672 602
672 603
672 606
672 634
672 640
672 641
672 642
672 644
672 648
672 650
672 665
672 669
672 670
672 678
672 679
672 680
672 685
672 686
672 688
672 694
672 699
672 700
672 701
672 706
672 709
672 713
672 714
672 715
672 716
672 738
672 739
672 742
672 746
672 754
672 755
672 824
672 826
673 45
673 47
673 249
673 261
673 345
673 373
673 433
673 449
673 490
673 556
673 607
673 608
673 636
673 664
673 697
673 725
674 20
674 24
674 32
674 44
674 46
674 83
674 85
674 86
674 90
674 160
674 165
674 166
674 167
674 168
674 183
674 316
674 378
674 464
674 468
674 469
674 472
674 506
674 617
674 762
675 21
675 166
675 167
675 183
675 233
675 321
675 341
675 393
675 394
675 476
676 21
676 43
676 123
676 165
676 166
676 167
676 168
676 183
676 346
676 566
676 689
676 692
676 732
677 22
677 48
677 49
677 50
677 51
677 52
677 53
677 54
677 94
677 95
677 96
677 98
677 99
677 100
677 101
677 102
677 104
677 106
677 107
677 109
677 110
677 111
677 113
677 116
677 136
677 189
677 225
677 271
677 281
677 384
677 397
677 498
677 521
677 522
677 523
677 543
677 545
677 627
677 628
677 630
677 651
677 652
677 653
677 654
677 660
677 661
677 662
677 698
677 727
677 728
677 729
677 730
677 731
677 784
677 785
677 786
677 789
677 790
677 795
677 802
677 803
677 825
677 832
677 1108
677 1121
677 1126
677 1144
677 1145
677 1164
677 1177
677 1178
678 23
678 39
678 75
678 92
678 115
678 117
678 118
678 119
678 121
678 122
678 124
678 125
678 126
678 127
678 128
678 129
678 130
678 131
678 132
678 133
678 134
678 135
678 137
678 138
678 139
678 140
678 141
678 142
678 143
678 144
678 145
678 146
678 147
678 148
678 149
678 150
678 152
678 153
678 154
678 155
678 156
678 157
678 158
678 161
678 162
678 175
678 190
678 263
678 317
678 350
678 410
678 431
678 524
678 533
678 535
678 562
678 600
678 601
678 602
678 603
678 606
678 642
678 645
678 648
678 650
678 665
678 672
678 699
678 700
678 701
678 709
678 710
678 715
678 717
678 738
678 739
678 748
678 749
679 23
679 80
679 92
679 115
679 117
679 118
679 119
679 121
679 122
679 124
679 125
679 126
679 127
679 128
679 129
679 130
679 131
679 133
679 134
679 135
679 137
679 138
679 139
679 140
679 141
679 142
679 143
679 144
679 145
679 146
679 147
679 148
679 149
679 150
679 151
679 152
679 153
679 154
679 155
679 156
679 157
679 161
679 162
679 175
679 190
679 263
679 271
679 350
679 410
679 431
679 533
679 535
679 562
679 600
679 601
679 602
679 603
679 606
679 642
679 648
679 649
679 665
679 672
679 681
679 699
679 700
679 701
679 709
679 715
679 738
679 739
680 23
680 80
680 92
680 115
680 117
680 118
680 119
680 121
680 122
680 124
680 125
680 126
680 127
680 128
680 129
680 130
680 131
680 133
680 134
680 135
680 137
680 138
680 139
680 140
680 141
680 142
680 143
680 144
680 145
680 146
680 147
680 148
680 149
680 150
680 151
680 152
680 153
680 154
680 155
680 156
680 157
680 158
680 161
680 162
680 175
680 190
680 263
680 271
680 350
680 410
680 431
680 533
680 535
680 562
680 600
680 601
680 602
680 603
680 606
680 642
680 648
680 649
680 665
680 672
680 681
680 699
680 700
680 701
680 709
680 715
680 738
680 739
681 23
681 36
681 66
681 68
681 70
681 76
681 130
681 133
681 146
681 153
681 157
681 158
681 162
681 365
681 410
681 600
681 669
681 679
681 680
681 712
681 713
681 746
682 174
682 711
683 167
683 168
683 174
683 711
684 24
684 43
684 114
684 165
684 166
684 167
684 168
684 183
684 346
684 387
684 468
684 540
684 689
684 692
685 25
685 75
685 82
685 103
685 115
685 117
685 118
685 119
685 121
685 122
685 124
685 125
685 126
685 127
685 128
685 129
685 130
685 131
685 133
685 134
685 135
685 137
685 138
685 139
685 140
685 141
685 142
685 143
685 144
685 145
685 146
685 147
685 148
685 149
685 150
685 151
685 152
685 153
685 154
685 155
685 156
685 157
685 158
685 161
685 162
685 175
685 190
685 263
685 350
685 351
685 410
685 510
685 533
685 535
685 562
685 577
685 600
685 601
685 602
685 603
685 606
685 642
685 648
685 665
685 672
685 699
685 700
685 709
685 715
685 738
685 739
685 834
686 25
686 29
686 75
686 82
686 122
686 133
686 135
686 137
686 139
686 140
686 141
686 144
686 145
686 148
686 149
686 150
686 151
686 152
686 153
686 155
686 156
686 158
686 162
686 350
686 351
686 352
686 410
686 527
686 533
686 554
686 562
686 577
686 604
686 606
686 613
686 642
686 672
686 709
687 25
687 38
687 79
687 103
687 132
687 137
687 138
687 139
687 148
687 151
687 152
687 153
687 155
687 156
687 157
687 158
687 161
687 162
687 175
687 365
687 366
687 367
687 526
687 535
687 602
687 603
687 701
687 710
687 712
687 717
688 25
688 28
688 29
688 75
688 82
688 122
688 133
688 135
688 137
688 139
688 140
688 141
688 144
688 145
688 148
688 149
688 150
688 151
688 152
688 153
688 155
688 156
688 158
688 162
688 350
688 351
688 352
688 410
688 452
688 527
688 533
688 554
688 562
688 577
688 604
688 606
688 613
688 642
688 672
688 709
689 26
689 30
689 35
689 44
689 46
689 57
689 72
689 73
689 81
689 85
689 86
689 90
689 163
689 167
689 183
689 226
689 316
689 334
689 387
689 407
689 464
689 506
689 568
689 617
689 618
689 656
689 658
689 659
689 676
689 684
689 690
689 718
689 720
689 721
689 722
689 762
689 811
689 980
689 1170
690 30
690 43
690 165
690 166
690 167
690 168
690 226
690 346
690 541
690 542
690 689
690 692
690 718
691 114
691 123
691 164
691 316
691 503
691 542
691 569
691 570
691 718
691 1160
691 1170
692 30
692 35
692 57
692 72
692 73
692 81
692 83
692 165
692 166
692 167
692 168
692 183
692 226
692 330
692 334
692 378
692 387
692 407
692 437
692 468
692 469
692 488
692 676
692 684
692 690
692 718
692 720
692 722
692 811
692 980
692 1170
693 29
693 56
693 79
693 80
693 103
693 132
693 134
693 140
693 141
693 148
693 150
693 151
693 154
693 155
693 156
693 158
693 161
693 162
693 175
693 190
693 350
693 351
693 563
693 599
693 602
693 606
693 612
693 667
693 668
693 699
693 834
694 71
694 115
694 117
694 118
694 119
694 121
694 122
694 124
694 125
694 126
694 127
694 128
694 129
694 130
694 131
694 132
694 133
694 134
694 135
694 137
694 138
694 139
694 140
694 141
694 142
694 143
694 145
694 146
694 147
694 148
694 149
694 150
694 151
694 152
694 153
694 154
694 155
694 156
694 157
694 158
694 161
694 162
694 175
694 263
694 350
694 410
694 533
694 535
694 562
694 600
694 601
694 602
694 603
694 606
694 642
694 648
694 650
694 665
694 672
694 699
694 700
694 709
694 715
694 738
694 739
694 834
695 27
695 261
695 345
695 501
695 638
695 1101
696 27
696 45
696 47
696 249
696 261
696 345
696 373
696 382
696 449
696 490
696 556
696 607
696 664
696 697
696 1165
697 27
697 45
697 47
697 261
697 345
697 373
697 382
697 402
697 403
697 433
697 449
697 490
697 501
697 552
697 556
697 589
697 607
697 608
697 636
697 637
697 638
697 639
697 664
697 673
697 696
697 723
697 724
697 725
697 726
698 28
698 84
698 102
698 104
698 106
698 107
698 113
698 136
698 189
698 271
698 281
698 314
698 380
698 392
698 397
698 423
698 510
698 545
698 613
698 627
698 630
698 631
698 653
698 677
699 31
699 58
699 59
699 60
699 61
699 62
699 63
699 64
699 65
699 66
699 67
699 68
699 69
699 70
699 71
699 74
699 76
699 77
699 78
699 80
699 115
699 117
699 118
699 119
699 121
699 122
699 124
699 125
699 126
699 127
699 128
699 129
699 130
699 131
699 133
699 134
699 135
699 137
699 138
699 139
699 140
699 141
699 142
699 143
699 144
699 145
699 146
699 147
699 148
699 149
699 150
699 151
699 152
699 153
699 154
699 155
699 156
699 157
699 158
699 161
699 162
699 263
699 350
699 409
699 410
699 533
699 535
699 562
699 600
699 601
699 602
699 603
699 606
699 634
699 640
699 641
699 642
699 648
699 665
699 667
699 669
699 670
699 672
699 678
699 679
699 680
699 685
699 693
699 694
699 700
699 706
699 709
699 713
699 714
699 715
699 716
699 738
699 739
699 742
699 746
699 754
699 755
699 824
699 826
700 31
700 34
700 58
700 59
700 60
700 61
700 62
700 63
700 64
700 65
700 66
700 67
700 68
700 69
700 70
700 71
700 74
700 76
700 77
700 78
700 92
700 115
700 117
700 118
700 119
700 121
700 122
700 124
700 125
700 126
700 127
700 128
700 129
700 130
700 131
700 133
700 134
700 135
700 137
700 138
700 139
700 140
700 141
700 142
700 143
700 144
700 145
700 146
700 147
700 148
700 149
700 150
700 151
700 152
700 153
700 154
700 155
700 156
700 157
700 158
700 161
700 162
700 263
700 350
700 409
700 410
700 533
700 535
700 562
700 600
700 601
700 602
700 603
700 606
700 620
700 634
700 640
700 641
700 642
700 644
700 647
700 648
700 650
700 665
700 669
700 670
700 672
700 678
700 679
700 680
700 685
700 694
700 699
700 706
700 709
700 713
700 714
700 715
700 716
700 738
700 739
700 742
700 746
700 754
700 755
700 824
700 826
701 31
701 36
701 38
701 41
701 60
701 61
701 62
701 64
701 66
701 67
701 69
701 74
701 75
701 79
701 92
701 117
701 118
701 119
701 121
701 125
701 127
701 128
701 129
701 130
701 131
701 132
701 133
701 135
701 137
701 138
701 139
701 140
701 141
701 142
701 145
701 146
701 151
701 162
701 175
701 350
701 365
701 431
701 533
701 534
701 535
701 600
701 603
701 634
701 640
701 647
701 649
701 672
701 678
701 679
701 680
701 687
701 706
701 709
701 710
701 712
701 713
701 714
701 715
701 717
701 739
701 745
701 826
702 123
702 165
702 166
702 167
702 168
702 379
702 732
703 33
703 112
703 167
703 168
703 180
703 253
703 315
703 319
703 336
703 432
703 571
704 33
704 112
704 166
704 167
704 217
704 386
704 414
704 432
705 33
705 195
705 432
705 439
706 34
706 39
706 75
706 79
706 80
706 92
706 115
706 117
706 118
706 119
706 121
706 122
706 124
706 125
706 126
706 127
706 128
706 129
706 130
706 131
706 132
706 133
706 134
706 135
706 137
706 138
706 139
706 140
706 141
706 142
706 143
706 144
706 145
706 146
706 147
706 148
706 149
706 150
706 151
706 152
706 153
706 154
706 155
706 156
706 157
706 158
706 161
706 162
706 175
706 190
706 263
706 350
706 410
706 431
706 524
706 533
706 535
706 562
706 600
706 601
706 602
706 606
706 642
706 648
706 665
706 672
706 699
706 700
706 701
706 709
706 710
706 715
706 738
706 739
707 34
707 92
707 162
707 431
707 524
707 644
707 645
707 646
707 647
707 648
707 649
707 650
707 717
707 745
707 749
708 35
708 114
708 123
708 159
708 163
708 164
708 503
708 542
708 568
708 569
708 570
709 36
709 58
709 59
709 60
709 61
709 62
709 63
709 64
709 65
709 66
709 67
709 68
709 69
709 70
709 71
709 74
709 76
709 77
709 78
709 79
709 92
709 115
709 117
709 118
709 119
709 121
709 122
709 124
709 125
709 126
709 127
709 128
709 129
709 130
709 131
709 132
709 133
709 134
709 135
709 137
709 138
709 139
709 140
709 141
709 142
709 143
709 144
709 145
709 146
709 147
709 148
709 149
709 150
709 151
709 152
709 153
709 154
709 155
709 156
709 157
709 158
709 161
709 162
709 175
709 190
709 263
709 350
709 409
709 410
709 431
709 533
709 535
709 562
709 600
709 601
709 602
709 603
709 606
709 634
709 640
709 641
709 642
709 648
709 665
709 669
709 670
709 672
709 678
709 679
709 680
709 685
709 686
709 688
709 694
709 699
709 700
709 701
709 706
709 712
709 713
709 714
709 715
709 716
709 738
709 739
709 742
709 746
709 754
709 755
709 824
709 826
710 36
710 38
710 41
710 65
710 68
710 70
710 74
710 75
710 77
710 78
710 79
710 103
710 132
710 137
710 138
710 142
710 150
710 151
710 152
710 153
710 154
710 156
710 162
710 175
710 365
710 367
710 409
710 410
710 526
710 533
710 534
710 535
710 603
710 643
710 669
710 678
710 687
710 701
710 706
710 712
710 717
710 745
710 746
711 37
711 40
711 42
711 87
711 88
711 89
711 91
711 160
711 164
711 165
711 166
711 167
711 168
711 324
711 362
711 363
711 472
711 491
711 494
711 536
711 546
711 682
711 683
712 38
712 41
712 59
712 66
712 74
712 75
712 79
712 115
712 126
712 132
712 133
712 138
712 141
712 144
712 145
712 146
712 148
712 149
712 150
712 151
712 152
712 153
712 154
712 155
712 157
712 158
712 161
712 162
712 175
712 365
712 410
712 528
712 533
712 534
712 535
712 561
712 600
712 602
712 603
712 604
712 641
712 648
712 681
712 687
712 701
712 709
712 710
713 39
713 92
713 115
713 117
713 118
713 119
713 121
713 122
713 124
713 125
713 126
713 127
713 128
713 129
713 130
713 131
713 132
713 134
713 135
713 137
713 138
713 139
713 140
713 141
713 142
713 143
713 144
713 145
713 146
713 147
713 148
713 149
713 150
713 151
713 152
713 153
713 154
713 155
713 156
713 157
713 158
713 161
713 162
713 175
713 190
713 263
713 350
713 365
713 410
713 431
713 533
713 535
713 562
713 600
713 601
713 602
713 603
713 606
713 642
713 648
713 649
713 665
713 672
713 681
713 699
713 700
713 701
713 709
713 715
713 738
713 739
714 39
714 92
714 115
714 117
714 118
714 119
714 121
714 122
714 124
714 125
714 126
714 127
714 128
714 129
714 130
714 131
714 132
714 133
714 134
714 135
714 137
714 138
714 139
714 140
714 141
714 142
714 143
714 144
714 145
714 146
714 147
714 148
714 149
714 150
714 151
714 152
714 153
714 154
714 155
714 156
714 157
714 158
714 161
714 162
714 263
714 350
714 410
714 533
714 535
714 562
714 600
714 601
714 602
714 603
714 606
714 642
714 648
714 665
714 672
714 699
714 700
714 701
714 709
714 738
714 739
715 39
715 41
715 58
715 59
715 60
715 61
715 62
715 63
715 64
715 65
715 66
715 67
715 68
715 69
715 70
715 71
715 74
715 76
715 77
715 78
715 92
715 115
715 117
715 118
715 119
715 121
715 122
715 124
715 125
715 126
715 127
715 128
715 129
715 130
715 131
715 132
715 133
715 134
715 135
715 137
715 138
715 139
715 140
715 141
715 142
715 143
715 144
715 145
715 146
715 147
715 148
715 149
715 150
715 151
715 152
715 153
715 154
715 155
715 156
715 157
715 158
715 161
715 162
715 263
715 350
715 409
715 410
715 533
715 535
715 562
715 600
715 601
715 602
715 603
715 606
715 634
715 640
715 641
715 642
715 648
715 665
715 669
715 670
715 672
715 678
715 679
715 680
715 685
715 694
715 699
715 700
715 701
715 706
715 709
715 713
715 716
715 738
715 739
715 742
715 746
715 754
715 755
715 824
715 826
716 39
716 75
716 82
716 115
716 117
716 118
716 119
716 121
716 122
716 124
716 125
716 126
716 127
716 128
716 129
716 130
716 131
716 132
716 133
716 134
716 135
716 137
716 138
716 139
716 140
716 141
716 142
716 143
716 144
716 145
716 146
716 147
716 148
716 149
716 150
716 151
716 152
716 153
716 154
716 156
716 157
716 161
716 162
716 175
716 190
716 263
716 350
716 410
716 431
716 527
716 533
716 535
716 562
716 600
716 601
716 602
716 603
716 606
716 642
716 648
716 665
716 672
716 699
716 700
716 709
716 715
716 738
716 739
717 34
717 41
717 67
717 74
717 75
717 92
717 125
717 129
717 130
717 131
717 132
717 133
717 138
717 146
717 151
717 152
717 154
717 162
717 175
717 365
717 367
717 431
717 524
717 526
717 534
717 535
717 634
717 644
717 645
717 646
717 647
717 648
717 649
717 650
717 678
717 687
717 701
717 707
717 710
717 717
717 745
717 749
718 43
718 165
718 166
718 167
718 168
718 183
718 346
718 468
718 503
718 689
718 690
718 691
718 692
719 43
719 164
719 167
719 168
719 183
719 274
719 275
719 342
719 346
719 361
719 388
719 417
719 509
719 530
720 43
720 164
720 165
720 166
720 167
720 168
720 183
720 346
720 411
720 468
720 469
720 541
720 542
720 689
720 692
721 43
721 114
721 165
721 166
721 167
721 168
721 183
721 274
721 540
721 659
721 689
721 759
722 43
722 114
722 165
722 166
722 167
722 168
722 183
722 346
722 540
722 689
722 692
723 45
723 47
723 261
723 345
723 373
723 382
723 403
723 433
723 490
723 556
723 589
723 607
723 638
723 639
723 663
723 664
723 697
724 45
724 47
724 261
724 345
724 373
724 433
724 449
724 490
724 556
724 589
724 607
724 697
725 45
725 47
725 179
725 249
725 261
725 345
725 382
725 403
725 423
725 433
725 449
725 490
725 556
725 589
725 607
725 638
725 663
725 664
725 673
725 697
726 45
726 248
726 249
726 261
726 311
726 345
726 373
726 377
726 382
726 433
726 449
726 490
726 556
726 607
726 638
726 664
726 671
726 697
727 48
727 49
727 50
727 51
727 52
727 53
727 54
727 94
727 95
727 96
727 98
727 99
727 100
727 101
727 102
727 104
727 106
727 107
727 109
727 110
727 111
727 113
727 116
727 136
727 189
727 225
727 271
727 281
727 384
727 397
727 498
727 521
727 522
727 523
727 543
727 545
727 627
727 628
727 630
727 651
727 652
727 653
727 654
727 660
727 661
727 662
727 677
727 727
727 728
727 729
727 730
727 731
727 784
727 785
727 786
727 789
727 790
727 795
727 802
727 803
727 825
727 832
727 1108
727 1121
727 1126
727 1144
727 1145
727 1164
727 1177
727 1178
728 48
728 49
728 50
728 51
728 52
728 53
728 54
728 94
728 95
728 96
728 98
728 99
728 100
728 101
728 102
728 104
728 106
728 107
728 109
728 110
728 111
728 113
728 116
728 136
728 189
728 225
728 271
728 281
728 360
728 384
728 397
728 423
728 498
728 521
728 522
728 523
728 543
728 545
728 627
728 628
728 630
728 651
728 652
728 653
728 654
728 660
728 661
728 662
728 677
728 727
728 729
728 730
728 731
728 784
728 785
728 786
728 789
728 790
728 795
728 802
728 803
728 825
728 1108
728 1121
728 1126
728 1144
728 1145
728 1164
728 1177
728 1178
729 48
729 49
729 50
729 51
729 52
729 53
729 54
729 94
729 95
729 96
729 98
729 99
729 100
729 101
729 102
729 104
729 106
729 107
729 109
729 110
729 111
729 113
729 116
729 136
729 189
729 225
729 271
729 281
729 384
729 397
729 498
729 521
729 522
729 523
729 543
729 545
729 627
729 628
729 630
729 651
729 652
729 653
729 654
729 660
729 661
729 662
729 677
729 727
729 728
729 729
729 730
729 731
729 784
729 785
729 786
729 789
729 790
729 795
729 802
729 803
729 825
729 832
729 1108
729 1121
729 1126
729 1144
729 1145
729 1164
729 1177
729 1178
730 48
730 49
730 50
730 51
730 52
730 53
730 54
730 94
730 95
730 96
730 98
730 99
730 100
730 101
730 102
730 104
730 106
730 107
730 109
730 110
730 111
730 113
730 116
730 136
730 189
730 225
730 270
730 271
730 281
730 384
730 397
730 498
730 510
730 521
730 522
730 523
730 543
730 545
730 627
730 628
730 630
730 651
730 652
730 653
730 654
730 660
730 661
730 662
730 677
730 727
730 728
730 729
730 731
730 784
730 785
730 786
730 789
730 790
730 795
730 802
730 803
730 825
730 832
730 1121
730 1126
730 1144
730 1145
730 1164
730 1177
730 1178
731 48
731 49
731 50
731 51
731 52
731 53
731 54
731 94
731 95
731 96
731 98
731 99
731 100
731 101
731 102
731 104
731 106
731 107
731 109
731 110
731 111
731 113
731 116
731 136
731 189
731 225
731 271
731 281
731 384
731 397
731 451
731 498
731 521
731 522
731 523
731 543
731 545
731 627
731 628
731 630
731 651
731 652
731 653
731 654
731 660
731 661
731 662
731 677
731 727
731 728
731 729
731 730
731 784
731 785
731 786
731 789
731 790
731 795
731 802
731 803
731 825
731 832
731 1108
731 1121
731 1126
731 1144
731 1145
731 1164
731 1177
731 1178
732 55
732 72
732 73
732 81
732 85
732 86
732 87
732 88
732 89
732 90
732 114
732 123
732 159
732 163
732 164
732 289
732 464
732 497
732 503
732 542
732 569
732 570
732 580
732 596
732 597
732 656
732 659
732 676
732 702
732 762
732 1159
733 56
733 103
733 158
733 167
733 351
733 484
733 486
733 487
734 56
734 155
734 271
734 593
734 601
734 604
734 611
734 612
734 613
735 56
735 107
735 109
735 136
735 158
735 196
735 208
735 257
735 261
735 271
735 277
735 281
735 627
735 657
735 660
735 661
736 56
736 103
736 158
736 167
736 351
736 484
736 486
736 487
736 593
736 643
737 57
737 114
737 123
737 159
737 163
737 164
737 503
737 542
737 569
737 570
737 616
737 617
737 618
738 58
738 59
738 60
738 61
738 62
738 63
738 64
738 65
738 66
738 67
738 68
738 69
738 70
738 71
738 74
738 76
738 77
738 78
738 110
738 115
738 117
738 118
738 119
738 121
738 122
738 124
738 125
738 126
738 127
738 128
738 129
738 130
738 131
738 133
738 134
738 135
738 137
738 138
738 139
738 140
738 141
738 142
738 143
738 144
738 145
738 146
738 147
738 148
738 149
738 150
738 151
738 152
738 153
738 154
738 155
738 156
738 157
738 158
738 161
738 162
738 263
738 350
738 409
738 410
738 533
738 535
738 562
738 600
738 601
738 602
738 603
738 606
738 634
738 640
738 641
738 642
738 648
738 665
738 669
738 670
738 672
738 678
738 679
738 680
738 685
738 694
738 699
738 700
738 706
738 709
738 713
738 714
738 715
738 716
738 739
738 742
738 746
738 754
738 755
738 824
738 826
739 58
739 59
739 60
739 61
739 62
739 63
739 64
739 65
739 66
739 67
739 68
739 69
739 70
739 71
739 74
739 76
739 77
739 78
739 80
739 92
739 115
739 117
739 118
739 119
739 121
739 122
739 124
739 125
739 126
739 127
739 128
739 129
739 130
739 131
739 133
739 134
739 135
739 137
739 138
739 139
739 140
739 141
739 142
739 143
739 144
739 145
739 146
739 147
739 148
739 149
739 150
739 151
739 152
739 153
739 154
739 155
739 156
739 157
739 158
739 161
739 162
739 263
739 350
739 409
739 410
739 520
739 533
739 535
739 562
739 600
739 601
739 602
739 603
739 606
739 620
739 634
739 640
739 641
739 642
739 645
739 648
739 665
739 669
739 670
739 672
739 678
739 679
739 680
739 685
739 694
739 699
739 700
739 701
739 706
739 709
739 713
739 714
739 715
739 716
739 738
739 742
739 746
739 754
739 755
739 824
739 826
740 67
740 129
740 190
740 277
740 314
740 436
740 451
740 452
740 453
740 633
740 634
740 996
741 70
741 92
741 149
741 161
741 162
741 352
741 410
741 453
741 525
741 526
741 527
741 528
741 554
741 602
741 603
741 647
741 669
741 670
742 71
742 115
742 117
742 118
742 119
742 121
742 122
742 124
742 125
742 126
742 127
742 128
742 129
742 130
742 131
742 133
742 134
742 135
742 137
742 138
742 139
742 140
742 141
742 142
742 143
742 144
742 145
742 146
742 147
742 148
742 149
742 150
742 151
742 152
742 153
742 154
742 155
742 156
742 157
742 158
742 161
742 162
742 175
742 350
742 410
742 533
742 535
742 562
742 600
742 601
742 602
742 603
742 606
742 642
742 648
742 665
742 672
742 699
742 700
742 709
742 715
742 738
742 739
743 74
743 103
743 145
743 148
743 149
743 157
743 162
743 175
743 410
743 535
743 565
743 602
743 643
744 74
744 175
744 534
744 535
745 34
745 75
745 92
745 125
745 129
745 130
745 131
745 132
745 133
745 138
745 146
745 152
745 154
745 162
745 175
745 365
745 367
745 431
745 524
745 526
745 535
745 645
745 646
745 648
745 649
745 650
745 701
745 707
745 710
745 717
745 749
746 75
746 79
746 115
746 117
746 118
746 119
746 121
746 122
746 124
746 125
746 126
746 127
746 128
746 129
746 130
746 131
746 132
746 133
746 134
746 135
746 137
746 138
746 139
746 140
746 141
746 142
746 143
746 144
746 145
746 146
746 147
746 148
746 149
746 150
746 151
746 152
746 154
746 155
746 156
746 157
746 158
746 161
746 162
746 175
746 263
746 350
746 365
746 410
746 526
746 533
746 535
746 562
746 600
746 601
746 602
746 603
746 604
746 606
746 642
746 645
746 648
746 650
746 665
746 672
746 681
746 699
746 700
746 709
746 710
746 715
746 738
746 739
747 76
747 77
747 78
747 103
747 135
747 146
747 156
747 157
747 161
747 162
747 352
747 516
747 526
747 599
747 620
747 621
747 622
747 623
747 643
748 76
748 77
748 78
748 82
748 103
748 145
748 151
748 156
748 157
748 162
748 524
748 526
748 640
748 678
749 34
749 77
749 78
749 92
749 137
749 151
749 155
749 156
749 162
749 410
749 431
749 524
749 644
749 645
749 646
749 647
749 648
749 649
749 650
749 678
749 707
749 717
749 745
750 79
750 80
750 142
750 147
750 148
750 154
750 155
750 158
750 161
750 162
750 190
750 263
750 351
750 563
750 665
750 666
750 667
750 668
751 79
751 80
751 520
752 81
752 168
752 183
752 394
752 407
752 408
753 82
753 145
753 161
753 351
753 525
753 526
753 527
753 528
753 554
753 561
753 577
754 82
754 115
754 117
754 118
754 119
754 121
754 122
754 124
754 125
754 126
754 127
754 128
754 129
754 130
754 131
754 133
754 134
754 135
754 137
754 138
754 139
754 140
754 141
754 142
754 143
754 144
754 145
754 146
754 147
754 148
754 149
754 150
754 151
754 152
754 153
754 154
754 155
754 156
754 157
754 158
754 161
754 162
754 263
754 350
754 410
754 527
754 533
754 535
754 562
754 600
754 601
754 602
754 603
754 606
754 642
754 648
754 672
754 699
754 700
754 709
754 715
754 738
754 739
755 82
755 115
755 117
755 118
755 119
755 121
755 122
755 124
755 125
755 126
755 127
755 128
755 129
755 130
755 131
755 133
755 134
755 135
755 137
755 138
755 139
755 140
755 141
755 142
755 143
755 144
755 145
755 146
755 147
755 148
755 149
755 150
755 151
755 152
755 153
755 154
755 155
755 156
755 157
755 161
755 162
755 263
755 350
755 410
755 527
755 533
755 535
755 562
755 600
755 601
755 602
755 603
755 606
755 642
755 648
755 672
755 699
755 700
755 709
755 715
755 738
755 739
756 82
756 145
756 161
756 162
756 351
756 526
756 528
756 561
756 562
756 563
757 83
757 160
757 163
757 165
757 166
757 167
757 168
757 536
757 537
757 538
758 83
758 163
758 164
758 167
758 168
758 234
758 235
758 478
758 480
758 481
758 507
758 854
759 83
759 165
759 166
759 167
759 168
759 183
759 280
759 468
759 472
759 497
759 618
759 655
759 656
759 658
759 659
759 721
760 83
760 165
760 166
760 167
760 168
760 379
761 83
761 160
761 168
761 174
762 43
762 83
762 90
762 123
762 160
762 165
762 166
762 167
762 168
762 183
762 275
762 417
762 468
762 674
762 689
762 732
763 83
763 163
763 164
763 167
763 168
763 234
763 235
763 478
763 480
763 481
763 507
763 573
763 850
763 851
763 854
763 1071
764 83
764 165
764 166
764 167
764 168
764 379
764 493
765 84
765 112
765 159
765 165
765 166
765 168
765 386
766 84
766 160
766 164
766 165
766 166
766 167
766 168
766 174
766 546
766 548
767 84
767 159
767 165
767 166
767 167
767 168
768 84
768 91
768 165
768 166
768 167
768 168
768 176
768 341
769 84
769 166
769 255
770 84
770 183
770 217
770 395
770 408
770 1151
771 84
771 112
771 163
771 164
771 165
771 166
771 167
771 168
771 341
771 361
771 588
772 84
772 215
773 84
773 159
773 165
773 166
773 167
773 168
773 302
773 567
774 84
774 166
774 255
774 302
774 1137
775 88
775 165
775 166
775 167
775 168
775 364
775 517
775 579
775 581
776 88
776 165
776 166
776 167
776 168
776 364
776 505
776 517
776 579
776 581
777 91
777 165
777 166
777 167
777 168
777 283
777 428
778 91
778 174
779 91
779 165
779 166
779 167
779 168
779 882
780 91
780 165
780 166
780 167
780 168
780 417
781 91
781 165
781 166
781 167
781 168
781 364
781 379
781 541
781 542
782 91
782 165
782 166
782 167
782 168
782 236
782 434
782 504
783 91
783 164
783 165
783 166
783 167
783 168
783 505
783 609
784 94
784 95
784 96
784 98
784 99
784 100
784 101
784 102
784 104
784 106
784 107
784 109
784 110
784 111
784 113
784 116
784 136
784 189
784 225
784 271
784 281
784 397
784 521
784 523
784 543
784 545
784 627
784 628
784 630
784 660
784 661
784 662
784 677
784 727
784 728
784 729
784 730
784 731
784 1121
784 1164
785 94
785 95
785 98
785 99
785 100
785 101
785 102
785 104
785 106
785 107
785 109
785 110
785 111
785 113
785 116
785 136
785 189
785 195
785 225
785 271
785 281
785 397
785 521
785 523
785 543
785 545
785 627
785 628
785 630
785 653
785 654
785 660
785 661
785 662
785 677
785 727
785 728
785 729
785 730
785 731
785 1121
785 1164
786 94
786 95
786 96
786 98
786 99
786 100
786 102
786 104
786 106
786 107
786 109
786 110
786 111
786 113
786 116
786 136
786 189
786 225
786 271
786 281
786 314
786 397
786 521
786 523
786 543
786 545
786 627
786 628
786 630
786 653
786 654
786 660
786 661
786 662
786 677
786 727
786 728
786 729
786 730
786 731
786 1121
786 1164
787 97
787 108
787 120
787 163
787 164
787 165
787 166
787 167
787 168
787 588
787 609
787 610
788 99
788 100
788 136
788 164
788 189
788 271
788 281
788 285
788 397
788 523
788 544
788 627
788 630
788 652
788 653
788 654
789 94
789 95
789 96
789 98
789 99
789 100
789 101
789 102
789 104
789 106
789 109
789 110
789 111
789 113
789 116
789 136
789 189
789 225
789 271
789 281
789 397
789 521
789 523
789 543
789 545
789 627
789 628
789 630
789 652
789 653
789 660
789 661
789 662
789 677
789 727
789 728
789 729
789 730
789 731
789 1121
789 1164
790 94
790 95
790 96
790 98
790 99
790 100
790 101
790 102
790 104
790 106
790 107
790 109
790 110
790 111
790 113
790 136
790 189
790 225
790 271
790 281
790 314
790 397
790 521
790 523
790 543
790 545
790 627
790 628
790 630
790 653
790 654
790 660
790 661
790 662
790 677
790 727
790 728
790 729
790 730
790 731
790 1121
790 1164
791 103
791 135
791 146
791 156
791 157
791 161
791 162
791 352
791 599
791 620
791 621
791 622
791 623
792 103
792 158
792 161
792 352
792 360
792 524
792 525
792 526
792 527
792 554
793 103
793 145
793 158
793 161
793 162
793 263
793 510
793 526
793 533
794 105
794 112
794 120
794 159
794 163
794 165
794 167
794 168
794 180
794 226
794 406
794 428
794 470
794 629
795 94
795 95
795 96
795 98
795 99
795 100
795 101
795 102
795 104
795 106
795 107
795 109
795 111
795 113
795 116
795 136
795 189
795 225
795 271
795 281
795 397
795 423
795 521
795 523
795 543
795 545
795 627
795 628
795 630
795 653
795 660
795 661
795 662
795 677
795 727
795 728
795 729
795 730
795 731
795 1121
795 1164
796 107
796 109
796 113
796 136
796 189
796 271
796 281
796 314
796 360
796 423
796 521
796 545
796 630
796 631
797 108
797 159
797 163
797 165
797 166
797 167
797 168
797 330
797 346
797 553
798 109
798 225
798 297
798 384
798 498
799 109
799 113
799 136
799 189
799 225
799 261
799 271
799 314
799 373
799 544
799 545
799 627
799 628
800 109
800 261
800 373
800 392
800 397
801 110
801 111
801 116
801 136
801 150
801 152
801 153
801 155
801 156
801 157
801 158
801 162
801 189
801 277
801 281
801 350
801 351
801 352
801 392
801 410
801 518
801 605
801 620
801 627
801 630
801 642
801 660
801 661
802 94
802 95
802 96
802 98
802 99
802 100
802 101
802 102
802 104
802 106
802 107
802 109
802 110
802 113
802 116
802 136
802 189
802 225
802 271
802 281
802 314
802 397
802 521
802 523
802 543
802 545
802 627
802 628
802 630
802 653
802 660
802 661
802 662
802 677
802 727
802 728
802 729
802 730
802 731
802 1121
802 1164
803 94
803 95
803 96
803 98
803 99
803 100
803 101
803 102
803 104
803 106
803 107
803 109
803 110
803 111
803 113
803 116
803 136
803 189
803 225
803 271
803 397
803 521
803 523
803 543
803 545
803 627
803 628
803 630
803 652
803 653
803 660
803 661
803 662
803 677
803 727
803 728
803 729
803 730
803 731
803 1121
803 1164
804 111
804 189
804 271
804 281
804 380
804 423
805 112
805 120
805 163
805 164
805 165
805 166
805 167
805 336
805 479
805 532
805 828
806 112
806 251
806 253
807 112
807 167
808 112
808 319
808 320
808 808
809 112
809 167
809 230
809 315
809 414
809 416
810 112
810 251
810 253
810 512
810 518
810 521
810 522
810 523
811 43
811 112
811 165
811 166
811 167
811 168
811 183
811 336
811 346
811 411
811 468
811 541
811 542
811 689
811 692
812 112
812 196
812 590
812 591
812 592
812 594
812 595
812 619
813 112
813 165
813 166
813 167
813 168
813 379
813 442
813 447
813 470
813 502
814 112
815 112
815 315
815 322
815 336
815 361
816 112
816 165
816 166
816 167
816 168
816 183
816 346
816 499
817 112
817 167
817 434
817 461
818 12
818 112
818 196
818 269
818 590
818 591
818 592
818 594
818 595
818 619
818 1014
818 1176
819 21
819 112
819 165
819 166
819 167
819 168
819 183
819 346
819 499
819 566
820 112
820 167
820 253
820 315
820 336
820 391
820 432
820 465
820 512
820 531
820 532
821 113
821 225
821 271
821 314
821 384
821 651
822 114
822 165
822 166
822 168
822 333
822 540
823 114
823 165
823 166
823 167
823 168
823 364
823 540
824 115
824 117
824 118
824 119
824 121
824 122
824 124
824 125
824 126
824 127
824 128
824 129
824 130
824 131
824 133
824 134
824 135
824 137
824 138
824 139
824 140
824 141
824 142
824 143
824 144
824 145
824 146
824 147
824 148
824 149
824 150
824 151
824 152
824 153
824 154
824 155
824 156
824 157
824 158
824 161
824 162
824 175
824 263
824 350
824 410
824 533
824 535
824 600
824 601
824 602
824 603
824 606
824 642
824 648
824 665
824 672
824 699
824 700
824 709
824 715
824 738
824 739
825 94
825 95
825 96
825 98
825 99
825 100
825 101
825 102
825 104
825 106
825 107
825 109
825 110
825 111
825 113
825 116
825 189
825 225
825 271
825 281
825 314
825 397
825 423
825 521
825 523
825 543
825 545
825 627
825 628
825 630
825 653
825 660
825 661
825 662
825 677
825 727
825 728
825 729
825 730
825 731
825 1121
825 1164
826 92
826 115
826 117
826 118
826 119
826 122
826 124
826 125
826 126
826 127
826 128
826 129
826 130
826 131
826 132
826 133
826 134
826 135
826 137
826 138
826 139
826 140
826 141
826 142
826 143
826 144
826 145
826 146
826 147
826 148
826 149
826 150
826 151
826 152
826 153
826 154
826 155
826 156
826 157
826 158
826 161
826 162
826 263
826 350
826 410
826 533
826 535
826 562
826 600
826 601
826 602
826 603
826 606
826 642
826 648
826 649
826 665
826 672
826 699
826 700
826 701
826 709
826 715
826 738
826 739
827 120
827 163
827 165
827 167
827 168
828 120
828 163
828 165
828 167
828 168
828 805
829 126
829 145
829 157
829 161
829 162
829 263
829 516
829 526
829 606
829 623
829 640
829 641
829 642
830 135
830 162
830 350
830 351
830 352
831 135
831 154
831 157
831 161
831 162
831 190
831 350
831 360
831 599
831 600
831 603
831 605
832 94
832 95
832 96
832 98
832 99
832 100
832 101
832 102
832 104
832 106
832 107
832 109
832 110
832 111
832 113
832 116
832 136
832 189
832 225
832 271
832 281
832 360
832 397
832 423
832 521
832 523
832 543
832 545
832 627
832 628
832 630
832 653
832 660
832 661
832 662
832 677
832 727
832 729
832 730
832 731
832 1121
832 1164
833 136
833 189
833 225
833 271
833 314
833 380
833 423
833 543
833 544
833 545
834 139
834 144
834 158
834 351
834 667
834 685
834 693
834 694
835 144
835 150
835 162
835 409
835 410
836 145
836 162
836 263
837 145
837 161
837 351
837 352
837 524
837 525
837 526
837 527
837 528
838 103
838 145
838 148
838 149
838 157
838 162
838 175
838 410
838 565
838 602
839 149
839 150
839 161
839 162
839 352
839 525
839 526
839 528
839 554
839 601
839 602
839 606
840 157
840 158
840 161
840 350
840 351
840 431
840 602
841 83
841 160
841 165
841 166
841 167
841 168
841 174
841 252
841 274
841 283
841 331
841 335
841 364
841 379
841 417
841 472
842 160
842 165
842 166
842 167
842 168
842 378
842 437
843 160
843 165
843 166
843 167
843 168
843 183
843 266
843 417
843 468
843 469
844 160
844 165
844 166
844 167
844 168
844 174
845 160
845 165
845 166
845 168
845 482
845 491
845 494
845 496
846 160
846 165
846 166
846 167
846 168
846 326
846 330
846 437
846 537
846 596
846 597
847 160
847 165
847 166
847 167
847 168
847 529
847 530
848 161
848 162
848 175
848 351
848 352
848 365
848 452
848 516
849 162
850 163
850 165
850 234
850 478
850 480
850 481
850 539
850 763
851 163
851 164
851 165
851 168
851 217
851 234
851 235
851 507
851 763
852 163
852 165
852 166
852 168
852 361
853 163
853 237
853 308
853 422
854 163
854 165
854 234
854 478
854 480
854 481
854 539
854 573
854 758
854 763
855 160
855 164
855 165
855 166
855 168
855 435
855 491
856 83
856 164
856 168
856 330
856 363
856 406
857 164
857 167
857 168
857 183
857 337
858 164
858 313
858 330
858 349
859 160
859 164
859 165
859 166
859 167
859 168
860 164
860 165
860 166
860 167
860 168
860 328
860 364
860 494
860 579
860 580
860 581
861 164
861 165
861 166
861 167
861 168
861 183
861 408
861 428
862 164
862 246
862 264
863 112
863 164
863 166
863 167
863 315
863 325
863 361
863 432
863 513
864 164
864 167
864 212
864 383
865 91
865 164
865 165
865 166
865 167
865 168
865 466
866 164
866 227
867 164
867 165
867 166
867 167
867 168
867 379
868 164
868 165
868 166
868 167
868 168
868 379
868 493
869 164
869 166
869 167
869 207
869 312
869 337
869 470
869 529
869 530
869 615
870 165
870 166
870 168
870 333
871 165
871 166
871 167
871 168
871 379
871 412
872 165
872 166
872 167
872 168
872 379
872 444
872 447
873 165
873 166
873 167
873 168
873 330
873 505
874 164
874 165
874 166
874 168
874 358
875 165
875 166
875 167
875 168
875 364
875 541
875 542
876 165
876 166
876 168
876 362
876 363
877 165
877 166
877 167
877 379
877 472
877 493
878 164
878 165
878 166
878 167
878 168
878 253
878 379
879 165
879 166
879 167
879 168
879 183
879 274
879 321
879 469
879 514
880 165
880 166
880 167
880 168
880 379
880 412
880 493
880 505
881 165
881 166
881 168
881 1072
882 166
882 515
882 779
883 166
883 167
883 505
884 166
885 166
885 315
885 336
885 337
886 166
886 183
886 220
886 283
886 341
886 419
887 166
887 167
887 262
887 1095
888 112
888 166
888 167
888 168
888 386
889 166
889 167
889 230
889 402
889 403
890 164
890 166
890 167
890 207
890 337
890 470
890 615
891 167
891 285
891 288
891 1096
892 167
892 183
892 519
892 578
893 167
893 906
894 166
894 167
894 319
895 167
895 338
895 395
895 396
896 164
896 167
896 325
896 341
897 167
897 1179
897 1180
898 167
899 167
899 168
899 183
899 280
899 346
899 388
899 389
899 393
899 408
899 438
899 485
899 499
899 500
900 167
900 315
900 465
901 165
901 166
901 167
901 168
901 379
902 167
902 268
902 385
902 582
902 583
902 584
902 585
902 586
902 598
902 1013
903 167
903 470
903 571
903 1074
904 167
904 237
904 308
904 420
904 421
904 422
905 167
905 383
906 167
906 267
906 893
907 112
907 167
907 253
907 391
907 571
908 167
908 243
908 266
909 166
909 167
909 183
909 321
910 0
910 167
910 1045
911 160
911 165
911 166
911 167
911 168
911 221
911 330
911 466
912 166
912 167
912 183
912 393
912 394
912 426
913 112
913 167
913 253
913 315
913 336
913 391
913 432
913 531
913 532
914 164
914 167
914 283
915 167
915 915
915 1015
916 167
916 183
916 302
916 1137
917 167
917 264
917 505
918 6
918 167
918 224
919 168
920 166
920 167
920 168
920 341
920 432
920 479
920 483
920 488
921 168
921 215
922 167
922 168
922 564
923 165
923 166
923 167
923 168
923 379
923 493
924 168
924 183
924 334
924 389
924 411
924 438
924 485
924 499
924 500
925 167
925 168
926 168
926 183
926 334
926 346
927 167
927 168
927 505
928 169
928 267
928 268
929 169
930 169
930 267
930 268
930 427
931 170
932 170
932 231
933 171
934 171
934 311
934 456
934 458
934 460
934 463
935 171
935 213
935 311
935 456
935 458
935 460
935 463
936 172
936 359
936 360
936 938
937 172
937 293
937 359
938 172
938 293
938 360
938 936
939 172
940 173
941 173
941 213
942 174
943 160
943 165
943 166
943 167
943 168
943 174
943 183
944 164
944 165
944 166
944 167
944 168
944 174
944 324
944 491
945 165
945 166
945 167
945 168
945 174
946 175
947 175
947 365
947 366
947 367
947 368
948 175
948 365
948 366
948 367
948 368
948 534
948 614
949 176
950 177
951 177
951 415
951 424
951 425
952 177
952 429
953 178
954 179
955 180
956 180
956 205
957 180
957 205
957 302
958 180
958 267
958 338
959 181
960 182
961 165
961 166
961 167
961 168
961 183
961 417
962 165
962 166
962 167
962 168
962 183
962 274
962 275
962 280
962 321
962 322
962 353
963 183
963 307
963 314
963 316
964 183
964 519
965 183
966 183
966 475
966 476
967 165
967 166
967 167
967 168
967 183
967 346
967 468
967 469
968 183
968 475
968 476
968 578
969 83
969 165
969 166
969 167
969 168
969 183
970 165
970 166
970 167
970 168
970 183
970 417
970 472
971 165
971 166
971 167
971 168
971 183
971 274
971 393
971 394
971 426
971 468
972 167
972 183
973 167
973 183
973 217
973 335
974 183
974 226
975 183
975 353
975 387
975 388
975 389
976 183
976 389
976 393
976 411
976 438
976 485
976 492
976 500
977 166
977 167
977 183
977 393
977 394
978 160
978 165
978 166
978 167
978 168
978 183
978 440
979 165
979 166
979 167
979 168
979 183
979 274
979 321
979 469
979 505
979 514
980 43
980 114
980 165
980 166
980 167
980 168
980 183
980 346
980 468
980 469
980 540
980 689
980 692
981 184
982 185
983 1142
984 187
984 200
984 201
984 356
984 443
984 445
984 448
985 187
986 187
986 200
986 273
986 300
987 187
987 200
987 201
987 390
987 1030
988 187
988 200
988 201
988 356
988 357
989 188
990 188
990 228
990 229
990 560
990 575
990 576
990 624
991 188
991 228
991 229
991 371
991 376
992 188
992 228
992 229
993 189
994 190
994 314
994 436
994 451
994 452
994 453
994 996
995 190
996 190
996 740
996 994
997 191
998 91
998 165
998 166
998 167
998 168
998 191
999 167
999 192
999 228
999 229
1000 192
1001 192
1001 217
1002 193
1002 473
1002 474
1003 193
1003 272
1003 1181
1004 193
1005 193
1005 1005
1005 1181
1006 193
1006 399
1007 193
1007 340
1007 467
1007 1008
1008 193
1008 415
1008 425
1008 1007
1009 193
1009 272
1009 462
1009 467
1009 473
1009 474
1009 1009
1010 194
1011 195
1011 268
1011 385
1011 582
1011 583
1011 585
1011 586
1011 587
1011 598
1011 1013
1012 195
1013 195
1013 268
1013 385
1013 398
1013 427
1013 582
1013 583
1013 584
1013 585
1013 586
1013 587
1013 598
1013 902
1013 1011
1013 1106
1013 1174
1013 1175
1014 196
1014 590
1014 591
1014 592
1014 594
1014 595
1014 619
1014 818
1015 196
1015 915
1016 196
1017 197
1017 198
1018 197
1019 167
1019 198
1019 257
1020 199
1020 212
1021 199
1021 212
1021 292
1022 200
1022 282
1022 339
1022 415
1022 424
1022 429
1022 430
1023 200
1023 201
1024 200
1024 201
1024 356
1024 357
1025 200
1025 259
1025 260
1025 261
1025 310
1025 339
1025 460
1025 549
1025 550
1025 551
1026 200
1026 282
1026 309
1026 339
1026 415
1026 424
1026 425
1026 429
1026 430
1027 200
1027 201
1027 356
1027 357
1027 418
1028 200
1028 201
1028 354
1028 355
1028 356
1028 357
1029 201
1029 232
1030 201
1030 390
1030 400
1030 401
1030 987
1031 167
1031 202
1032 203
1032 230
1033 204
1033 221
1034 204
1034 221
1034 303
1034 348
1035 206
1035 214
1035 250
1035 385
1035 398
1036 177
1036 206
1037 167
1037 207
1038 167
1038 208
1039 209
1039 211
1040 209
1040 211
1040 451
1041 279
1041 1124
1042 167
1042 1045
1043 218
1043 1043
1043 1052
1044 213
1044 296
1045 213
1045 910
1045 1042
1046 214
1046 368
1047 215
1047 217
1048 1
1048 167
1048 298
1049 183
1049 217
1049 280
1049 331
1049 388
1049 413
1050 91
1050 165
1050 166
1050 167
1050 168
1050 217
1050 459
1051 213
1051 217
1052 218
1052 1043
1053 218
1053 225
1053 384
1054 219
1055 220
1055 233
1056 220
1056 233
1056 475
1056 476
1057 221
1057 236
1057 303
1057 313
1058 222
1058 223
1059 210
1059 224
1060 167
1060 224
1061 225
1061 297
1062 228
1062 229
1062 311
1062 560
1062 575
1062 576
1062 624
1063 228
1063 229
1063 332
1064 228
1064 229
1065 228
1065 229
1065 344
1065 1065
1066 228
1066 229
1066 304
1066 332
1067 166
1067 167
1067 230
1068 231
1068 239
1068 256
1068 405
1069 231
1069 239
1069 256
1070 232
1071 234
1071 235
1071 763
1072 236
1072 238
1072 881
1073 237
1073 308
1073 420
1074 240
1074 269
1074 903
1075 193
1075 241
1075 260
1076 241
1076 260
1076 278
1077 242
1077 247
1078 242
1078 370
1078 1078
1079 344
1079 1090
1079 1091
1080 1080
1080 1081
1080 1125
1081 279
1081 404
1081 1080
1082 244
1082 430
1083 245
1083 369
1083 370
1084 248
1084 249
1084 374
1085 248
1085 249
1085 261
1085 377
1086 248
1086 249
1086 374
1086 375
1086 377
1087 248
1087 261
1087 374
1087 377
1087 1089
1088 249
1088 261
1088 671
1088 1088
1089 248
1089 249
1089 374
1089 377
1089 1087
1090 250
1090 344
1090 1079
1090 1091
1091 250
1091 1079
1091 1090
1092 252
1092 265
1093 91
1093 165
1093 166
1093 167
1093 168
1093 252
1093 379
1094 183
1094 254
1094 276
1095 256
1095 262
1095 887
1096 256
1096 261
1096 288
1096 891
1097 258
1097 280
1097 333
1098 259
1098 260
1098 310
1099 261
1099 345
1099 373
1099 382
1099 433
1099 449
1099 450
1100 256
1100 261
1100 288
1101 261
1101 343
1101 345
1101 695
1102 262
1102 287
1102 296
1102 298
1103 262
1104 264
1104 421
1105 267
1105 271
1105 318
1105 329
1106 268
1106 385
1106 582
1106 584
1106 585
1106 586
1106 587
1106 598
1106 1013
1107 270
1107 271
1107 380
1108 94
1108 95
1108 96
1108 98
1108 99
1108 100
1108 101
1108 102
1108 104
1108 106
1108 107
1108 109
1108 110
1108 111
1108 113
1108 116
1108 136
1108 189
1108 225
1108 270
1108 271
1108 281
1108 397
1108 510
1108 521
1108 523
1108 543
1108 545
1108 627
1108 628
1108 630
1108 653
1108 654
1108 660
1108 661
1108 662
1108 677
1108 727
1108 728
1108 729
1108 731
1108 1121
1108 1164
1109 261
1109 271
1109 380
1109 381
1109 382
1110 271
1110 281
1110 285
1111 193
1111 272
1112 193
1112 273
1112 340
1113 200
1113 201
1113 273
1113 306
1113 354
1113 471
1113 559
1114 165
1114 166
1114 167
1114 168
1114 183
1114 274
1115 165
1115 166
1115 167
1115 168
1115 274
1115 411
1116 165
1116 166
1116 167
1116 168
1116 183
1116 274
1116 393
1116 468
1117 165
1117 166
1117 167
1117 168
1117 274
1117 468
1117 495
1117 497
1118 183
1118 274
1118 275
1119 165
1119 166
1119 167
1119 168
1119 274
1119 468
1119 469
1120 276
1120 280
1120 312
1120 388
1120 508
1120 509
1120 511
1120 539
1120 1157
1120 1180
1121 48
1121 49
1121 50
1121 51
1121 52
1121 53
1121 54
1121 94
1121 95
1121 96
1121 98
1121 99
1121 100
1121 101
1121 102
1121 104
1121 106
1121 107
1121 109
1121 110
1121 111
1121 113
1121 116
1121 136
1121 189
1121 225
1121 271
1121 277
1121 281
1121 384
1121 397
1121 498
1121 521
1121 522
1121 523
1121 543
1121 545
1121 627
1121 628
1121 630
1121 633
1121 651
1121 652
1121 653
1121 654
1121 660
1121 661
1121 662
1121 677
1121 727
1121 728
1121 729
1121 730
1121 731
1121 784
1121 785
1121 786
1121 789
1121 790
1121 795
1121 802
1121 803
1121 825
1121 832
1121 1108
1121 1126
1121 1144
1121 1145
1121 1164
1121 1177
1121 1178
1122 277
1122 633
1123 278
1124 279
1124 429
1124 1041
1125 279
1125 1080
1126 94
1126 95
1126 96
1126 98
1126 99
1126 100
1126 101
1126 102
1126 104
1126 106
1126 107
1126 109
1126 110
1126 111
1126 113
1126 116
1126 136
1126 189
1126 225
1126 271
1126 281
1126 397
1126 521
1126 523
1126 543
1126 545
1126 627
1126 628
1126 630
1126 653
1126 660
1126 661
1126 662
1126 677
1126 727
1126 728
1126 729
1126 730
1126 731
1126 1121
1126 1164
1127 282
1127 309
1127 339
1127 1128
1128 167
1128 282
1128 295
1128 1127
1129 282
1129 309
1129 339
1130 164
1130 167
1130 283
1130 322
1131 167
1131 284
1132 165
1132 166
1132 168
1132 289
1133 290
1133 291
1133 294
1133 295
1134 167
1134 297
1134 317
1134 318
1135 299
1135 309
1135 339
1135 424
1136 167
1136 301
1136 322
1136 323
1137 302
1137 774
1137 916
1138 221
1138 303
1138 313
1138 348
1139 164
1139 167
1139 305
1140 200
1140 201
1140 306
1140 354
1140 471
1141 306
1141 310
1141 311
1141 549
1142 307
1142 983
1143 166
1143 312
1143 342
1143 466
1144 94
1144 95
1144 96
1144 98
1144 99
1144 100
1144 101
1144 102
1144 104
1144 106
1144 107
1144 109
1144 110
1144 111
1144 113
1144 116
1144 136
1144 189
1144 225
1144 271
1144 281
1144 314
1144 397
1144 423
1144 521
1144 523
1144 543
1144 545
1144 628
1144 630
1144 653
1144 660
1144 661
1144 662
1144 677
1144 727
1144 728
1144 729
1144 730
1144 731
1144 1121
1144 1164
1145 94
1145 95
1145 96
1145 98
1145 99
1145 100
1145 101
1145 102
1145 104
1145 106
1145 107
1145 109
1145 110
1145 111
1145 113
1145 116
1145 136
1145 189
1145 225
1145 271
1145 281
1145 314
1145 397
1145 521
1145 523
1145 543
1145 545
1145 627
1145 628
1145 630
1145 653
1145 660
1145 661
1145 677
1145 727
1145 728
1145 729
1145 730
1145 731
1145 1121
1145 1164
1146 164
1146 167
1146 318
1146 327
1147 166
1147 167
1147 183
1147 321
1147 394
1147 426
1148 167
1148 324
1148 326
1148 328
1149 165
1149 166
1149 167
1149 168
1149 330
1150 167
1150 183
1150 217
1150 331
1151 167
1151 338
1151 395
1151 396
1151 770
1152 188
1152 228
1152 229
1152 339
1152 399
1153 165
1153 166
1153 167
1153 168
1153 346
1153 437
1153 438
1154 165
1154 166
1154 167
1154 168
1154 183
1154 346
1155 200
1155 201
1155 354
1155 355
1155 356
1156 276
1156 312
1156 361
1156 408
1156 413
1156 508
1156 509
1156 511
1156 1180
1157 8
1157 254
1157 276
1157 305
1157 312
1157 361
1157 408
1157 413
1157 508
1157 509
1157 511
1157 632
1157 1120
1157 1179
1157 1180
1158 165
1158 166
1158 167
1158 168
1158 364
1159 123
1159 165
1159 166
1159 167
1159 168
1159 364
1159 732
1160 165
1160 166
1160 167
1160 168
1160 364
1160 503
1160 691
1161 261
1161 345
1161 373
1161 433
1161 449
1161 490
1161 635
1161 639
1162 165
1162 166
1162 167
1162 168
1162 378
1163 167
1163 183
1163 389
1163 393
1163 411
1163 438
1163 499
1163 500
1163 506
1164 48
1164 49
1164 50
1164 51
1164 52
1164 53
1164 54
1164 94
1164 95
1164 96
1164 98
1164 99
1164 100
1164 101
1164 102
1164 104
1164 106
1164 107
1164 109
1164 110
1164 111
1164 113
1164 116
1164 136
1164 189
1164 225
1164 271
1164 281
1164 384
1164 392
1164 397
1164 498
1164 521
1164 522
1164 523
1164 543
1164 545
1164 627
1164 628
1164 630
1164 651
1164 652
1164 653
1164 654
1164 660
1164 661
1164 662
1164 677
1164 727
1164 728
1164 729
1164 730
1164 731
1164 784
1164 785
1164 786
1164 789
1164 790
1164 795
1164 802
1164 803
1164 825
1164 832
1164 1108
1164 1121
1164 1126
1164 1144
1164 1145
1164 1177
1164 1178
1165 261
1165 345
1165 373
1165 402
1165 403
1165 433
1165 501
1165 696
1166 183
1166 389
1166 393
1166 408
1166 411
1166 438
1166 485
1166 499
1167 261
1167 345
1167 449
1167 547
1167 552
1167 556
1168 165
1168 166
1168 167
1168 168
1168 183
1168 417
1168 464
1169 91
1169 164
1169 165
1169 166
1169 167
1169 168
1169 466
1169 505
1170 43
1170 165
1170 166
1170 167
1170 168
1170 183
1170 346
1170 468
1170 469
1170 503
1170 689
1170 691
1170 692
1171 165
1171 166
1171 167
1171 168
1171 379
1171 477
1171 489
1171 502
1172 551
1173 418
1173 550
1173 557
1173 558
1173 559
1173 560
1173 574
1174 268
1174 385
1174 582
1174 583
1174 584
1174 585
1174 587
1174 598
1174 1013
1175 268
1175 385
1175 582
1175 583
1175 584
1175 585
1175 586
1175 587
1175 598
1175 1013
1176 196
1176 590
1176 591
1176 592
1176 594
1176 619
1176 818
1177 94
1177 95
1177 96
1177 98
1177 99
1177 100
1177 101
1177 102
1177 104
1177 106
1177 107
1177 109
1177 110
1177 111
1177 113
1177 116
1177 136
1177 189
1177 225
1177 271
1177 281
1177 397
1177 521
1177 523
1177 543
1177 545
1177 627
1177 628
1177 630
1177 653
1177 660
1177 662
1177 677
1177 727
1177 728
1177 729
1177 730
1177 731
1177 1121
1177 1164
1178 94
1178 95
1178 96
1178 98
1178 99
1178 100
1178 101
1178 102
1178 104
1178 106
1178 107
1178 109
1178 110
1178 111
1178 113
1178 116
1178 136
1178 189
1178 225
1178 271
1178 281
1178 397
1178 521
1178 523
1178 543
1178 545
1178 627
1178 628
1178 630
1178 653
1178 654
1178 660
1178 661
1178 662
1178 677
1178 727
1178 728
1178 729
1178 730
1178 731
1178 1121
1178 1164
1179 167
1179 276
1179 312
1179 413
1179 508
1179 509
1179 511
1179 897
1179 1157
1180 8
1180 167
1180 254
1180 276
1180 305
1180 312
1180 413
1180 508
1180 509
1180 511
1180 632
1180 897
1180 1120
1180 1156
1180 1157
1181 193
1181 1003
1181 1005
1182 186
