0 0
0 1
0 2
0 3
0 4
0 5
0 6
0 7
0 8
0 9
0 10
0 11
0 12
0 13
0 14
0 15
0 16
0 17
0 18
0 19
0 20
0 21
0 22
0 23
0 24
0 25
0 26
0 27
0 28
0 29
0 30
0 31
0 32
0 33
0 34
0 35
0 36
0 37
0 38
0 39
0 40
1 0
1 1
1 2
1 3
1 4
1 5
1 6
1 7
1 8
1 9
1 10
1 11
1 12
1 13
1 14
1 15
1 16
1 17
1 18
1 19
1 20
1 21
1 22
1 23
1 24
1 25
1 27
1 28
1 29
1 30
1 31
1 32
1 33
1 34
1 35
1 36
1 37
1 38
1 39
2 0
2 1
2 2
2 3
2 4
2 5
2 6
2 7
2 8
2 9
2 14
2 16
2 17
2 18
2 22
2 24
2 27
2 28
2 30
2 32
2 36
2 37
2 38
2 39
3 0
3 1
3 2
3 3
3 4
3 5
3 6
3 7
3 8
3 9
3 16
3 17
3 27
3 36
4 0
4 1
4 2
4 3
4 4
4 5
4 6
4 7
4 8
4 9
4 14
4 16
4 17
4 18
4 24
4 27
4 28
4 30
4 32
4 36
5 0
5 1
5 2
5 3
5 4
5 5
5 6
5 7
5 8
5 9
5 14
5 16
5 17
5 18
5 22
5 24
5 27
5 28
5 36
6 0
6 1
6 2
6 3
6 4
6 5
6 6
6 7
6 8
6 9
6 14
6 16
6 17
6 18
6 24
6 27
6 28
6 36
7 0
7 1
7 2
7 3
7 4
7 5
7 6
7 7
7 8
7 9
7 14
7 16
7 17
7 24
7 27
7 28
7 36
8 0
8 1
8 2
8 3
8 4
8 5
8 6
8 7
8 8
8 9
8 14
8 16
8 17
8 18
8 24
8 27
8 28
8 36
9 0
9 1
9 2
9 3
9 4
9 5
9 6
9 7
9 8
9 14
9 16
9 17
9 18
9 24
9 27
9 28
9 30
9 36
10 0
10 1
10 11
10 12
10 13
10 14
10 18
10 19
10 20
10 21
10 22
10 23
10 25
10 26
10 33
10 35
11 0
11 1
11 10
11 12
11 13
11 14
11 15
11 19
11 20
11 21
11 22
11 23
11 25
11 26
11 29
11 31
11 33
11 34
12 0
12 1
12 10
12 11
12 12
12 13
12 14
12 15
12 18
12 19
12 20
12 22
12 23
12 25
12 26
12 29
12 31
12 33
12 34
13 0
13 1
13 10
13 11
13 12
13 14
13 15
13 18
13 19
13 20
13 21
13 22
13 23
13 25
13 26
13 29
13 31
13 33
13 34
14 0
14 1
14 2
14 4
14 5
14 6
14 7
14 8
14 9
14 10
14 11
14 12
14 13
14 14
14 15
14 16
14 17
14 18
14 20
14 21
14 22
14 24
14 25
14 27
14 28
14 29
14 31
14 33
14 34
14 35
14 36
15 0
15 1
15 11
15 12
15 13
15 14
15 20
15 21
15 22
15 25
15 29
15 31
15 34
16 0
16 1
16 2
16 3
16 4
16 5
16 6
16 7
16 8
16 9
16 14
16 16
16 17
16 22
16 27
16 28
16 36
17 0
17 1
17 2
17 3
17 4
17 5
17 6
17 7
17 8
17 9
17 14
17 16
17 18
17 24
17 27
17 28
17 36
17 37
17 39
18 0
18 1
18 2
18 4
18 5
18 6
18 8
18 9
18 10
18 12
18 13
18 14
18 17
18 19
18 20
18 22
18 24
18 25
18 28
19 0
19 1
19 10
19 11
19 12
19 13
19 18
19 22
19 23
19 25
19 26
20 0
20 1
20 10
20 11
20 12
20 13
20 14
20 15
20 18
20 20
20 22
20 23
20 25
20 29
20 31
20 33
20 35
21 0
21 1
21 10
21 11
21 13
21 14
21 15
21 22
21 25
21 31
21 33
22 0
22 1
22 2
22 5
22 10
22 11
22 12
22 13
22 14
22 15
22 16
22 18
22 19
22 20
22 21
22 22
22 23
22 25
22 29
22 30
22 31
22 32
22 33
22 34
22 35
22 38
22 39
23 0
23 1
23 10
23 11
23 12
23 13
23 19
23 20
23 22
23 25
23 26
23 33
23 35
24 0
24 1
24 2
24 4
24 5
24 6
24 7
24 8
24 9
24 14
24 17
24 18
24 24
24 28
24 36
25 0
25 1
25 10
25 11
25 12
25 13
25 14
25 15
25 18
25 19
25 20
25 21
25 22
25 23
25 25
25 26
26 0
26 10
26 11
26 12
26 13
26 19
26 23
26 25
27 0
27 1
27 2
27 3
27 4
27 5
27 6
27 7
27 8
27 9
27 14
27 16
27 17
27 27
27 28
27 36
28 0
28 1
28 2
28 4
28 5
28 6
28 7
28 8
28 9
28 14
28 16
28 17
28 18
28 24
28 27
28 36
29 0
29 1
29 11
29 12
29 13
29 14
29 15
29 20
29 22
29 35
30 0
30 1
30 2
30 4
30 9
30 22
30 30
30 32
30 37
30 38
30 39
30 40
31 0
31 1
31 11
31 12
31 13
31 14
31 15
31 20
31 21
31 22
31 31
31 35
32 0
32 1
32 2
32 4
32 22
32 30
32 32
32 37
32 38
32 39
32 40
33 0
33 1
33 10
33 11
33 12
33 13
33 14
33 20
33 21
33 22
33 23
33 33
33 35
34 0
34 1
34 11
34 12
34 13
34 14
34 15
34 22
34 35
35 0
35 1
35 10
35 14
35 20
35 22
35 23
35 29
35 31
35 33
35 34
35 35
36 0
36 1
36 2
36 3
36 4
36 5
36 6
36 7
36 8
36 9
36 14
36 16
36 17
36 24
36 27
36 28
37 0
37 1
37 2
37 17
37 30
37 32
37 37
37 38
37 39
37 40
38 0
38 1
38 2
38 22
38 30
38 32
38 37
38 38
38 39
38 40
39 0
39 1
39 2
39 17
39 22
39 30
39 32
39 37
39 38
39 39
39 40
40 0
40 30
40 32
40 37
40 38
40 39
