0 0
0 1
0 2
0 3
0 5
0 8
0 10
0 11
0 13
0 14
0 15
0 16
0 17
0 18
0 19
0 20
0 21
0 22
0 23
0 24
0 25
0 26
0 27
0 28
0 29
0 30
0 31
0 32
0 33
0 34
0 35
0 36
0 37
0 38
0 39
0 40
0 41
0 42
0 43
0 44
0 45
0 46
0 47
0 48
0 49
0 50
0 51
0 52
0 54
0 56
0 57
0 58
0 59
0 60
0 61
0 62
0 63
0 64
0 65
0 66
0 67
0 68
0 69
0 70
0 71
0 73
0 75
0 76
0 78
0 80
0 81
0 84
0 85
0 88
0 89
0 92
0 93
0 95
0 96
0 97
0 98
0 99
0 100
0 101
0 102
0 104
0 105
0 106
0 107
0 108
0 109
0 111
0 113
0 116
0 117
0 118
0 119
0 120
0 121
0 122
0 123
0 124
1 0
1 1
1 2
1 3
1 4
1 5
1 6
1 7
1 8
1 10
1 11
1 13
1 15
1 16
1 17
1 18
1 19
1 20
1 21
1 22
1 23
1 24
1 25
1 26
1 28
1 29
1 30
1 31
1 32
1 33
1 34
1 35
1 36
1 37
1 38
1 39
1 40
1 41
1 42
1 43
1 44
1 45
1 47
1 48
1 49
1 50
1 51
1 52
1 53
1 54
1 55
1 56
1 57
1 58
1 59
1 60
1 61
1 62
1 63
1 64
1 65
1 66
1 67
1 68
1 69
1 70
1 71
1 72
1 73
1 74
1 75
1 76
1 77
1 78
1 79
1 80
1 81
1 83
1 84
1 85
1 86
1 87
1 88
1 89
1 90
1 91
1 92
1 93
1 94
1 95
1 96
1 97
1 98
1 99
1 100
1 101
1 103
1 104
1 105
1 106
1 107
1 108
1 109
1 111
1 112
1 113
1 114
1 116
1 117
1 118
1 119
1 120
1 121
1 122
1 123
1 124
2 0
2 1
2 2
2 3
2 4
2 5
2 6
2 7
2 8
2 10
2 11
2 12
2 13
2 14
2 15
2 16
2 17
2 18
2 19
2 20
2 21
2 22
2 25
2 26
2 28
2 29
2 30
2 31
2 32
2 34
2 35
2 36
2 39
2 40
2 41
2 43
2 45
2 46
2 47
2 49
2 50
2 51
2 54
2 56
2 57
2 60
2 61
2 62
2 66
2 67
2 68
2 69
2 70
2 72
2 73
2 76
2 78
2 80
2 81
2 82
2 83
2 84
2 85
2 86
2 87
2 88
2 89
2 91
2 92
2 93
2 94
2 95
2 96
2 97
2 98
2 99
2 100
2 101
2 102
2 104
2 105
2 108
2 109
2 111
2 113
2 114
2 116
2 118
2 119
2 123
2 124
3 0
3 1
3 2
3 3
3 4
3 5
3 6
3 7
3 8
3 10
3 11
3 12
3 13
3 15
3 16
3 17
3 18
3 19
3 20
3 22
3 23
3 24
3 26
3 28
3 29
3 30
3 31
3 34
3 36
3 40
3 41
3 43
3 45
3 48
3 51
3 52
3 54
3 56
3 57
3 58
3 59
3 61
3 63
3 66
3 69
3 70
3 72
3 76
3 77
3 80
3 81
3 83
3 84
3 85
3 86
3 87
3 88
3 89
3 91
3 92
3 95
3 98
3 99
3 108
3 109
3 110
3 111
3 115
3 124
4 1
4 2
4 3
4 5
4 7
4 9
4 10
4 11
4 12
4 13
4 15
4 16
4 17
4 18
4 19
4 20
4 56
4 66
4 69
4 70
4 76
4 80
4 83
4 84
4 87
4 95
4 109
4 111
4 115
5 0
5 1
5 2
5 3
5 4
5 5
5 7
5 9
5 10
5 11
5 12
5 13
5 14
5 15
5 16
5 17
5 18
5 19
5 20
5 28
5 30
5 31
5 37
5 49
5 51
5 54
5 61
5 66
5 67
5 68
5 69
5 70
5 76
5 77
5 80
5 81
5 82
5 83
5 84
5 86
5 87
5 88
5 89
5 92
5 95
5 97
5 100
5 108
5 109
5 110
5 111
5 115
5 124
6 1
6 2
6 3
6 7
6 9
6 10
6 11
6 12
6 13
6 14
6 15
6 16
6 17
6 18
6 19
6 20
6 28
6 51
6 54
6 61
6 66
6 67
6 68
6 69
6 70
6 76
6 77
6 80
6 81
6 82
6 83
6 84
6 86
6 87
6 88
6 92
6 95
6 109
6 110
6 111
6 124
7 1
7 2
7 3
7 4
7 5
7 6
7 7
7 10
7 11
7 12
7 13
7 14
7 15
7 16
7 18
7 20
7 54
7 61
7 66
7 69
7 70
7 76
7 77
7 83
7 84
7 87
7 88
7 95
7 108
7 109
7 111
7 115
7 124
8 0
8 1
8 2
8 3
8 8
8 49
8 62
8 83
8 91
8 94
8 98
8 101
8 103
8 104
8 105
8 106
8 107
8 112
8 113
8 114
8 123
8 124
9 4
9 5
9 6
9 10
9 11
9 12
9 13
9 14
9 15
9 16
9 17
9 18
9 19
9 20
9 61
9 68
9 69
9 70
9 76
9 77
9 82
9 84
9 86
9 87
9 88
9 115
10 0
10 1
10 2
10 3
10 4
10 5
10 6
10 7
10 9
10 10
10 11
10 12
10 13
10 14
10 15
10 16
10 17
10 18
10 19
10 20
10 30
10 31
10 54
10 61
10 66
10 67
10 68
10 69
10 70
10 76
10 77
10 80
10 81
10 82
10 83
10 84
10 86
10 87
10 88
10 89
10 95
10 98
10 101
10 108
10 110
10 111
10 115
10 124
11 0
11 1
11 2
11 3
11 4
11 5
11 6
11 7
11 9
11 10
11 11
11 12
11 13
11 14
11 15
11 16
11 17
11 18
11 19
11 20
11 28
11 30
11 31
11 37
11 49
11 54
11 56
11 61
11 66
11 67
11 68
11 69
11 70
11 76
11 77
11 80
11 82
11 83
11 84
11 86
11 87
11 88
11 89
11 92
11 95
11 96
11 97
11 100
11 108
11 109
11 110
11 111
11 115
11 124
12 2
12 3
12 4
12 5
12 6
12 7
12 9
12 10
12 11
12 12
12 13
12 14
12 15
12 16
12 17
12 18
12 19
12 20
12 30
12 51
12 61
12 67
12 68
12 69
12 70
12 76
12 77
12 80
12 82
12 83
12 84
12 86
12 87
12 88
12 92
12 95
12 108
12 110
12 115
13 0
13 1
13 2
13 3
13 4
13 5
13 6
13 7
13 9
13 10
13 11
13 12
13 14
13 15
13 16
13 17
13 18
13 19
13 20
13 51
13 54
13 61
13 66
13 67
13 68
13 69
13 70
13 76
13 77
13 80
13 82
13 83
13 84
13 86
13 87
13 88
13 92
13 95
13 100
13 111
13 115
13 124
14 0
14 2
14 5
14 6
14 7
14 9
14 10
14 11
14 12
14 13
14 15
14 16
14 17
14 18
14 19
14 20
14 30
14 31
14 61
14 67
14 68
14 69
14 70
14 76
14 77
14 80
14 82
14 84
14 86
14 87
14 88
14 96
14 108
14 115
15 0
15 1
15 2
15 3
15 4
15 5
15 6
15 7
15 9
15 10
15 11
15 12
15 13
15 14
15 15
15 16
15 17
15 18
15 19
15 20
15 30
15 51
15 54
15 61
15 66
15 67
15 68
15 69
15 70
15 76
15 77
15 80
15 82
15 83
15 84
15 86
15 87
15 88
15 89
15 92
15 95
15 97
15 108
15 109
15 111
15 115
16 0
16 1
16 2
16 3
16 4
16 5
16 6
16 7
16 9
16 10
16 11
16 12
16 13
16 14
16 15
16 16
16 17
16 18
16 19
16 20
16 28
16 30
16 31
16 61
16 66
16 67
16 68
16 69
16 70
16 72
16 76
16 77
16 80
16 81
16 82
16 83
16 84
16 86
16 87
16 88
16 95
16 108
16 109
16 110
16 111
16 115
17 0
17 1
17 2
17 3
17 4
17 5
17 6
17 9
17 10
17 11
17 12
17 13
17 14
17 15
17 16
17 18
17 19
17 20
17 28
17 30
17 31
17 51
17 54
17 61
17 66
17 67
17 68
17 69
17 70
17 76
17 77
17 80
17 81
17 82
17 83
17 84
17 86
17 87
17 88
17 95
17 108
17 109
17 111
17 115
18 0
18 1
18 2
18 3
18 4
18 5
18 6
18 7
18 9
18 10
18 11
18 12
18 13
18 14
18 15
18 16
18 17
18 18
18 19
18 20
18 30
18 31
18 51
18 54
18 56
18 61
18 67
18 68
18 69
18 70
18 72
18 76
18 77
18 80
18 82
18 84
18 86
18 87
18 88
18 92
18 95
18 109
18 115
18 123
18 124
19 0
19 1
19 2
19 3
19 4
19 5
19 6
19 9
19 10
19 11
19 12
19 13
19 14
19 15
19 16
19 17
19 18
19 20
19 28
19 30
19 31
19 51
19 54
19 56
19 61
19 67
19 68
19 69
19 70
19 72
19 76
19 77
19 80
19 82
19 84
19 86
19 87
19 88
19 89
19 92
19 95
19 97
19 100
19 109
19 111
19 115
20 0
20 1
20 2
20 3
20 4
20 5
20 6
20 7
20 9
20 10
20 11
20 12
20 13
20 14
20 15
20 16
20 17
20 18
20 19
20 28
20 30
20 31
20 51
20 54
20 61
20 66
20 67
20 68
20 69
20 70
20 72
20 76
20 77
20 80
20 81
20 82
20 83
20 84
20 86
20 87
20 88
20 89
20 92
20 95
20 96
20 97
20 105
20 108
20 109
20 110
20 111
20 115
20 124
21 0
21 1
21 2
21 22
21 23
21 24
21 25
21 26
21 32
21 34
21 36
21 37
21 38
21 39
21 47
21 52
21 53
21 54
21 60
21 74
21 90
22 0
22 1
22 2
22 3
22 21
22 23
22 25
22 26
22 28
22 32
22 33
22 35
22 36
22 37
22 38
22 39
22 40
22 41
22 46
22 47
22 50
22 52
22 53
22 54
22 57
22 58
22 59
22 60
22 73
22 116
23 0
23 1
23 3
23 21
23 22
23 24
23 25
23 26
23 28
23 29
23 33
23 35
23 36
23 37
23 38
23 41
23 42
23 43
23 45
23 46
23 48
23 50
23 52
23 53
23 54
23 56
23 57
23 58
23 59
23 60
23 63
23 73
23 74
23 79
23 93
23 99
23 116
23 117
23 118
23 119
23 120
23 121
23 122
24 0
24 1
24 3
24 21
24 23
24 24
24 25
24 26
24 28
24 29
24 35
24 36
24 38
24 41
24 42
24 43
24 45
24 46
24 48
24 50
24 52
24 53
24 54
24 56
24 57
24 58
24 59
24 60
24 63
24 73
24 74
24 78
24 79
24 93
24 99
24 116
24 117
24 118
24 119
24 120
24 121
24 122
25 0
25 1
25 2
25 21
25 22
25 23
25 24
25 26
25 28
25 29
25 34
25 35
25 36
25 37
25 38
25 40
25 41
25 42
25 43
25 44
25 45
25 48
25 52
25 53
25 54
25 56
25 57
25 58
25 59
25 60
25 63
25 64
25 73
25 74
25 78
25 79
25 85
25 90
25 93
25 99
25 116
25 117
25 118
25 119
25 120
25 121
25 122
26 0
26 1
26 2
26 3
26 21
26 22
26 23
26 24
26 25
26 28
26 29
26 33
26 34
26 35
26 36
26 37
26 38
26 40
26 41
26 42
26 43
26 45
26 46
26 48
26 50
26 52
26 53
26 54
26 56
26 57
26 58
26 59
26 60
26 63
26 73
26 74
26 78
26 79
26 93
26 99
26 116
26 117
26 118
26 119
26 120
26 121
26 122
27 0
28 0
28 1
28 2
28 3
28 5
28 6
28 11
28 16
28 17
28 19
28 20
28 22
28 23
28 24
28 25
28 26
28 29
28 33
28 35
28 36
28 41
28 45
28 51
28 52
28 54
28 55
28 56
28 57
28 63
28 65
28 68
28 73
28 79
28 83
28 86
28 89
28 92
28 95
28 99
28 100
28 107
28 109
28 111
29 0
29 1
29 2
29 3
29 23
29 24
29 25
29 26
29 28
29 34
29 36
29 41
29 52
29 56
29 58
29 63
29 64
29 71
29 74
29 93
29 116
29 118
29 120
30 0
30 1
30 2
30 3
30 5
30 10
30 11
30 12
30 14
30 15
30 16
30 17
30 18
30 19
30 20
30 31
30 51
30 67
30 69
30 70
30 72
30 76
30 87
30 108
30 115
31 0
31 1
31 2
31 3
31 5
31 10
31 11
31 14
31 16
31 17
31 18
31 19
31 20
31 30
31 51
31 67
31 69
31 72
31 80
31 96
31 97
31 98
31 100
31 108
31 123
31 124
32 0
32 1
32 2
32 21
32 22
32 32
32 39
32 46
32 47
32 50
32 73
32 93
32 99
32 118
32 119
33 0
33 1
33 22
33 23
33 26
33 28
33 35
33 41
33 43
33 45
33 54
33 55
33 57
33 63
33 71
33 73
33 116
33 119
34 0
34 1
34 2
34 3
34 21
34 25
34 26
34 29
34 34
34 35
34 36
34 43
34 44
34 50
34 54
34 56
34 57
34 58
34 63
34 64
34 79
34 90
34 116
34 117
34 118
34 119
34 120
34 122
35 0
35 1
35 2
35 22
35 23
35 24
35 25
35 26
35 28
35 33
35 34
35 35
35 36
35 37
35 40
35 41
35 42
35 45
35 46
35 48
35 49
35 54
35 74
35 116
36 0
36 1
36 2
36 3
36 21
36 22
36 23
36 24
36 25
36 26
36 28
36 29
36 34
36 35
36 36
36 37
36 40
36 41
36 42
36 43
36 44
36 45
36 50
36 52
36 54
36 56
36 57
36 59
36 75
36 78
36 79
36 116
36 118
36 119
36 123
37 0
37 1
37 5
37 11
37 21
37 22
37 23
37 25
37 26
37 35
37 36
37 37
37 42
37 45
37 52
37 71
37 95
38 0
38 1
38 21
38 22
38 23
38 24
38 25
38 26
38 52
38 60
38 74
39 0
39 1
39 2
39 21
39 22
39 32
39 39
39 42
39 47
39 50
39 54
39 58
39 116
39 117
39 120
39 121
39 122
40 0
40 1
40 2
40 3
40 22
40 25
40 26
40 35
40 36
40 41
40 50
40 52
40 54
40 57
40 59
40 60
40 64
40 78
40 116
41 0
41 1
41 2
41 3
41 22
41 23
41 24
41 25
41 26
41 28
41 29
41 33
41 35
41 36
41 40
41 41
41 50
41 52
41 54
41 57
41 59
41 60
41 74
41 75
41 78
41 79
41 111
42 0
42 1
42 23
42 24
42 25
42 26
42 35
42 36
42 37
42 39
42 43
42 99
43 0
43 1
43 2
43 3
43 23
43 24
43 25
43 26
43 33
43 34
43 36
43 42
43 43
43 45
43 48
43 52
43 54
43 56
43 57
43 63
43 64
43 71
43 74
43 99
43 106
43 116
43 118
43 120
44 0
44 1
44 25
44 34
44 36
44 44
44 56
45 0
45 1
45 2
45 3
45 23
45 24
45 25
45 26
45 28
45 33
45 35
45 36
45 37
45 43
45 45
45 48
45 52
45 54
45 56
45 57
45 59
45 63
45 64
45 71
45 106
45 123
46 0
46 2
46 22
46 23
46 24
46 26
46 32
46 35
47 0
47 1
47 2
47 21
47 22
47 32
47 39
47 47
47 50
47 116
47 117
48 0
48 1
48 3
48 23
48 24
48 25
48 26
48 35
48 43
48 45
48 52
48 54
48 56
48 74
48 78
48 99
49 0
49 1
49 2
49 5
49 8
49 11
49 35
49 62
49 91
49 94
49 98
49 101
49 103
49 104
49 105
49 106
49 107
49 112
49 113
49 114
49 123
49 124
50 0
50 1
50 2
50 22
50 23
50 24
50 26
50 32
50 34
50 36
50 39
50 40
50 41
50 47
50 52
50 54
50 57
50 71
50 74
50 78
50 85
51 0
51 1
51 2
51 3
51 5
51 6
51 12
51 13
51 15
51 17
51 18
51 19
51 20
51 28
51 30
51 31
51 51
51 54
51 56
51 67
51 70
51 81
51 88
51 92
51 98
51 100
51 109
51 123
52 0
52 1
52 3
52 21
52 22
52 23
52 24
52 25
52 26
52 28
52 29
52 36
52 37
52 38
52 40
52 41
52 43
52 45
52 48
52 50
52 52
52 54
52 56
52 60
52 63
52 85
52 121
53 1
53 21
53 22
53 23
53 24
53 25
53 26
54 0
54 1
54 2
54 3
54 5
54 6
54 7
54 10
54 11
54 13
54 15
54 17
54 18
54 19
54 20
54 21
54 22
54 23
54 24
54 25
54 26
54 28
54 33
54 34
54 35
54 36
54 39
54 40
54 41
54 43
54 45
54 48
54 50
54 51
54 52
54 54
54 56
54 57
54 58
54 61
54 63
54 64
54 65
54 71
54 72
54 81
54 87
54 88
54 90
54 97
54 111
55 1
55 28
55 33
56 0
56 1
56 2
56 3
56 4
56 11
56 18
56 19
56 23
56 24
56 25
56 26
56 28
56 29
56 34
56 36
56 43
56 44
56 45
56 48
56 51
56 52
56 54
56 57
56 58
56 63
56 79
56 89
56 93
56 97
56 100
56 111
56 116
56 118
56 120
57 0
57 1
57 2
57 3
57 22
57 23
57 24
57 25
57 26
57 28
57 33
57 34
57 36
57 40
57 41
57 43
57 45
57 50
57 54
57 56
57 57
57 64
57 71
57 73
57 78
58 0
58 1
58 3
58 22
58 23
58 24
58 25
58 26
58 29
58 34
58 39
58 54
58 56
58 63
58 79
58 90
58 116
59 0
59 1
59 3
59 22
59 23
59 24
59 25
59 26
59 36
59 40
59 41
59 45
59 85
60 0
60 1
60 2
60 21
60 22
60 23
60 24
60 25
60 26
60 38
60 40
60 41
60 52
60 85
61 0
61 1
61 2
61 3
61 5
61 6
61 7
61 9
61 10
61 11
61 12
61 13
61 14
61 15
61 16
61 17
61 18
61 19
61 20
61 54
61 61
61 68
61 69
61 70
61 72
61 76
61 77
61 82
61 84
61 86
61 87
61 88
61 89
61 92
61 95
61 111
61 115
61 124
62 0
62 1
62 2
62 8
62 49
62 62
62 91
62 94
62 98
62 101
62 103
62 104
62 105
62 106
62 107
62 112
62 113
62 114
62 123
63 0
63 1
63 3
63 23
63 24
63 25
63 26
63 28
63 29
63 33
63 34
63 43
63 45
63 52
63 54
63 56
63 58
63 63
63 64
63 71
63 79
63 93
63 116
63 117
63 118
63 119
63 120
63 121
63 122
64 0
64 1
64 25
64 29
64 34
64 40
64 43
64 45
64 54
64 57
64 63
64 97
64 116
65 0
65 1
65 28
65 54
66 0
66 1
66 2
66 3
66 4
66 5
66 6
66 7
66 10
66 11
66 13
66 15
66 16
66 17
66 20
66 67
66 69
66 72
66 77
66 83
66 87
66 95
66 109
66 111
67 0
67 1
67 2
67 5
67 6
67 10
67 11
67 12
67 13
67 14
67 15
67 16
67 17
67 18
67 19
67 20
67 30
67 31
67 51
67 66
67 67
67 68
67 69
67 70
67 72
67 76
67 82
67 83
67 87
67 88
67 95
67 96
67 97
67 98
67 100
67 123
67 124
68 0
68 1
68 2
68 5
68 6
68 9
68 10
68 11
68 12
68 13
68 14
68 15
68 16
68 17
68 18
68 19
68 20
68 28
68 61
68 67
68 69
68 70
68 76
68 77
68 80
68 82
68 84
68 86
68 87
68 88
68 89
68 97
68 115
69 0
69 1
69 2
69 3
69 4
69 5
69 6
69 7
69 9
69 10
69 11
69 12
69 13
69 14
69 15
69 16
69 17
69 18
69 19
69 20
69 30
69 31
69 61
69 66
69 67
69 68
69 69
69 70
69 72
69 76
69 77
69 80
69 82
69 83
69 84
69 86
69 87
69 88
69 89
69 92
69 95
69 100
69 108
69 109
69 110
69 111
69 115
70 0
70 1
70 2
70 3
70 4
70 5
70 6
70 7
70 9
70 10
70 11
70 12
70 13
70 14
70 15
70 16
70 17
70 18
70 19
70 20
70 30
70 51
70 61
70 67
70 68
70 69
70 76
70 77
70 80
70 81
70 82
70 83
70 84
70 86
70 87
70 88
70 89
70 92
70 95
70 97
70 109
70 111
70 115
71 0
71 1
71 29
71 33
71 37
71 43
71 45
71 50
71 54
71 57
71 63
71 79
71 93
71 116
71 119
72 1
72 2
72 3
72 16
72 18
72 19
72 20
72 30
72 31
72 54
72 61
72 66
72 67
72 69
72 72
72 76
72 77
72 97
73 0
73 1
73 2
73 22
73 23
73 24
73 25
73 26
73 28
73 32
73 33
73 57
74 1
74 21
74 23
74 24
74 25
74 26
74 29
74 35
74 38
74 41
74 43
74 48
74 50
75 0
75 1
75 36
75 41
76 0
76 1
76 2
76 3
76 4
76 5
76 6
76 7
76 9
76 10
76 11
76 12
76 13
76 14
76 15
76 16
76 17
76 18
76 19
76 20
76 30
76 61
76 67
76 68
76 69
76 70
76 72
76 77
76 80
76 82
76 83
76 84
76 86
76 87
76 88
76 89
76 92
76 95
76 97
76 98
76 108
76 109
76 110
76 111
76 115
77 1
77 3
77 5
77 6
77 7
77 9
77 10
77 11
77 12
77 13
77 14
77 15
77 16
77 17
77 18
77 19
77 20
77 61
77 66
77 68
77 69
77 70
77 72
77 76
77 82
77 83
77 84
77 86
77 87
77 88
77 95
77 97
77 109
77 111
77 115
78 0
78 1
78 2
78 24
78 25
78 26
78 36
78 40
78 41
78 48
78 50
78 57
78 78
78 85
78 116
79 1
79 23
79 24
79 25
79 26
79 28
79 34
79 36
79 41
79 56
79 58
79 63
79 71
79 93
79 116
79 118
79 120
80 0
80 1
80 2
80 3
80 4
80 5
80 6
80 10
80 11
80 12
80 13
80 14
80 15
80 16
80 17
80 18
80 19
80 20
80 31
80 68
80 69
80 70
80 76
80 84
80 86
80 87
80 88
80 89
80 92
80 95
80 100
80 109
80 124
81 0
81 1
81 2
81 3
81 5
81 6
81 10
81 16
81 17
81 20
81 51
81 54
81 70
81 88
81 111
82 2
82 5
82 6
82 9
82 10
82 11
82 12
82 13
82 14
82 15
82 16
82 17
82 18
82 19
82 20
82 61
82 67
82 68
82 69
82 70
82 76
82 77
82 82
82 84
82 86
82 87
82 88
82 100
82 115
83 1
83 2
83 3
83 4
83 5
83 6
83 7
83 8
83 10
83 11
83 12
83 13
83 15
83 16
83 17
83 20
83 28
83 66
83 67
83 69
83 70
83 76
83 77
83 84
83 87
83 88
83 95
83 109
83 110
83 111
83 113
83 115
84 0
84 1
84 2
84 3
84 4
84 5
84 6
84 7
84 9
84 10
84 11
84 12
84 13
84 14
84 15
84 16
84 17
84 18
84 19
84 20
84 61
84 68
84 69
84 70
84 76
84 77
84 80
84 82
84 83
84 84
84 86
84 87
84 88
84 95
84 110
84 111
84 115
84 124
85 0
85 1
85 2
85 3
85 25
85 50
85 52
85 59
85 60
85 78
85 91
86 1
86 2
86 3
86 5
86 6
86 9
86 10
86 11
86 12
86 13
86 14
86 15
86 16
86 17
86 18
86 19
86 20
86 28
86 61
86 68
86 69
86 70
86 76
86 77
86 80
86 82
86 84
86 87
86 88
86 115
87 1
87 2
87 3
87 4
87 5
87 6
87 7
87 9
87 10
87 11
87 12
87 13
87 14
87 15
87 16
87 17
87 18
87 19
87 20
87 30
87 54
87 61
87 66
87 67
87 68
87 69
87 70
87 76
87 77
87 80
87 82
87 83
87 84
87 86
87 87
87 88
87 95
87 108
87 109
87 110
87 111
87 115
88 0
88 1
88 2
88 3
88 5
88 6
88 7
88 9
88 10
88 11
88 12
88 13
88 14
88 15
88 16
88 17
88 18
88 19
88 20
88 51
88 54
88 61
88 67
88 68
88 69
88 70
88 76
88 77
88 80
88 81
88 82
88 83
88 84
88 86
88 87
88 92
88 95
88 109
88 110
88 111
88 115
89 0
89 1
89 2
89 3
89 5
89 10
89 11
89 15
89 19
89 20
89 28
89 56
89 61
89 68
89 69
89 70
89 76
89 80
89 92
89 97
89 100
89 115
90 1
90 21
90 25
90 34
90 54
90 58
90 93
90 116
90 117
90 118
90 119
90 120
90 121
90 122
91 1
91 2
91 3
91 8
91 49
91 62
91 85
91 104
91 105
91 106
91 107
91 124
92 0
92 1
92 2
92 3
92 5
92 6
92 11
92 12
92 13
92 15
92 18
92 19
92 20
92 28
92 51
92 61
92 69
92 70
92 76
92 80
92 88
92 89
92 97
92 100
92 115
93 0
93 1
93 2
93 23
93 24
93 25
93 26
93 29
93 32
93 56
93 63
93 71
93 79
93 90
94 1
94 2
94 8
94 49
94 62
94 94
94 98
94 101
94 103
94 104
94 105
94 112
94 113
94 114
94 123
95 0
95 1
95 2
95 3
95 4
95 5
95 6
95 7
95 10
95 11
95 12
95 13
95 15
95 16
95 17
95 18
95 19
95 20
95 28
95 37
95 61
95 66
95 67
95 69
95 70
95 76
95 77
95 80
95 83
95 84
95 87
95 88
95 95
95 97
95 109
95 111
95 115
96 0
96 1
96 2
96 11
96 14
96 20
96 31
96 67
96 97
96 100
97 0
97 1
97 2
97 5
97 11
97 15
97 19
97 20
97 31
97 54
97 56
97 64
97 67
97 68
97 70
97 72
97 76
97 77
97 89
97 92
97 95
97 96
97 97
98 0
98 1
98 2
98 3
98 8
98 10
98 31
98 49
98 51
98 62
98 67
98 76
98 94
98 101
98 104
98 105
98 113
98 123
99 0
99 1
99 2
99 3
99 23
99 24
99 25
99 26
99 28
99 32
99 42
99 43
99 48
100 0
100 1
100 2
100 5
100 11
100 13
100 19
100 28
100 31
100 51
100 56
100 67
100 69
100 80
100 82
100 89
100 92
100 96
101 0
101 1
101 2
101 8
101 10
101 49
101 62
101 94
101 98
101 101
101 103
101 104
101 105
101 106
101 107
101 112
101 113
101 114
101 123
102 0
102 2
103 1
103 8
103 49
103 62
103 94
103 101
103 103
103 104
103 105
103 106
103 112
103 113
103 114
104 0
104 1
104 2
104 8
104 49
104 62
104 91
104 94
104 98
104 101
104 103
104 104
104 105
104 106
104 107
104 112
104 113
104 114
104 123
104 124
105 0
105 1
105 2
105 8
105 20
105 49
105 62
105 91
105 94
105 98
105 101
105 103
105 104
105 105
105 106
105 107
105 112
105 113
105 114
105 123
106 0
106 1
106 8
106 43
106 45
106 49
106 62
106 91
106 101
106 103
106 104
106 105
106 107
106 112
106 113
107 0
107 1
107 8
107 28
107 49
107 62
107 91
107 101
107 104
107 105
107 106
107 112
107 113
108 0
108 1
108 2
108 3
108 5
108 7
108 10
108 11
108 12
108 14
108 15
108 16
108 17
108 20
108 30
108 31
108 69
108 76
108 87
108 111
108 115
109 0
109 1
109 2
109 3
109 4
109 5
109 6
109 7
109 11
109 15
109 16
109 17
109 18
109 19
109 20
109 28
109 51
109 66
109 69
109 70
109 76
109 77
109 80
109 83
109 87
109 88
109 95
109 109
109 111
110 3
110 5
110 6
110 10
110 11
110 12
110 16
110 20
110 69
110 76
110 83
110 84
110 87
110 88
110 115
111 0
111 1
111 2
111 3
111 4
111 5
111 6
111 7
111 10
111 11
111 13
111 15
111 16
111 17
111 19
111 20
111 28
111 41
111 54
111 56
111 61
111 66
111 69
111 70
111 76
111 77
111 81
111 83
111 84
111 87
111 88
111 95
111 108
111 109
111 111
111 115
112 1
112 8
112 49
112 62
112 94
112 101
112 103
112 104
112 105
112 106
112 107
112 113
112 114
113 0
113 1
113 2
113 8
113 49
113 62
113 83
113 94
113 98
113 101
113 103
113 104
113 105
113 106
113 107
113 112
113 113
113 114
114 1
114 2
114 8
114 49
114 62
114 94
114 101
114 103
114 104
114 105
114 112
114 113
115 3
115 4
115 5
115 7
115 9
115 10
115 11
115 12
115 13
115 14
115 15
115 16
115 17
115 18
115 19
115 20
115 30
115 61
115 68
115 69
115 70
115 76
115 77
115 82
115 83
115 84
115 86
115 87
115 88
115 89
115 92
115 95
115 108
115 110
115 111
116 0
116 1
116 2
116 22
116 23
116 24
116 25
116 26
116 29
116 33
116 34
116 35
116 36
116 39
116 40
116 43
116 47
116 56
116 58
116 63
116 64
116 71
116 78
116 79
116 90
116 116
116 118
117 0
117 1
117 23
117 24
117 25
117 26
117 34
117 39
117 47
117 63
117 90
118 0
118 1
118 2
118 23
118 24
118 25
118 26
118 29
118 32
118 34
118 36
118 43
118 56
118 63
118 79
118 90
118 116
119 0
119 1
119 2
119 23
119 24
119 25
119 26
119 32
119 33
119 34
119 36
119 63
119 71
119 90
119 119
119 121
119 122
120 0
120 1
120 23
120 24
120 25
120 26
120 29
120 34
120 39
120 43
120 56
120 63
120 79
120 90
121 0
121 1
121 23
121 24
121 25
121 26
121 39
121 52
121 63
121 90
121 119
122 0
122 1
122 23
122 24
122 25
122 26
122 34
122 39
122 63
122 90
122 119
123 0
123 1
123 2
123 8
123 18
123 31
123 36
123 45
123 49
123 51
123 62
123 67
123 94
123 98
123 101
123 104
123 105
123 124
124 0
124 1
124 2
124 3
124 5
124 6
124 7
124 8
124 10
124 11
124 13
124 18
124 20
124 31
124 49
124 61
124 67
124 80
124 84
124 91
124 104
124 123
