0 0
0 1
0 2
0 3
0 4
0 9
0 14
0 16
0 21
0 23
0 30
0 31
0 32
0 33
0 34
0 35
0 36
0 37
0 38
0 39
0 40
0 41
0 42
0 43
0 44
0 45
0 46
0 47
0 48
0 49
0 50
0 51
0 52
0 53
0 54
0 55
0 56
0 57
0 58
0 59
0 60
0 61
0 62
0 63
0 64
0 65
0 66
0 67
0 68
0 69
0 70
0 71
0 73
0 75
0 76
0 77
0 78
0 81
0 83
0 84
0 85
0 86
0 87
0 88
0 89
0 94
0 95
0 97
0 98
0 100
0 101
0 103
0 105
0 107
0 108
0 110
0 111
0 112
0 113
0 114
0 121
0 123
0 126
0 128
0 129
0 130
0 131
0 132
0 134
0 137
0 141
0 144
0 145
0 146
0 149
0 150
0 151
0 152
0 153
0 155
0 156
0 158
0 159
0 160
0 162
0 164
0 165
0 169
0 195
0 200
0 205
0 207
0 208
0 211
0 213
0 214
0 216
0 217
0 218
0 219
0 222
0 224
0 225
0 229
0 231
0 232
0 233
0 236
0 237
0 239
1 0
1 1
1 2
1 3
1 4
1 5
1 9
1 10
1 14
1 15
1 16
1 19
1 21
1 24
1 26
1 28
1 29
1 30
1 31
1 32
1 33
1 34
1 35
1 36
1 37
1 38
1 40
1 41
1 42
1 43
1 44
1 45
1 46
1 47
1 49
1 50
1 51
1 52
1 53
1 54
1 56
1 58
1 59
1 60
1 61
1 63
1 64
1 65
1 66
1 68
1 69
1 70
1 71
1 72
1 73
1 74
1 75
1 76
1 77
1 78
1 79
1 80
1 81
1 82
1 83
1 84
1 85
1 86
1 87
1 88
1 89
1 90
1 91
1 92
1 93
1 94
1 95
1 96
1 97
1 98
1 99
1 100
1 101
1 102
1 103
1 104
1 105
1 106
1 107
1 108
1 109
1 110
1 111
1 112
1 113
1 114
1 117
1 121
1 124
1 125
1 128
1 129
1 130
1 131
1 132
1 133
1 134
1 136
1 137
1 138
1 140
1 141
1 142
1 143
1 144
1 145
1 147
1 148
1 149
1 150
1 151
1 152
1 153
1 154
1 155
1 156
1 157
1 158
1 159
1 160
1 161
1 162
1 164
1 165
1 166
1 168
1 169
1 170
1 172
1 174
1 177
1 178
1 182
1 186
1 188
1 189
1 190
1 191
1 199
1 205
1 207
1 208
1 209
1 210
1 211
1 212
1 213
1 214
1 216
1 217
1 218
1 219
1 224
1 225
1 226
1 227
1 228
1 229
1 232
1 236
1 238
1 239
2 0
2 1
2 2
2 3
2 4
2 5
2 6
2 9
2 10
2 11
2 13
2 14
2 15
2 16
2 19
2 21
2 25
2 26
2 27
2 28
2 29
2 30
2 31
2 32
2 34
2 35
2 36
2 37
2 38
2 40
2 43
2 44
2 45
2 46
2 47
2 50
2 51
2 52
2 54
2 56
2 58
2 59
2 60
2 61
2 63
2 64
2 65
2 67
2 69
2 71
2 72
2 73
2 75
2 76
2 77
2 78
2 80
2 81
2 82
2 83
2 84
2 85
2 86
2 87
2 88
2 89
2 98
2 99
2 100
2 102
2 103
2 104
2 108
2 109
2 110
2 111
2 112
2 113
2 114
2 115
2 116
2 117
2 118
2 119
2 120
2 121
2 122
2 123
2 124
2 125
2 126
2 127
2 128
2 129
2 130
2 131
2 132
2 133
2 134
2 135
2 136
2 137
2 139
2 140
2 141
2 142
2 143
2 144
2 145
2 148
2 150
2 151
2 152
2 154
2 158
2 162
2 164
2 165
2 166
2 167
2 168
2 169
2 170
2 171
2 173
2 178
2 180
2 181
2 183
2 184
2 186
2 188
2 189
2 190
2 191
2 193
2 194
2 195
2 197
2 198
2 199
2 200
2 203
2 205
2 206
2 207
2 212
2 213
2 214
2 216
2 217
2 218
2 219
2 224
2 225
2 226
2 227
2 229
2 231
2 232
2 236
2 237
2 239
3 0
3 1
3 2
3 3
3 4
3 5
3 6
3 7
3 9
3 10
3 11
3 12
3 13
3 15
3 16
3 19
3 21
3 24
3 25
3 26
3 27
3 28
3 29
3 30
3 31
3 32
3 33
3 34
3 35
3 36
3 37
3 38
3 40
3 41
3 42
3 43
3 44
3 45
3 46
3 47
3 51
3 52
3 54
3 55
3 63
3 64
3 66
3 67
3 68
3 69
3 71
3 73
3 77
3 78
3 81
3 84
3 86
3 88
3 90
3 92
3 98
3 99
3 100
3 102
3 103
3 104
3 106
3 108
3 109
3 115
3 117
3 120
3 121
3 122
3 123
3 125
3 129
3 136
3 137
3 140
3 141
3 142
3 147
3 148
3 149
3 150
3 151
3 152
3 153
3 155
3 157
3 158
3 160
3 161
3 163
3 164
3 165
3 166
3 167
3 168
3 169
3 170
3 171
3 172
3 173
3 175
3 176
3 177
3 178
3 179
3 180
3 181
3 183
3 190
3 193
3 195
3 197
3 198
3 199
3 200
3 202
3 203
3 205
3 206
3 222
3 223
3 224
3 226
3 239
4 0
4 1
4 2
4 3
4 4
4 5
4 6
4 7
4 9
4 10
4 11
4 12
4 13
4 18
4 19
4 20
4 21
4 22
4 23
4 24
4 25
4 26
4 27
4 28
4 29
4 30
4 31
4 32
4 33
4 34
4 40
4 43
4 46
4 51
4 62
4 64
4 67
4 68
4 69
4 70
4 71
4 73
4 77
4 81
4 92
4 99
4 102
4 103
4 104
4 106
4 109
4 115
4 116
4 117
4 118
4 120
4 121
4 122
4 127
4 133
4 136
4 137
4 140
4 142
4 143
4 147
4 148
4 149
4 150
4 151
4 152
4 153
4 154
4 155
4 164
4 165
4 166
4 167
4 169
4 171
4 172
4 173
4 175
4 176
4 177
4 178
4 179
4 180
4 181
4 182
4 183
4 187
4 188
4 189
4 190
4 192
4 197
4 198
4 199
4 202
4 203
4 222
4 240
5 1
5 2
5 3
5 4
5 5
5 6
5 7
5 8
5 9
5 10
5 11
5 12
5 13
5 16
5 18
5 19
5 20
5 21
5 22
5 23
5 24
5 25
5 26
5 27
5 28
5 29
5 30
5 31
5 32
5 43
5 51
5 67
5 68
5 69
5 71
5 81
5 99
5 102
5 103
5 115
5 117
5 118
5 120
5 136
5 137
5 139
5 140
5 142
5 143
5 147
5 149
5 150
5 151
5 152
5 157
5 176
5 177
5 179
5 180
5 183
5 187
5 188
5 196
5 197
5 198
5 199
5 200
5 201
5 202
5 203
5 240
6 2
6 3
6 4
6 5
6 12
6 18
6 19
6 20
6 21
6 22
6 23
6 24
6 26
6 27
6 28
6 29
6 30
6 32
6 67
6 71
6 103
6 118
6 119
6 120
6 123
6 135
6 136
6 137
6 139
6 140
6 142
6 150
6 180
6 183
6 197
6 198
6 199
6 203
6 240
7 3
7 4
7 5
7 8
7 9
7 10
7 12
7 17
7 19
7 20
7 21
7 22
7 23
7 24
7 26
7 27
7 28
7 30
7 31
7 32
7 43
7 71
7 103
7 115
7 120
7 136
7 137
7 140
7 142
7 147
7 149
7 150
7 151
7 176
7 177
7 183
7 196
7 202
8 5
8 7
8 10
8 12
8 13
8 17
8 18
8 19
8 20
8 21
8 22
8 23
8 24
8 25
8 26
8 27
8 28
8 29
8 30
8 31
8 32
8 43
8 51
8 67
8 68
8 71
8 102
8 103
8 117
8 118
8 119
8 120
8 121
8 135
8 136
8 137
8 139
8 140
8 143
8 150
8 151
8 175
8 176
8 183
8 187
8 199
8 201
9 0
9 1
9 2
9 3
9 4
9 5
9 7
9 10
9 12
9 13
9 17
9 18
9 19
9 20
9 21
9 22
9 23
9 24
9 25
9 26
9 27
9 28
9 29
9 30
9 31
9 32
9 43
9 44
9 51
9 52
9 67
9 68
9 69
9 71
9 81
9 99
9 102
9 103
9 115
9 116
9 117
9 118
9 119
9 120
9 121
9 123
9 125
9 133
9 135
9 136
9 137
9 139
9 140
9 143
9 147
9 148
9 149
9 150
9 151
9 175
9 176
9 177
9 180
9 183
9 187
9 192
9 196
9 197
9 198
9 199
9 200
9 201
9 202
9 240
10 1
10 2
10 3
10 4
10 5
10 7
10 8
10 9
10 10
10 12
10 13
10 17
10 18
10 19
10 20
10 21
10 22
10 23
10 24
10 25
10 26
10 27
10 28
10 29
10 30
10 31
10 32
10 43
10 51
10 57
10 67
10 68
10 71
10 81
10 99
10 103
10 115
10 116
10 117
10 118
10 119
10 120
10 121
10 125
10 135
10 136
10 137
10 139
10 140
10 147
10 148
10 149
10 150
10 151
10 152
10 175
10 176
10 177
10 180
10 183
10 187
10 196
10 197
10 198
10 199
10 200
10 201
10 202
10 203
11 2
11 3
11 4
11 5
11 12
11 13
11 17
11 18
11 19
11 20
11 21
11 22
11 23
11 24
11 25
11 26
11 27
11 28
11 29
11 30
11 31
11 32
11 43
11 68
11 71
11 81
11 103
11 116
11 117
11 118
11 119
11 120
11 121
11 123
11 125
11 135
11 136
11 137
11 139
11 140
11 143
11 147
11 148
11 150
11 151
11 175
11 176
11 177
11 183
11 187
11 197
11 198
11 199
11 200
11 201
11 202
11 203
11 240
12 3
12 4
12 5
12 6
12 7
12 8
12 9
12 10
12 11
12 13
12 18
12 19
12 20
12 21
12 22
12 24
12 27
12 32
12 43
12 67
12 68
12 103
12 115
12 119
12 120
12 139
12 147
12 149
12 176
12 180
12 187
12 202
13 2
13 3
13 4
13 5
13 8
13 9
13 10
13 11
13 12
13 18
13 19
13 20
13 21
13 22
13 23
13 24
13 26
13 27
13 28
13 29
13 30
13 32
13 67
13 68
13 71
13 103
13 118
13 119
13 120
13 123
13 135
13 136
13 137
13 139
13 140
13 142
13 150
13 180
13 183
13 187
13 197
13 198
13 199
13 203
13 240
14 0
14 1
14 2
14 14
14 15
14 16
14 41
14 44
14 52
14 109
14 160
14 164
14 165
14 166
14 168
14 169
14 170
14 171
14 173
14 193
14 194
14 195
14 204
14 205
14 206
14 222
15 1
15 2
15 3
15 14
15 15
15 16
15 41
15 44
15 52
15 109
15 160
15 164
15 166
15 168
15 169
15 170
15 171
15 173
15 181
15 188
15 193
15 204
15 205
15 206
15 222
16 0
16 1
16 2
16 3
16 5
16 14
16 15
16 16
16 32
16 41
16 44
16 109
16 155
16 160
16 164
16 166
16 168
16 169
16 170
16 171
16 173
16 176
16 181
16 188
16 193
16 194
16 195
16 204
16 205
16 206
16 222
17 7
17 8
17 9
17 10
17 11
17 18
17 19
17 20
17 21
17 22
17 23
17 24
17 25
17 26
17 27
17 28
17 29
17 30
17 31
17 32
17 68
17 71
17 103
17 117
17 118
17 119
17 120
17 121
17 135
17 136
17 137
17 139
17 140
17 150
17 151
17 175
17 183
17 187
18 4
18 5
18 6
18 8
18 9
18 10
18 11
18 12
18 13
18 17
18 18
18 19
18 20
18 21
18 22
18 23
18 24
18 25
18 26
18 27
18 28
18 29
18 30
18 31
18 32
18 43
18 51
18 67
18 68
18 71
18 103
18 117
18 118
18 119
18 120
18 121
18 135
18 136
18 137
18 139
18 140
18 148
18 150
18 151
18 175
18 176
18 179
18 183
18 187
18 197
18 198
18 201
18 222
19 1
19 2
19 3
19 4
19 5
19 6
19 7
19 8
19 9
19 10
19 11
19 12
19 13
19 17
19 18
19 19
19 20
19 21
19 22
19 23
19 24
19 25
19 26
19 27
19 28
19 29
19 30
19 31
19 32
19 43
19 51
19 52
19 67
19 68
19 69
19 71
19 102
19 103
19 115
19 116
19 117
19 118
19 119
19 120
19 121
19 123
19 133
19 135
19 136
19 137
19 139
19 140
19 148
19 149
19 150
19 151
19 175
19 176
19 177
19 179
19 180
19 183
19 187
19 188
19 196
19 197
19 198
19 199
19 240
20 4
20 5
20 6
20 7
20 8
20 9
20 10
20 11
20 12
20 13
20 17
20 18
20 19
20 20
20 21
20 22
20 23
20 24
20 25
20 26
20 27
20 28
20 29
20 30
20 31
20 32
20 43
20 44
20 51
20 67
20 68
20 69
20 71
20 103
20 115
20 116
20 117
20 118
20 119
20 120
20 121
20 125
20 135
20 136
20 137
20 139
20 140
20 143
20 149
20 150
20 151
20 175
20 176
20 179
20 180
20 183
20 187
20 196
20 199
20 200
20 201
21 0
21 1
21 2
21 3
21 4
21 5
21 6
21 7
21 8
21 9
21 10
21 11
21 12
21 13
21 17
21 18
21 19
21 20
21 21
21 22
21 23
21 24
21 25
21 26
21 27
21 28
21 29
21 30
21 31
21 32
21 43
21 51
21 57
21 67
21 68
21 69
21 71
21 73
21 99
21 102
21 103
21 115
21 116
21 117
21 118
21 119
21 120
21 121
21 123
21 135
21 136
21 137
21 139
21 140
21 142
21 147
21 149
21 150
21 151
21 152
21 175
21 176
21 179
21 180
21 183
21 187
21 190
21 197
21 198
21 199
21 200
21 201
21 202
21 203
22 4
22 5
22 6
22 7
22 8
22 9
22 10
22 11
22 12
22 13
22 17
22 18
22 19
22 20
22 21
22 23
22 24
22 25
22 26
22 27
22 28
22 29
22 30
22 31
22 32
22 51
22 67
22 68
22 71
22 103
22 116
22 117
22 118
22 119
22 120
22 121
22 135
22 136
22 137
22 139
22 140
22 150
22 151
22 175
22 176
22 179
22 183
22 187
22 201
23 0
23 4
23 5
23 6
23 7
23 8
23 9
23 10
23 11
23 13
23 17
23 18
23 19
23 20
23 21
23 22
23 23
23 24
23 25
23 26
23 27
23 28
23 29
23 30
23 31
23 32
23 43
23 67
23 68
23 71
23 81
23 103
23 117
23 118
23 119
23 120
23 121
23 135
23 136
23 137
23 139
23 140
23 143
23 150
23 151
23 157
23 175
23 176
23 179
23 183
23 187
23 192
23 197
23 201
24 1
24 3
24 4
24 5
24 6
24 7
24 8
24 9
24 10
24 11
24 12
24 13
24 17
24 18
24 19
24 20
24 21
24 22
24 23
24 25
24 26
24 27
24 28
24 29
24 30
24 31
24 32
24 43
24 52
24 68
24 71
24 103
24 117
24 118
24 119
24 120
24 121
24 135
24 136
24 137
24 139
24 140
24 149
24 150
24 151
24 157
24 175
24 176
24 180
24 183
24 187
24 196
24 199
24 200
24 201
25 2
25 3
25 4
25 5
25 8
25 9
25 10
25 11
25 17
25 18
25 19
25 20
25 21
25 22
25 23
25 24
25 26
25 27
25 28
25 29
25 30
25 31
25 32
25 68
25 71
25 73
25 99
25 103
25 117
25 118
25 119
25 120
25 121
25 135
25 136
25 137
25 139
25 140
25 150
25 151
25 157
25 175
25 179
25 183
25 187
26 1
26 2
26 3
26 4
26 5
26 6
26 7
26 8
26 9
26 10
26 11
26 13
26 17
26 18
26 19
26 20
26 21
26 22
26 23
26 24
26 25
26 27
26 28
26 29
26 30
26 31
26 32
26 43
26 67
26 68
26 71
26 73
26 81
26 102
26 103
26 115
26 117
26 118
26 119
26 120
26 121
26 122
26 125
26 135
26 136
26 137
26 139
26 140
26 143
26 150
26 151
26 157
26 175
26 176
26 177
26 179
26 183
26 187
26 197
26 198
26 199
27 2
27 3
27 4
27 5
27 6
27 7
27 8
27 9
27 10
27 11
27 12
27 13
27 17
27 18
27 19
27 20
27 21
27 22
27 23
27 24
27 25
27 26
27 28
27 29
27 30
27 31
27 32
27 43
27 51
27 67
27 68
27 71
27 103
27 116
27 117
27 118
27 119
27 120
27 121
27 125
27 135
27 136
27 137
27 139
27 140
27 147
27 150
27 151
27 157
27 175
27 176
27 179
27 180
27 183
27 187
27 197
27 198
27 199
27 200
27 201
27 202
27 203
28 1
28 2
28 3
28 4
28 5
28 6
28 7
28 8
28 9
28 10
28 11
28 13
28 17
28 18
28 19
28 20
28 21
28 22
28 23
28 24
28 25
28 26
28 27
28 29
28 30
28 31
28 32
28 43
28 67
28 68
28 69
28 71
28 103
28 115
28 116
28 117
28 118
28 119
28 120
28 121
28 127
28 135
28 136
28 137
28 139
28 140
28 150
28 151
28 157
28 175
28 176
28 177
28 180
28 183
28 187
28 199
28 201
28 202
29 1
29 2
29 3
29 4
29 5
29 6
29 8
29 9
29 10
29 11
29 13
29 17
29 18
29 19
29 20
29 21
29 22
29 23
29 24
29 25
29 26
29 27
29 28
29 30
29 31
29 32
29 43
29 52
29 68
29 71
29 81
29 103
29 116
29 117
29 118
29 119
29 120
29 121
29 122
29 125
29 135
29 136
29 137
29 139
29 140
29 143
29 147
29 148
29 150
29 151
29 157
29 175
29 176
29 177
29 179
29 183
29 187
29 197
29 198
29 199
29 200
29 201
29 202
29 203
30 0
30 1
30 2
30 3
30 4
30 5
30 6
30 7
30 8
30 9
30 10
30 11
30 13
30 17
30 18
30 19
30 20
30 21
30 22
30 23
30 24
30 25
30 26
30 27
30 28
30 29
30 30
30 31
30 32
30 43
30 51
30 52
30 68
30 69
30 71
30 81
30 103
30 116
30 117
30 118
30 119
30 120
30 121
30 122
30 123
30 127
30 135
30 136
30 137
30 139
30 140
30 142
30 143
30 147
30 150
30 151
30 155
30 157
30 175
30 179
30 183
30 187
30 192
30 194
30 196
30 200
31 0
31 1
31 2
31 3
31 4
31 5
31 7
31 8
31 9
31 10
31 11
31 17
31 18
31 19
31 20
31 21
31 22
31 23
31 24
31 25
31 26
31 27
31 28
31 29
31 30
31 32
31 43
31 51
31 68
31 69
31 71
31 73
31 81
31 99
31 102
31 103
31 108
31 116
31 117
31 118
31 119
31 120
31 121
31 122
31 123
31 127
31 133
31 135
31 136
31 137
31 139
31 140
31 142
31 143
31 147
31 150
31 151
31 152
31 157
31 175
31 177
31 183
31 187
31 198
31 199
31 200
32 0
32 1
32 2
32 3
32 4
32 5
32 6
32 7
32 8
32 9
32 10
32 11
32 12
32 13
32 16
32 17
32 18
32 19
32 20
32 21
32 22
32 23
32 24
32 25
32 26
32 27
32 28
32 29
32 30
32 31
32 43
32 51
32 52
32 67
32 68
32 69
32 71
32 73
32 81
32 99
32 102
32 103
32 115
32 116
32 117
32 118
32 119
32 120
32 121
32 123
32 125
32 127
32 133
32 135
32 136
32 137
32 139
32 140
32 143
32 147
32 148
32 149
32 150
32 151
32 157
32 175
32 176
32 177
32 179
32 180
32 183
32 187
32 190
32 196
32 197
32 198
32 199
32 200
32 201
32 202
32 203
32 240
33 0
33 1
33 3
33 4
33 34
33 35
33 36
33 37
33 38
33 46
33 72
33 75
33 86
33 87
33 88
33 91
33 92
33 95
33 97
33 104
33 106
33 130
33 185
33 186
33 208
33 220
34 0
34 1
34 2
34 3
34 4
34 33
34 35
34 37
34 38
34 45
34 47
34 53
34 54
34 62
34 72
34 73
34 75
34 77
34 83
34 85
34 86
34 87
34 88
34 91
34 92
34 93
34 95
34 97
34 100
34 104
34 105
34 106
34 108
34 124
34 128
34 130
34 138
34 141
34 154
34 191
34 208
34 209
34 220
34 221
34 224
34 239
35 0
35 1
35 2
35 3
35 33
35 34
35 36
35 37
35 38
35 42
35 45
35 47
35 52
35 55
35 56
35 59
35 61
35 62
35 65
35 66
35 70
35 72
35 75
35 77
35 80
35 86
35 87
35 88
35 89
35 90
35 91
35 93
35 94
35 95
35 96
35 97
35 100
35 105
35 113
35 123
35 124
35 126
35 128
35 129
35 130
35 138
35 153
35 154
35 156
35 159
35 161
35 163
35 167
35 178
35 182
35 184
35 189
35 208
35 221
35 223
35 224
35 225
35 226
35 227
35 239
36 0
36 1
36 2
36 3
36 33
36 35
36 36
36 37
36 38
36 42
36 47
36 52
36 55
36 56
36 59
36 61
36 62
36 65
36 66
36 70
36 72
36 77
36 80
36 83
36 84
36 85
36 86
36 87
36 88
36 89
36 90
36 91
36 93
36 94
36 95
36 96
36 97
36 98
36 100
36 105
36 108
36 113
36 123
36 124
36 126
36 128
36 129
36 130
36 138
36 153
36 154
36 156
36 159
36 161
36 163
36 167
36 178
36 182
36 184
36 189
36 208
36 209
36 220
36 221
36 223
36 224
36 225
36 226
36 227
36 237
36 239
37 0
37 1
37 2
37 3
37 33
37 34
37 35
37 36
37 38
37 40
37 42
37 46
37 47
37 52
37 54
37 55
37 56
37 59
37 60
37 61
37 64
37 65
37 66
37 70
37 73
37 75
37 76
37 78
37 80
37 83
37 84
37 85
37 86
37 88
37 89
37 90
37 91
37 93
37 94
37 95
37 96
37 97
37 100
37 105
37 107
37 108
37 113
37 123
37 126
37 128
37 129
37 130
37 131
37 132
37 138
37 141
37 144
37 145
37 153
37 154
37 156
37 159
37 161
37 163
37 167
37 178
37 182
37 184
37 185
37 186
37 189
37 207
37 208
37 209
37 212
37 213
37 214
37 221
37 223
37 224
37 225
37 226
37 227
37 229
37 230
37 239
38 0
38 1
38 2
38 3
38 33
38 34
38 35
38 36
38 37
38 42
38 45
38 46
38 47
38 52
38 54
38 55
38 56
38 59
38 61
38 62
38 65
38 66
38 70
38 72
38 73
38 75
38 77
38 80
38 86
38 87
38 88
38 89
38 90
38 91
38 93
38 94
38 95
38 96
38 97
38 100
38 105
38 113
38 123
38 124
38 126
38 128
38 129
38 130
38 131
38 138
38 144
38 145
38 153
38 154
38 156
38 159
38 161
38 162
38 163
38 167
38 178
38 182
38 184
38 189
38 208
38 209
38 213
38 214
38 220
38 221
38 223
38 224
38 225
38 226
38 227
38 236
38 239
39 0
39 39
40 0
40 1
40 2
40 3
40 4
40 37
40 40
40 46
40 47
40 51
40 52
40 53
40 57
40 85
40 155
41 0
41 1
41 3
41 14
41 15
41 16
41 44
41 52
41 99
41 160
41 164
41 166
41 169
41 170
41 171
41 181
41 194
41 195
41 205
41 222
42 0
42 1
42 3
42 35
42 36
42 37
42 38
42 45
42 56
42 59
42 87
42 89
42 94
42 124
42 129
42 182
42 184
42 189
43 0
43 1
43 2
43 3
43 4
43 5
43 7
43 8
43 9
43 10
43 11
43 12
43 18
43 19
43 20
43 21
43 23
43 24
43 26
43 27
43 28
43 29
43 30
43 31
43 32
43 43
43 57
43 71
43 99
43 103
43 115
43 116
43 121
43 133
43 136
43 137
43 139
43 140
43 147
43 149
43 150
43 151
43 176
43 177
43 180
43 183
43 187
43 202
44 0
44 1
44 2
44 3
44 9
44 14
44 15
44 16
44 20
44 41
44 48
44 52
44 155
44 160
44 164
44 165
44 166
44 168
44 169
44 170
44 171
44 173
44 181
44 188
44 193
44 194
44 195
44 204
44 205
44 206
44 222
45 0
45 1
45 2
45 3
45 34
45 35
45 38
45 42
45 47
45 52
45 59
45 61
45 63
45 82
45 87
45 93
45 94
45 95
45 113
45 128
45 153
45 154
45 156
45 159
45 162
45 220
45 221
45 227
46 0
46 1
46 2
46 3
46 4
46 33
46 37
46 38
46 40
46 46
46 52
46 59
46 60
46 66
46 73
46 77
46 78
46 80
46 86
46 88
46 89
46 93
46 100
46 108
46 113
46 123
46 124
46 132
46 134
46 153
46 157
46 158
46 159
46 161
46 165
46 167
46 178
46 184
46 185
46 186
46 208
46 209
46 223
46 224
46 225
46 226
46 227
46 237
46 239
47 0
47 1
47 2
47 3
47 34
47 35
47 36
47 37
47 38
47 40
47 45
47 47
47 50
47 52
47 53
47 58
47 62
47 65
47 86
47 101
47 107
47 110
47 114
47 213
47 216
47 231
48 0
48 44
48 48
48 50
48 57
49 0
49 1
49 74
49 101
49 107
49 207
49 228
50 0
50 1
50 2
50 47
50 48
50 58
50 229
50 231
51 0
51 1
51 2
51 3
51 4
51 5
51 8
51 9
51 10
51 18
51 19
51 20
51 21
51 22
51 27
51 30
51 31
51 32
51 40
51 67
51 68
51 69
51 71
51 81
51 116
51 118
51 120
51 122
51 127
51 137
51 140
51 150
51 151
51 157
52 0
52 1
52 2
52 3
52 9
52 14
52 15
52 19
52 24
52 29
52 30
52 32
52 35
52 36
52 37
52 38
52 40
52 41
52 44
52 45
52 46
52 47
52 52
52 53
52 54
52 72
52 73
52 76
52 83
52 84
52 86
52 88
52 94
52 110
52 112
52 114
52 119
52 131
52 134
52 150
52 164
52 165
52 179
52 205
52 206
52 207
52 208
52 213
52 216
52 217
52 231
52 232
52 237
52 239
53 0
53 1
53 34
53 40
53 47
53 52
53 94
53 114
53 211
53 216
54 0
54 1
54 2
54 3
54 34
54 37
54 38
54 52
54 73
54 77
54 83
54 84
54 85
54 86
54 97
54 98
54 105
54 108
54 124
54 130
54 131
54 141
54 144
54 145
54 208
54 212
54 224
54 229
54 231
54 236
55 0
55 3
55 35
55 36
55 37
55 38
55 56
55 86
55 89
55 104
55 184
55 185
55 186
55 239
56 0
56 1
56 2
56 35
56 36
56 37
56 38
56 42
56 55
56 89
56 94
56 124
56 129
56 184
57 0
57 10
57 21
57 40
57 43
57 48
58 0
58 1
58 2
58 47
58 50
58 101
59 0
59 1
59 2
59 35
59 36
59 37
59 38
59 42
59 45
59 46
59 61
59 63
59 66
59 78
59 86
59 90
59 124
59 129
59 153
59 158
59 161
59 163
59 165
59 167
59 172
59 223
60 0
60 1
60 2
60 37
60 46
60 60
60 86
60 132
60 134
60 208
61 0
61 1
61 2
61 35
61 36
61 37
61 38
61 45
61 59
61 63
61 65
61 75
61 86
61 105
61 113
61 123
61 124
61 126
61 128
61 129
61 132
61 163
61 221
62 0
62 4
62 34
62 35
62 36
62 38
62 47
62 106
63 0
63 1
63 2
63 3
63 45
63 59
63 61
63 70
63 75
63 77
63 89
63 93
63 95
63 113
63 153
63 162
63 184
63 225
64 0
64 1
64 2
64 3
64 4
64 37
64 77
64 97
64 98
64 105
64 124
64 130
64 157
64 181
65 0
65 1
65 2
65 35
65 36
65 37
65 38
65 47
65 61
65 113
65 124
65 126
65 129
65 130
65 144
65 182
65 208
66 0
66 1
66 3
66 35
66 36
66 37
66 38
66 46
66 59
66 78
66 92
66 185
66 186
67 0
67 2
67 3
67 4
67 5
67 6
67 8
67 9
67 10
67 12
67 13
67 18
67 19
67 20
67 21
67 22
67 23
67 26
67 27
67 28
67 32
67 51
67 68
67 69
67 118
67 119
67 120
67 136
67 137
67 140
67 150
67 151
67 180
67 183
67 197
67 198
67 199
67 203
68 0
68 1
68 3
68 4
68 5
68 8
68 9
68 10
68 11
68 12
68 13
68 17
68 18
68 19
68 20
68 21
68 22
68 23
68 24
68 25
68 26
68 27
68 28
68 29
68 30
68 31
68 32
68 51
68 67
68 69
68 71
68 103
68 116
68 117
68 118
68 119
68 120
68 121
68 135
68 136
68 137
68 139
68 140
68 150
68 151
68 175
68 179
68 183
68 187
68 190
69 0
69 1
69 2
69 3
69 4
69 5
69 9
69 19
69 20
69 21
69 28
69 30
69 31
69 32
69 51
69 67
69 68
69 81
69 109
69 116
69 118
69 122
69 127
69 133
69 136
69 142
69 151
69 152
69 155
69 179
69 188
69 190
69 192
69 200
70 0
70 1
70 4
70 35
70 36
70 37
70 38
70 63
70 78
70 89
70 106
70 158
70 184
70 185
70 186
70 239
71 0
71 1
71 2
71 3
71 4
71 5
71 6
71 7
71 8
71 9
71 10
71 11
71 13
71 17
71 18
71 19
71 20
71 21
71 22
71 23
71 24
71 25
71 26
71 27
71 28
71 29
71 30
71 31
71 32
71 43
71 51
71 68
71 81
71 102
71 103
71 116
71 117
71 118
71 119
71 120
71 121
71 133
71 135
71 136
71 137
71 139
71 140
71 143
71 147
71 148
71 150
71 151
71 157
71 175
71 176
71 177
71 183
71 187
71 197
71 198
71 199
71 200
72 1
72 2
72 33
72 34
72 35
72 36
72 38
72 52
72 72
72 73
72 75
73 0
73 1
73 2
73 3
73 4
73 21
73 25
73 26
73 31
73 32
73 34
73 37
73 38
73 46
73 52
73 54
73 72
73 73
73 76
73 81
73 83
73 84
73 86
73 88
73 89
73 97
73 99
73 100
73 102
73 124
73 127
73 133
73 134
73 142
73 148
73 152
73 153
73 177
73 178
73 186
73 190
73 207
73 208
73 224
73 236
73 237
73 239
74 1
74 49
74 107
74 207
74 210
74 211
74 228
74 235
75 0
75 1
75 2
75 33
75 34
75 35
75 37
75 38
75 61
75 63
75 72
75 75
75 87
75 130
75 208
76 0
76 1
76 2
76 37
76 52
76 73
76 76
76 86
76 88
76 207
76 239
77 0
77 1
77 2
77 3
77 4
77 34
77 35
77 36
77 38
77 46
77 54
77 63
77 64
77 85
77 92
77 104
77 106
77 130
77 131
77 132
77 144
77 145
77 191
77 220
78 0
78 1
78 2
78 3
78 37
78 46
78 59
78 66
78 70
78 80
78 89
78 93
78 100
78 113
78 129
78 153
78 158
78 178
78 184
78 223
78 224
78 226
79 1
79 95
79 128
79 221
80 1
80 2
80 35
80 36
80 37
80 38
80 46
80 78
80 89
80 92
80 113
80 158
80 184
80 185
80 186
81 0
81 1
81 2
81 3
81 4
81 5
81 9
81 10
81 11
81 23
81 26
81 29
81 30
81 31
81 32
81 51
81 69
81 71
81 73
81 81
81 99
81 103
81 108
81 116
81 122
81 123
81 125
81 142
81 143
81 147
81 148
81 151
81 152
81 155
81 157
81 188
81 194
81 200
81 202
82 1
82 2
82 45
82 128
82 221
83 0
83 1
83 2
83 34
83 36
83 37
83 52
83 54
83 73
83 84
83 85
83 97
83 98
83 105
83 237
84 0
84 1
84 2
84 3
84 36
84 37
84 52
84 54
84 73
84 83
84 85
84 86
84 98
84 108
84 124
84 131
84 141
84 144
84 236
85 0
85 1
85 2
85 34
85 36
85 37
85 40
85 54
85 77
85 83
85 84
85 88
85 98
85 124
85 236
86 0
86 1
86 2
86 3
86 33
86 34
86 35
86 36
86 37
86 38
86 46
86 47
86 52
86 54
86 55
86 59
86 60
86 61
86 73
86 76
86 84
86 86
86 88
86 89
86 108
86 113
86 126
86 129
86 130
86 131
86 141
86 144
86 145
86 186
86 207
86 208
86 209
86 224
86 239
87 0
87 1
87 2
87 33
87 34
87 35
87 36
87 38
87 42
87 45
87 75
87 95
87 130
87 208
88 0
88 1
88 2
88 3
88 33
88 34
88 35
88 36
88 37
88 38
88 46
88 52
88 73
88 76
88 85
88 86
88 108
88 113
88 124
88 134
88 207
88 208
88 236
88 239
89 0
89 1
89 2
89 35
89 36
89 37
89 38
89 42
89 46
89 55
89 56
89 63
89 70
89 73
89 78
89 80
89 86
89 93
89 94
89 100
89 124
89 129
89 130
89 158
89 165
89 178
89 224
89 225
89 226
90 1
90 3
90 35
90 36
90 37
90 38
90 59
90 92
90 129
90 153
90 185
90 186
91 1
91 33
91 34
91 35
91 36
91 37
91 38
91 97
91 130
91 138
91 220
92 1
92 3
92 4
92 33
92 34
92 66
92 77
92 80
92 90
92 92
92 93
92 96
92 104
92 106
92 191
92 226
92 227
93 1
93 34
93 35
93 36
93 37
93 38
93 45
93 46
93 63
93 78
93 89
93 92
93 158
93 184
93 185
93 186
94 0
94 1
94 35
94 36
94 37
94 38
94 42
94 45
94 52
94 53
94 56
94 89
94 124
94 129
94 130
94 184
95 0
95 1
95 33
95 34
95 35
95 36
95 37
95 38
95 45
95 63
95 79
95 87
95 209
96 1
96 35
96 36
96 37
96 38
96 92
96 113
96 182
97 0
97 1
97 33
97 34
97 35
97 36
97 37
97 38
97 54
97 64
97 73
97 83
97 91
97 130
97 220
98 0
98 1
98 2
98 3
98 36
98 54
98 64
98 83
98 84
98 85
98 98
98 108
98 131
98 141
98 144
98 145
98 236
99 1
99 2
99 3
99 4
99 5
99 9
99 10
99 21
99 25
99 31
99 32
99 41
99 43
99 73
99 81
99 102
99 117
99 122
99 123
99 142
99 143
99 147
99 149
99 151
99 152
99 176
99 180
99 183
99 200
99 202
100 0
100 1
100 2
100 3
100 34
100 35
100 36
100 37
100 38
100 46
100 73
100 78
100 89
100 104
100 124
100 158
100 184
100 185
100 186
100 224
100 225
101 0
101 1
101 47
101 49
101 58
101 110
101 114
101 211
101 213
101 228
102 1
102 2
102 3
102 4
102 5
102 8
102 9
102 19
102 21
102 26
102 31
102 32
102 71
102 73
102 99
102 117
102 118
102 133
102 135
102 136
102 137
102 140
102 142
102 143
102 152
102 157
102 179
103 0
103 1
103 2
103 3
103 4
103 5
103 6
103 7
103 8
103 9
103 10
103 11
103 12
103 13
103 17
103 18
103 19
103 20
103 21
103 22
103 23
103 24
103 25
103 26
103 27
103 28
103 29
103 30
103 31
103 32
103 43
103 68
103 71
103 81
103 115
103 116
103 117
103 118
103 119
103 120
103 121
103 122
103 123
103 125
103 135
103 136
103 137
103 139
103 140
103 142
103 143
103 150
103 151
103 152
103 175
103 176
103 177
103 179
103 183
103 187
103 197
103 199
103 200
103 240
104 1
104 2
104 3
104 4
104 33
104 34
104 55
104 77
104 92
104 100
104 104
104 106
104 123
104 161
104 191
104 223
104 224
104 225
104 226
105 0
105 1
105 34
105 35
105 36
105 37
105 38
105 54
105 61
105 64
105 83
105 124
105 131
105 220
106 1
106 3
106 4
106 33
106 34
106 62
106 70
106 77
106 92
106 104
106 106
106 153
106 154
106 167
106 178
106 182
106 189
106 191
107 0
107 1
107 37
107 47
107 49
107 74
107 107
107 207
107 228
108 0
108 1
108 2
108 3
108 31
108 34
108 36
108 37
108 46
108 54
108 81
108 84
108 86
108 88
108 98
108 108
108 116
108 122
108 132
108 144
108 145
108 208
108 236
109 1
109 2
109 3
109 4
109 14
109 15
109 16
109 69
109 116
109 164
109 166
109 168
109 169
109 170
109 171
109 173
109 188
110 0
110 1
110 2
110 47
110 52
110 101
110 110
110 111
110 112
110 114
110 146
110 174
110 213
110 214
110 215
110 216
110 217
110 218
110 219
110 238
111 0
111 1
111 2
111 110
111 112
111 114
111 213
111 214
111 216
111 217
111 218
111 238
112 0
112 1
112 2
112 52
112 110
112 111
112 114
112 174
112 213
112 214
112 215
112 216
112 217
112 218
112 219
112 238
113 0
113 1
113 2
113 35
113 36
113 37
113 38
113 45
113 46
113 61
113 63
113 65
113 78
113 80
113 86
113 88
113 96
113 124
113 129
113 130
113 134
113 159
113 162
113 178
113 182
113 189
113 224
114 0
114 1
114 2
114 47
114 52
114 53
114 101
114 110
114 111
114 112
114 114
114 146
114 155
114 160
114 174
114 194
114 213
114 214
114 215
114 216
114 217
114 218
114 219
114 238
115 2
115 3
115 4
115 5
115 7
115 9
115 10
115 12
115 19
115 20
115 21
115 26
115 28
115 32
115 43
115 103
115 116
115 120
115 127
115 136
115 137
115 139
115 147
115 149
115 150
115 151
115 176
115 183
115 202
115 237
116 2
116 4
116 9
116 10
116 11
116 19
116 20
116 21
116 22
116 27
116 28
116 29
116 30
116 31
116 32
116 43
116 51
116 68
116 69
116 71
116 81
116 103
116 108
116 109
116 115
116 116
116 117
116 119
116 120
116 127
116 133
116 136
116 137
116 140
116 142
116 151
116 152
116 175
116 176
116 183
116 187
116 188
116 190
116 192
116 237
116 240
117 1
117 2
117 3
117 4
117 5
117 8
117 9
117 10
117 11
117 17
117 18
117 19
117 20
117 21
117 22
117 23
117 24
117 25
117 26
117 27
117 28
117 29
117 30
117 31
117 32
117 68
117 71
117 99
117 102
117 103
117 116
117 118
117 119
117 120
117 121
117 133
117 135
117 136
117 137
117 139
117 140
117 150
117 151
117 175
117 179
117 183
117 187
118 2
118 4
118 5
118 6
118 8
118 9
118 10
118 11
118 13
118 17
118 18
118 19
118 20
118 21
118 22
118 23
118 24
118 25
118 26
118 27
118 28
118 29
118 30
118 31
118 32
118 51
118 67
118 68
118 69
118 71
118 102
118 103
118 117
118 119
118 120
118 121
118 127
118 135
118 136
118 137
118 139
118 140
118 150
118 151
118 157
118 175
118 176
118 177
118 183
118 187
118 197
118 201
119 2
119 6
119 8
119 9
119 10
119 11
119 12
119 13
119 17
119 18
119 19
119 20
119 21
119 22
119 23
119 24
119 25
119 26
119 27
119 28
119 29
119 30
119 31
119 32
119 52
119 67
119 68
119 71
119 103
119 116
119 117
119 118
119 119
119 120
119 121
119 135
119 136
119 137
119 139
119 140
119 148
119 150
119 151
119 175
119 183
119 187
119 197
119 198
119 199
120 2
120 3
120 4
120 5
120 6
120 7
120 8
120 9
120 10
120 11
120 12
120 13
120 17
120 18
120 19
120 20
120 21
120 22
120 23
120 24
120 25
120 26
120 27
120 28
120 29
120 30
120 31
120 32
120 51
120 67
120 68
120 71
120 103
120 115
120 116
120 117
120 118
120 119
120 120
120 121
120 133
120 135
120 136
120 137
120 139
120 140
120 142
120 147
120 150
120 151
120 175
120 177
120 179
120 180
120 183
120 187
120 192
120 197
120 198
120 199
120 203
121 0
121 1
121 2
121 3
121 4
121 8
121 9
121 10
121 11
121 17
121 18
121 19
121 20
121 21
121 22
121 23
121 24
121 25
121 26
121 27
121 28
121 29
121 30
121 31
121 32
121 43
121 68
121 71
121 103
121 117
121 118
121 119
121 120
121 123
121 127
121 135
121 136
121 137
121 139
121 140
121 150
121 151
121 175
121 183
121 187
121 197
121 198
121 240
122 2
122 3
122 4
122 26
122 29
122 30
122 31
122 51
122 69
122 81
122 99
122 103
122 108
122 125
122 143
122 147
122 148
122 151
122 152
122 155
122 188
122 194
122 202
123 0
123 2
123 3
123 6
123 9
123 11
123 13
123 19
123 21
123 30
123 31
123 32
123 35
123 36
123 37
123 38
123 46
123 61
123 81
123 99
123 103
123 104
123 121
123 127
123 132
124 1
124 2
124 34
124 35
124 36
124 38
124 42
124 46
124 54
124 56
124 59
124 61
124 64
124 65
124 73
124 84
124 85
124 88
124 89
124 94
124 100
124 105
124 113
124 126
124 128
124 129
124 138
124 141
124 163
124 189
125 1
125 2
125 3
125 9
125 10
125 11
125 20
125 26
125 27
125 29
125 32
125 81
125 103
125 122
125 133
125 148
125 151
125 199
126 0
126 2
126 35
126 36
126 37
126 38
126 61
126 65
126 86
126 124
126 129
127 2
127 4
127 28
127 30
127 31
127 32
127 51
127 69
127 73
127 115
127 116
127 118
127 121
127 123
127 127
127 133
127 135
127 136
127 139
127 140
127 157
128 0
128 1
128 2
128 34
128 35
128 36
128 37
128 38
128 45
128 61
128 79
128 82
128 124
128 129
128 154
128 156
128 159
128 162
129 0
129 1
129 2
129 3
129 35
129 36
129 37
129 38
129 42
129 56
129 59
129 61
129 65
129 78
129 86
129 89
129 90
129 94
129 113
129 124
129 126
129 128
129 163
129 221
130 0
130 1
130 2
130 33
130 34
130 35
130 36
130 37
130 38
130 54
130 64
130 65
130 75
130 77
130 86
130 87
130 89
130 91
130 94
130 97
130 113
130 130
130 131
130 138
130 209
130 220
130 239
131 0
131 1
131 2
131 37
131 38
131 52
131 54
131 77
131 84
131 86
131 98
131 105
131 130
131 141
131 144
131 145
132 0
132 1
132 2
132 37
132 46
132 60
132 61
132 77
132 108
132 123
132 134
132 237
133 1
133 2
133 4
133 9
133 19
133 31
133 32
133 43
133 69
133 71
133 73
133 102
133 116
133 117
133 120
133 125
133 127
133 133
133 137
133 139
133 140
133 142
133 143
133 190
133 212
134 0
134 1
134 2
134 46
134 52
134 60
134 73
134 88
134 113
134 132
134 134
134 209
135 2
135 6
135 8
135 9
135 10
135 11
135 13
135 17
135 18
135 19
135 20
135 21
135 22
135 23
135 24
135 25
135 26
135 27
135 28
135 29
135 30
135 31
135 32
135 68
135 71
135 102
135 103
135 117
135 118
135 119
135 120
135 121
135 127
135 136
135 137
135 139
135 140
135 143
135 150
135 151
135 175
135 183
135 187
136 1
136 2
136 3
136 4
136 5
136 6
136 7
136 8
136 9
136 10
136 11
136 13
136 17
136 18
136 19
136 20
136 21
136 22
136 23
136 24
136 25
136 26
136 27
136 28
136 29
136 30
136 31
136 32
136 43
136 67
136 68
136 69
136 71
136 102
136 103
136 115
136 116
136 117
136 118
136 119
136 120
136 121
136 127
136 135
136 137
136 139
136 140
136 143
136 147
136 150
136 151
136 152
136 175
136 176
136 177
136 179
136 183
136 187
136 197
136 200
137 0
137 1
137 2
137 3
137 4
137 5
137 6
137 7
137 8
137 9
137 10
137 11
137 13
137 17
137 18
137 19
137 20
137 21
137 22
137 23
137 24
137 25
137 26
137 27
137 28
137 29
137 30
137 31
137 32
137 43
137 51
137 67
137 68
137 71
137 102
137 103
137 115
137 116
137 117
137 118
137 119
137 120
137 121
137 133
137 135
137 136
137 139
137 140
137 150
137 151
137 175
137 176
137 179
137 183
137 187
137 197
137 198
137 200
137 202
138 1
138 34
138 35
138 36
138 37
138 38
138 91
138 124
138 130
138 220
139 2
139 5
139 6
139 8
139 9
139 10
139 11
139 12
139 13
139 17
139 18
139 19
139 20
139 21
139 22
139 23
139 24
139 25
139 26
139 27
139 28
139 29
139 30
139 31
139 32
139 43
139 68
139 71
139 103
139 115
139 117
139 118
139 119
139 120
139 121
139 127
139 133
139 135
139 136
139 137
139 140
139 147
139 149
139 150
139 151
139 175
139 176
139 183
139 187
139 202
140 1
140 2
140 3
140 4
140 5
140 6
140 7
140 8
140 9
140 10
140 11
140 13
140 17
140 18
140 19
140 20
140 21
140 22
140 23
140 24
140 25
140 26
140 27
140 28
140 29
140 30
140 31
140 32
140 43
140 51
140 67
140 68
140 71
140 102
140 103
140 116
140 117
140 118
140 119
140 120
140 121
140 127
140 133
140 135
140 136
140 137
140 139
140 143
140 147
140 150
140 151
140 175
140 176
140 179
140 183
140 187
140 188
140 198
140 201
140 203
141 0
141 1
141 2
141 3
141 34
141 37
141 54
141 84
141 86
141 98
141 124
141 131
141 141
141 144
141 145
142 1
142 2
142 3
142 4
142 5
142 6
142 7
142 13
142 21
142 30
142 31
142 69
142 73
142 81
142 99
142 102
142 103
142 116
142 120
142 133
142 142
142 152
142 179
142 199
143 1
143 2
143 4
143 5
143 8
143 9
143 11
143 20
143 23
143 26
143 29
143 30
143 31
143 32
143 71
143 81
143 99
143 102
143 103
143 122
143 133
143 135
143 136
143 140
143 152
143 157
143 179
143 200
144 0
144 1
144 2
144 37
144 38
144 54
144 65
144 77
144 84
144 86
144 98
144 108
144 131
144 141
144 145
144 224
144 236
145 0
145 1
145 2
145 37
145 38
145 54
145 77
145 86
145 98
145 108
145 131
145 141
145 144
145 149
145 208
145 236
146 0
146 110
146 114
146 194
146 213
146 219
147 1
147 3
147 4
147 5
147 7
147 9
147 10
147 11
147 12
147 21
147 27
147 29
147 30
147 31
147 32
147 43
147 71
147 81
147 99
147 115
147 120
147 122
147 136
147 139
147 140
147 149
147 150
147 151
147 176
147 177
147 179
147 180
147 183
147 202
148 1
148 2
148 3
148 4
148 9
148 10
148 11
148 18
148 19
148 29
148 32
148 71
148 73
148 81
148 119
148 122
148 125
148 151
148 157
148 183
148 198
149 0
149 1
149 3
149 4
149 5
149 7
149 9
149 10
149 12
149 19
149 20
149 21
149 24
149 32
149 43
149 99
149 115
149 139
149 145
149 147
149 150
149 151
149 176
149 180
149 183
149 196
149 200
149 202
150 0
150 1
150 2
150 3
150 4
150 5
150 6
150 7
150 8
150 9
150 10
150 11
150 13
150 17
150 18
150 19
150 20
150 21
150 22
150 23
150 24
150 25
150 26
150 27
150 28
150 29
150 30
150 31
150 32
150 43
150 51
150 52
150 67
150 68
150 71
150 103
150 115
150 117
150 118
150 119
150 120
150 121
150 135
150 136
150 137
150 139
150 140
150 147
150 149
150 150
150 151
150 157
150 175
150 176
150 177
150 179
150 180
150 183
150 187
150 196
150 197
150 198
150 199
150 200
150 201
150 202
150 203
151 0
151 1
151 2
151 3
151 4
151 5
151 7
151 8
151 9
151 10
151 11
151 17
151 18
151 19
151 20
151 21
151 22
151 23
151 24
151 25
151 26
151 27
151 28
151 29
151 30
151 31
151 32
151 43
151 51
151 67
151 68
151 69
151 71
151 81
151 99
151 103
151 115
151 116
151 117
151 118
151 119
151 120
151 121
151 122
151 125
151 135
151 136
151 137
151 139
151 140
151 147
151 148
151 149
151 150
151 157
151 175
151 176
151 177
151 183
151 187
151 196
151 197
151 198
151 199
151 200
152 0
152 1
152 2
152 3
152 4
152 5
152 10
152 21
152 31
152 69
152 73
152 81
152 99
152 102
152 103
152 116
152 122
152 136
152 142
152 143
152 175
152 177
152 179
152 190
152 200
153 0
153 1
153 3
153 4
153 35
153 36
153 37
153 38
153 45
153 46
153 59
153 63
153 73
153 78
153 90
153 106
153 153
153 161
153 185
153 186
154 1
154 2
154 4
154 34
154 35
154 36
154 37
154 38
154 45
154 106
154 128
154 159
154 162
154 221
155 0
155 1
155 3
155 4
155 16
155 30
155 40
155 44
155 69
155 81
155 114
155 122
155 165
155 166
155 168
155 169
155 173
155 188
155 232
156 0
156 1
156 35
156 36
156 37
156 38
156 45
156 128
156 159
156 221
157 1
157 3
157 5
157 23
157 24
157 25
157 26
157 27
157 28
157 29
157 30
157 31
157 32
157 46
157 51
157 64
157 71
157 81
157 102
157 118
157 127
157 143
157 148
157 150
157 151
157 176
157 177
157 179
157 181
157 183
157 188
158 0
158 1
158 2
158 3
158 46
158 59
158 70
158 78
158 80
158 89
158 93
158 100
158 178
158 184
158 224
158 226
159 0
159 1
159 35
159 36
159 37
159 38
159 45
159 46
159 113
159 128
159 154
159 156
159 221
160 0
160 1
160 3
160 14
160 15
160 16
160 41
160 44
160 114
160 164
160 166
160 169
160 170
160 181
160 195
160 205
160 213
160 217
160 222
161 1
161 3
161 35
161 36
161 37
161 38
161 46
161 59
161 104
161 153
161 185
161 186
161 191
161 239
162 0
162 1
162 2
162 38
162 45
162 63
162 113
162 128
162 154
162 221
163 3
163 35
163 36
163 37
163 38
163 59
163 61
163 124
163 129
164 0
164 1
164 2
164 3
164 4
164 14
164 15
164 16
164 41
164 44
164 52
164 109
164 160
164 164
164 166
164 168
164 169
164 170
164 171
164 173
164 181
164 188
164 193
164 195
164 204
164 205
164 206
164 222
165 0
165 1
165 2
165 3
165 4
165 14
165 44
165 46
165 52
165 59
165 89
165 155
165 166
165 181
165 224
166 1
166 2
166 3
166 4
166 14
166 15
166 16
166 41
166 44
166 109
166 155
166 160
166 164
166 165
166 168
166 169
166 170
166 171
166 173
166 181
166 188
166 193
166 194
166 195
166 204
166 205
166 206
166 222
167 2
167 3
167 4
167 35
167 36
167 37
167 38
167 46
167 59
167 106
167 185
167 186
168 1
168 2
168 3
168 14
168 15
168 16
168 44
168 109
168 155
168 164
168 166
168 168
168 169
168 170
168 171
168 173
168 181
168 188
168 193
168 204
168 205
168 206
168 222
169 0
169 1
169 2
169 3
169 4
169 14
169 15
169 16
169 41
169 44
169 109
169 155
169 160
169 164
169 166
169 168
169 169
169 170
169 171
169 173
169 181
169 188
169 193
169 194
169 204
169 205
169 206
169 222
170 1
170 2
170 3
170 14
170 15
170 16
170 41
170 44
170 109
170 160
170 164
170 166
170 168
170 169
170 170
170 171
170 173
170 181
170 188
170 193
170 194
170 195
170 204
170 205
170 206
170 222
171 2
171 3
171 4
171 14
171 15
171 16
171 41
171 44
171 109
171 164
171 166
171 168
171 169
171 170
171 173
171 188
171 193
171 204
171 205
171 206
171 222
172 1
172 3
172 4
172 59
173 2
173 3
173 4
173 14
173 15
173 16
173 44
173 109
173 155
173 164
173 166
173 168
173 169
173 170
173 171
173 173
173 188
173 193
173 194
173 204
173 205
173 206
173 222
174 1
174 110
174 112
174 114
174 213
174 214
174 216
174 217
174 218
174 238
175 3
175 4
175 8
175 9
175 10
175 11
175 17
175 18
175 19
175 20
175 21
175 22
175 23
175 24
175 25
175 26
175 27
175 28
175 29
175 30
175 31
175 32
175 68
175 71
175 103
175 116
175 117
175 118
175 119
175 120
175 121
175 135
175 136
175 137
175 139
175 140
175 150
175 151
175 152
175 175
175 183
175 187
176 3
176 4
176 5
176 7
176 8
176 9
176 10
176 11
176 12
176 16
176 18
176 19
176 20
176 21
176 22
176 23
176 24
176 26
176 27
176 28
176 29
176 32
176 43
176 71
176 99
176 103
176 115
176 116
176 118
176 136
176 137
176 139
176 140
176 147
176 149
176 150
176 151
176 157
176 180
176 183
176 187
176 198
176 200
176 201
176 202
176 205
177 1
177 3
177 4
177 5
177 7
177 9
177 10
177 11
177 19
177 26
177 28
177 29
177 31
177 32
177 43
177 71
177 73
177 103
177 118
177 120
177 136
177 147
177 150
177 151
177 152
177 157
178 1
178 2
178 3
178 4
178 35
178 36
178 37
178 38
178 46
178 73
178 78
178 89
178 106
178 113
178 158
178 184
178 185
178 186
178 224
179 3
179 4
179 5
179 18
179 19
179 20
179 21
179 22
179 23
179 25
179 26
179 27
179 29
179 30
179 32
179 52
179 68
179 69
179 102
179 103
179 117
179 120
179 136
179 137
179 140
179 142
179 143
179 147
179 150
179 152
179 157
179 183
179 187
179 240
180 2
180 3
180 4
180 5
180 6
180 9
180 10
180 12
180 13
180 19
180 20
180 21
180 24
180 27
180 28
180 32
180 43
180 67
180 99
180 120
180 147
180 149
180 150
180 176
180 180
180 197
180 198
180 199
180 202
180 203
181 2
181 3
181 4
181 15
181 16
181 41
181 44
181 64
181 157
181 160
181 164
181 165
181 166
181 168
181 169
181 170
182 1
182 4
182 35
182 36
182 37
182 38
182 42
182 65
182 96
182 106
182 113
183 2
183 3
183 4
183 5
183 6
183 7
183 8
183 9
183 10
183 11
183 13
183 17
183 18
183 19
183 20
183 21
183 22
183 23
183 24
183 25
183 26
183 27
183 28
183 29
183 30
183 31
183 32
183 43
183 67
183 68
183 71
183 99
183 103
183 115
183 116
183 117
183 118
183 119
183 120
183 121
183 135
183 136
183 137
183 139
183 140
183 147
183 148
183 149
183 150
183 151
183 157
183 175
183 176
183 179
183 187
183 196
183 197
183 198
183 202
184 2
184 35
184 36
184 37
184 38
184 42
184 46
184 55
184 56
184 63
184 70
184 78
184 80
184 93
184 94
184 100
184 158
184 178
184 224
184 225
184 226
185 33
185 37
185 46
185 55
185 66
185 70
185 80
185 90
185 93
185 100
185 153
185 161
185 167
185 178
185 223
185 224
185 225
185 226
185 227
186 1
186 2
186 33
186 37
186 46
186 55
186 66
186 70
186 73
186 80
186 86
186 90
186 93
186 100
186 153
186 161
186 167
186 178
186 223
186 224
186 225
186 226
186 227
187 4
187 5
187 8
187 9
187 10
187 11
187 12
187 13
187 17
187 18
187 19
187 20
187 21
187 22
187 23
187 24
187 25
187 26
187 27
187 28
187 29
187 30
187 31
187 32
187 43
187 68
187 71
187 103
187 116
187 117
187 118
187 119
187 120
187 121
187 135
187 136
187 137
187 139
187 140
187 150
187 151
187 175
187 176
187 179
187 183
187 201
188 1
188 2
188 4
188 5
188 15
188 16
188 19
188 44
188 69
188 81
188 109
188 116
188 122
188 140
188 155
188 157
188 164
188 166
188 168
188 169
188 170
188 171
188 173
188 205
189 1
189 2
189 4
189 35
189 36
189 37
189 38
189 42
189 106
189 113
189 124
190 1
190 2
190 3
190 4
190 21
190 32
190 68
190 69
190 73
190 116
190 133
190 152
191 1
191 2
191 34
191 77
191 92
191 104
191 106
191 161
191 223
191 224
191 225
192 4
192 9
192 23
192 30
192 69
192 116
192 120
193 2
193 3
193 14
193 15
193 16
193 44
193 164
193 166
193 168
193 169
193 170
193 171
193 173
193 205
193 222
194 2
194 14
194 16
194 30
194 41
194 44
194 81
194 114
194 122
194 146
194 166
194 169
194 170
194 173
194 205
194 219
195 0
195 2
195 3
195 14
195 16
195 41
195 44
195 160
195 164
195 166
195 170
195 205
196 5
196 7
196 9
196 10
196 19
196 20
196 24
196 30
196 32
196 149
196 150
196 151
196 183
196 200
197 2
197 3
197 4
197 5
197 6
197 9
197 10
197 11
197 13
197 18
197 19
197 21
197 23
197 26
197 27
197 29
197 32
197 67
197 71
197 103
197 118
197 119
197 120
197 121
197 136
197 137
197 150
197 151
197 180
197 183
197 198
197 199
197 203
198 2
198 3
198 4
198 5
198 6
198 9
198 10
198 11
198 13
198 18
198 19
198 21
198 26
198 27
198 29
198 31
198 32
198 67
198 71
198 119
198 120
198 121
198 137
198 140
198 148
198 150
198 151
198 176
198 180
198 183
198 197
198 199
198 203
199 1
199 2
199 3
199 4
199 5
199 6
199 8
199 9
199 10
199 11
199 13
199 19
199 20
199 21
199 24
199 26
199 27
199 28
199 29
199 31
199 32
199 67
199 71
199 103
199 119
199 120
199 125
199 142
199 150
199 151
199 180
199 197
199 198
199 200
199 203
200 0
200 2
200 3
200 5
200 9
200 10
200 11
200 20
200 21
200 24
200 27
200 29
200 30
200 31
200 32
200 69
200 71
200 81
200 99
200 103
200 136
200 137
200 143
200 149
200 150
200 151
200 152
200 176
200 196
200 199
201 5
201 8
201 9
201 10
201 11
201 18
201 20
201 21
201 22
201 23
201 24
201 27
201 28
201 29
201 32
201 118
201 140
201 150
201 176
201 187
202 3
202 4
202 5
202 7
202 9
202 10
202 11
202 12
202 21
202 27
202 28
202 29
202 32
202 43
202 81
202 99
202 115
202 122
202 137
202 139
202 147
202 149
202 150
202 176
202 180
202 183
203 2
203 3
203 4
203 5
203 6
203 10
203 11
203 13
203 21
203 27
203 29
203 32
203 67
203 120
203 140
203 150
203 180
203 197
203 198
203 199
204 14
204 15
204 16
204 44
204 164
204 166
204 168
204 169
204 170
204 171
204 173
204 222
205 0
205 1
205 2
205 3
205 14
205 15
205 16
205 41
205 44
205 52
205 160
205 164
205 166
205 168
205 169
205 170
205 171
205 173
205 176
205 188
205 193
205 194
205 195
205 205
205 206
205 222
206 2
206 3
206 14
206 15
206 16
206 44
206 52
206 164
206 166
206 168
206 169
206 170
206 171
206 173
206 205
206 222
207 0
207 1
207 2
207 37
207 49
207 52
207 73
207 74
207 76
207 86
207 88
207 107
207 207
207 228
207 239
208 0
208 1
208 33
208 34
208 35
208 36
208 37
208 38
208 46
208 52
208 54
208 60
208 65
208 73
208 75
208 86
208 87
208 88
208 108
208 145
208 208
208 224
208 239
209 1
209 34
209 36
209 37
209 38
209 46
209 86
209 95
209 130
209 134
209 209
210 1
210 74
210 210
210 211
210 235
211 0
211 1
211 53
211 74
211 101
211 210
211 211
211 235
212 1
212 2
212 37
212 54
212 133
213 0
213 1
213 2
213 37
213 38
213 47
213 52
213 101
213 110
213 111
213 112
213 114
213 146
213 160
213 174
213 214
213 216
213 217
213 218
213 219
213 238
214 0
214 1
214 2
214 37
214 38
214 110
214 111
214 112
214 114
214 174
214 213
214 214
214 216
214 217
214 218
214 219
215 110
215 112
215 114
215 217
215 218
215 238
216 0
216 1
216 2
216 47
216 52
216 53
216 110
216 111
216 112
216 114
216 174
216 213
216 214
216 216
216 217
216 218
216 219
216 238
217 0
217 1
217 2
217 52
217 110
217 111
217 112
217 114
217 160
217 174
217 213
217 214
217 215
217 216
217 218
217 219
217 238
218 0
218 1
218 2
218 110
218 111
218 112
218 114
218 174
218 213
218 214
218 215
218 216
218 217
218 219
218 238
219 0
219 1
219 2
219 110
219 112
219 114
219 146
219 194
219 213
219 214
219 216
219 217
219 218
220 33
220 34
220 36
220 38
220 45
220 77
220 91
220 97
220 105
220 130
220 138
221 34
221 35
221 36
221 37
221 38
221 45
221 61
221 79
221 82
221 129
221 154
221 156
221 159
221 162
222 0
222 3
222 4
222 14
222 15
222 16
222 18
222 41
222 44
222 160
222 164
222 166
222 168
222 169
222 170
222 171
222 173
222 193
222 204
222 205
222 206
222 222
223 3
223 35
223 36
223 37
223 38
223 46
223 59
223 78
223 104
223 185
223 186
223 191
224 0
224 1
224 2
224 3
224 34
224 35
224 36
224 37
224 38
224 46
224 54
224 73
224 78
224 86
224 89
224 100
224 104
224 113
224 144
224 158
224 165
224 178
224 184
224 185
224 186
224 191
224 208
224 224
224 225
224 226
225 0
225 1
225 2
225 35
225 36
225 37
225 38
225 46
225 63
225 89
225 100
225 104
225 184
225 185
225 186
225 191
225 224
226 1
226 2
226 3
226 35
226 36
226 37
226 38
226 46
226 78
226 89
226 92
226 104
226 158
226 184
226 185
226 186
226 224
227 1
227 2
227 35
227 36
227 37
227 38
227 45
227 46
227 92
227 185
227 186
228 1
228 49
228 74
228 101
228 107
228 207
229 0
229 1
229 2
229 37
229 50
229 54
229 230
229 231
229 232
229 233
229 234
230 37
230 229
230 230
230 231
230 232
231 0
231 2
231 47
231 50
231 52
231 54
231 229
231 230
231 231
231 232
231 233
231 234
232 0
232 1
232 2
232 52
232 155
232 229
232 230
232 231
232 233
232 234
233 0
233 229
233 231
233 232
233 234
234 229
234 231
234 232
234 233
234 234
235 74
235 210
235 211
236 0
236 1
236 2
236 38
236 54
236 73
236 84
236 85
236 88
236 98
236 108
236 144
236 145
236 236
237 0
237 2
237 36
237 46
237 52
237 73
237 83
237 115
237 116
237 132
238 1
238 110
238 111
238 112
238 114
238 174
238 213
238 215
238 216
238 217
238 218
239 0
239 1
239 2
239 3
239 34
239 35
239 36
239 37
239 38
239 46
239 52
239 55
239 70
239 73
239 76
239 86
239 88
239 130
239 161
239 207
239 208
240 4
240 5
240 6
240 9
240 11
240 13
240 19
240 32
240 103
240 116
240 121
240 179
