0 0
0 1
0 2
0 3
0 5
0 6
0 7
0 8
0 9
0 10
0 11
0 12
0 13
0 14
0 15
0 16
0 17
0 18
0 19
0 20
0 21
0 22
0 23
0 24
0 25
0 26
0 27
0 28
0 30
0 31
0 32
0 33
0 34
0 38
0 40
0 41
0 42
0 43
1 0
1 1
1 2
1 3
1 4
1 5
1 6
1 7
1 8
1 9
1 10
1 11
1 12
1 13
1 14
1 15
1 16
1 17
1 18
1 19
1 20
1 21
1 22
1 23
1 24
1 25
1 26
1 27
1 28
1 29
1 30
1 31
1 32
1 33
1 34
1 35
1 36
1 37
1 38
1 39
1 40
1 41
1 42
1 43
2 0
2 1
2 2
2 3
2 4
2 5
2 6
2 7
2 8
2 9
2 10
2 11
2 13
2 14
2 15
2 16
2 18
2 19
2 20
2 21
2 22
2 23
2 24
2 26
2 27
2 28
2 29
2 30
2 31
2 32
2 34
2 35
2 36
2 37
2 38
2 39
2 42
2 43
3 0
3 1
3 2
3 3
3 4
3 5
3 6
3 7
3 9
3 10
3 11
3 13
3 18
3 19
3 20
3 22
3 26
3 27
3 28
3 29
3 30
3 34
3 35
3 38
3 39
3 41
4 1
4 2
4 3
4 5
4 6
4 7
4 9
4 11
4 15
4 20
4 27
4 35
4 39
5 0
5 1
5 2
5 3
5 4
5 22
5 35
5 39
6 0
6 1
6 2
6 3
6 4
6 7
6 9
6 13
6 20
6 22
6 24
6 28
6 30
6 35
7 0
7 1
7 2
7 3
7 4
7 6
7 7
7 11
7 15
7 18
7 27
7 34
7 35
7 37
8 0
8 1
8 2
8 10
8 11
8 21
8 22
8 31
9 0
9 1
9 2
9 3
9 4
9 6
9 10
9 11
9 15
9 18
9 21
9 27
9 30
9 31
9 34
9 37
10 0
10 1
10 2
10 3
10 8
10 9
10 10
10 11
10 13
10 14
10 16
10 18
10 19
10 21
10 22
10 24
10 32
11 0
11 1
11 2
11 3
11 4
11 7
11 8
11 9
11 10
11 11
11 15
11 16
11 18
11 20
11 22
11 25
11 32
11 40
12 0
12 1
13 0
13 1
13 2
13 3
13 6
13 10
13 14
13 15
13 18
13 22
13 29
13 31
14 0
14 1
14 2
14 10
14 13
14 22
14 23
14 33
15 0
15 1
15 2
15 4
15 7
15 9
15 11
15 13
15 20
15 21
15 22
15 24
15 26
15 27
15 28
15 31
15 32
15 34
15 35
15 42
16 0
16 1
16 2
16 10
16 11
16 18
16 32
17 0
17 1
18 0
18 1
18 2
18 3
18 7
18 9
18 10
18 11
18 13
18 16
18 19
18 24
18 26
18 29
18 32
19 0
19 1
19 2
19 3
19 10
19 18
19 22
19 29
19 41
20 0
20 1
20 2
20 3
20 4
20 6
20 11
20 15
20 34
20 35
20 37
21 0
21 1
21 2
21 8
21 9
21 10
21 15
21 22
21 25
21 41
22 0
22 1
22 2
22 3
22 5
22 6
22 8
22 10
22 11
22 13
22 14
22 15
22 19
22 21
22 22
22 25
22 27
22 29
22 30
22 31
22 32
22 33
22 36
22 37
22 40
22 41
22 42
23 0
23 1
23 2
23 14
24 0
24 1
24 2
24 6
24 10
24 15
24 18
24 27
24 32
24 40
24 42
25 0
25 1
25 11
25 21
25 22
25 25
25 32
25 41
25 43
26 0
26 1
26 2
26 3
26 15
26 18
26 34
26 41
27 0
27 1
27 2
27 3
27 4
27 7
27 9
27 15
27 22
27 24
27 41
28 0
28 1
28 2
28 3
28 6
28 15
28 35
28 38
29 1
29 2
29 3
29 13
29 18
29 19
29 22
30 0
30 1
30 2
30 3
30 6
30 9
30 22
31 0
31 1
31 2
31 8
31 9
31 13
31 15
31 22
31 32
32 0
32 1
32 2
32 10
32 11
32 15
32 16
32 18
32 22
32 24
32 25
32 31
33 0
33 1
33 14
33 22
33 42
34 0
34 1
34 2
34 3
34 7
34 9
34 15
34 20
34 26
34 34
34 35
34 37
35 1
35 2
35 3
35 4
35 5
35 6
35 7
35 15
35 20
35 28
35 34
35 35
35 37
35 38
35 39
36 1
36 2
36 22
37 1
37 2
37 7
37 9
37 20
37 22
37 34
37 35
38 0
38 1
38 2
38 3
38 28
38 35
39 1
39 2
39 3
39 4
39 5
39 35
40 0
40 1
40 11
40 22
40 24
41 0
41 1
41 3
41 19
41 21
41 22
41 25
41 26
41 27
42 0
42 1
42 2
42 15
42 22
42 24
42 33
43 0
43 1
43 2
43 25
