0 0
0 1
0 2
0 3
0 6
0 7
0 9
0 10
0 12
0 15
0 16
0 17
0 18
0 19
0 20
0 21
0 22
0 23
0 24
0 25
0 26
0 27
0 28
0 29
0 30
0 31
0 32
0 33
0 34
0 35
0 36
0 37
0 38
0 39
0 41
0 45
0 46
0 47
0 51
0 52
0 53
0 54
0 56
0 57
0 58
0 59
0 62
0 63
0 64
0 69
0 70
0 77
0 81
0 85
0 87
0 89
0 90
0 92
0 93
0 100
0 101
0 103
0 112
0 114
0 124
0 130
0 131
0 132
0 134
0 135
0 139
0 140
0 142
0 143
0 146
0 150
0 151
0 152
0 153
0 155
0 160
0 167
0 172
0 175
0 177
0 198
0 199
0 224
0 226
0 227
0 228
0 233
0 234
0 237
0 238
0 239
0 241
0 242
0 245
0 255
0 266
0 268
0 270
0 273
0 274
0 279
0 281
0 283
0 284
0 285
0 289
1 0
1 1
1 2
1 3
1 6
1 9
1 11
1 12
1 13
1 14
1 15
1 16
1 17
1 19
1 20
1 21
1 22
1 23
1 24
1 25
1 26
1 27
1 28
1 29
1 30
1 31
1 32
1 33
1 34
1 35
1 36
1 37
1 38
1 39
1 40
1 41
1 42
1 43
1 44
1 45
1 46
1 47
1 48
1 49
1 50
1 51
1 52
1 53
1 54
1 55
1 56
1 57
1 58
1 59
1 60
1 61
1 62
1 63
1 64
1 65
1 66
1 67
1 68
1 69
1 70
1 71
1 72
1 73
1 74
1 75
1 76
1 77
1 81
1 84
1 85
1 86
1 87
1 88
1 89
1 90
1 91
1 92
1 95
1 98
1 100
1 101
1 102
1 103
1 104
1 105
1 106
1 107
1 110
1 112
1 113
1 122
1 127
1 128
1 130
1 131
1 132
1 134
1 135
1 136
1 138
1 139
1 140
1 141
1 143
1 144
1 145
1 146
1 147
1 148
1 149
1 150
1 153
1 155
1 156
1 157
1 160
1 161
1 162
1 163
1 164
1 165
1 166
1 169
1 171
1 172
1 174
1 175
1 178
1 181
1 183
1 184
1 189
1 190
1 191
1 196
1 197
1 200
1 203
1 204
1 205
1 209
1 210
1 212
1 215
1 221
1 222
1 223
1 224
1 225
1 226
1 227
1 228
1 231
1 232
1 234
1 236
1 237
1 238
1 239
1 240
1 241
1 242
1 243
1 244
1 245
1 246
1 248
1 249
1 252
1 253
1 254
1 255
1 256
1 257
1 258
1 260
1 262
1 265
1 266
1 267
1 268
1 269
1 270
1 272
1 273
1 274
1 278
1 279
1 280
1 281
1 283
1 284
1 289
2 0
2 1
2 2
2 3
2 4
2 5
2 6
2 7
2 8
2 10
2 11
2 12
2 13
2 14
2 15
2 16
2 18
2 19
2 20
2 22
2 23
2 24
2 25
2 27
2 28
2 29
2 30
2 35
2 37
2 41
2 43
2 45
2 46
2 47
2 48
2 49
2 50
2 51
2 53
2 55
2 56
2 57
2 58
2 59
2 61
2 64
2 65
2 66
2 67
2 68
2 69
2 71
2 72
2 73
2 74
2 75
2 76
2 77
2 78
2 80
2 81
2 84
2 85
2 86
2 87
2 88
2 89
2 90
2 91
2 92
2 98
2 99
2 101
2 102
2 104
2 105
2 106
2 109
2 112
2 113
2 114
2 116
2 117
2 118
2 120
2 125
2 130
2 131
2 132
2 134
2 139
2 143
2 146
2 152
2 153
2 162
2 163
2 166
2 169
2 170
2 171
2 172
2 173
2 174
2 176
2 177
2 178
2 179
2 183
2 184
2 189
2 190
2 194
2 200
2 201
2 203
2 204
2 207
2 210
2 215
2 222
2 227
2 228
2 231
2 237
2 239
2 240
2 242
2 244
2 249
2 252
2 255
2 259
2 260
2 261
2 262
2 266
2 268
2 269
2 270
2 280
2 281
2 284
3 0
3 1
3 2
3 3
3 4
3 6
3 10
3 11
3 12
3 13
3 14
3 16
3 21
3 23
3 24
3 27
3 29
3 35
3 37
3 39
3 41
3 43
3 45
3 48
3 49
3 50
3 51
3 53
3 55
3 61
3 65
3 66
3 68
3 69
3 74
3 76
3 77
3 79
3 85
3 87
3 88
3 90
3 97
3 98
3 99
3 101
3 102
3 104
3 105
3 106
3 107
3 109
3 110
3 111
3 112
3 113
3 114
3 115
3 116
3 117
3 123
3 130
3 145
3 156
3 158
3 163
3 169
3 170
3 171
3 172
3 179
3 201
3 203
3 204
3 210
3 237
3 242
3 245
3 259
3 266
3 267
4 2
4 3
4 8
4 12
4 14
4 16
4 48
4 49
4 56
4 60
4 90
4 91
4 109
4 114
4 116
4 117
4 118
4 119
4 120
4 203
4 237
4 242
5 2
5 9
5 13
5 66
5 69
5 76
5 98
5 187
5 199
5 203
6 0
6 1
6 2
6 3
6 10
6 14
6 16
6 36
6 45
6 49
6 50
6 55
6 56
6 65
6 101
6 105
6 109
6 115
6 117
7 0
7 2
7 8
7 16
7 48
7 55
7 91
7 118
7 121
7 125
7 215
7 218
7 237
8 2
8 4
8 7
8 12
8 22
8 23
8 55
8 65
8 101
8 121
8 125
8 126
8 127
8 128
8 129
8 214
8 218
9 0
9 1
9 5
9 14
9 16
9 48
9 49
9 50
9 55
9 105
9 109
9 116
9 117
9 120
9 123
9 124
10 0
10 2
10 3
10 6
10 12
10 16
10 45
10 101
10 104
10 124
10 156
11 1
11 2
11 3
11 12
11 31
11 32
11 38
11 45
11 77
11 79
11 97
11 98
11 203
11 242
11 255
12 0
12 1
12 2
12 3
12 4
12 8
12 10
12 11
12 13
12 14
12 16
12 32
12 49
12 55
12 98
12 104
12 118
12 156
12 157
12 203
12 204
12 215
12 265
13 1
13 2
13 3
13 5
13 12
13 31
13 41
13 45
13 69
13 76
13 77
13 83
13 106
13 113
13 145
13 203
13 237
13 242
14 1
14 2
14 3
14 4
14 6
14 9
14 12
14 38
14 49
14 60
14 101
14 105
14 107
14 109
14 116
14 123
14 216
14 217
15 0
15 1
15 2
15 34
15 66
15 71
15 74
15 92
15 143
15 162
15 172
15 176
15 181
15 242
15 255
16 0
16 1
16 2
16 3
16 4
16 6
16 7
16 9
16 10
16 12
16 19
16 25
16 38
16 45
16 53
16 56
16 60
16 69
16 90
16 101
16 105
16 107
16 109
16 110
16 114
16 122
16 123
16 125
16 126
16 128
16 173
16 200
16 201
16 216
16 237
16 242
17 0
17 1
17 25
17 57
17 58
17 150
17 222
17 227
17 255
17 258
18 0
18 2
18 46
19 0
19 1
19 2
19 16
19 20
19 58
19 139
19 165
19 242
20 0
20 1
20 2
20 19
20 20
20 26
20 27
20 30
20 35
20 36
20 39
20 46
20 51
20 53
20 131
20 179
20 225
20 237
20 242
20 270
20 274
20 284
20 286
21 0
21 1
21 3
22 0
22 1
22 2
22 8
22 23
23 0
23 1
23 2
23 3
23 8
23 22
24 0
24 1
24 2
24 3
24 58
24 73
24 92
24 150
24 242
24 255
24 282
25 0
25 1
25 2
25 16
25 17
25 36
25 49
26 0
26 1
26 20
27 0
27 1
27 2
27 3
27 20
27 88
27 108
27 167
27 206
27 207
27 274
28 0
28 1
28 2
28 63
28 84
28 132
28 231
28 242
28 261
29 0
29 1
29 2
29 3
29 242
29 245
29 249
30 0
30 1
30 2
30 20
30 224
31 0
31 1
31 11
31 13
31 46
31 75
31 76
31 102
31 113
31 148
31 169
31 171
31 203
31 228
31 242
32 0
32 1
32 11
32 12
32 35
32 51
32 61
32 74
32 79
32 97
32 203
32 245
33 0
33 1
33 34
33 57
33 64
33 136
33 160
33 161
33 162
33 242
34 0
34 1
34 15
34 33
34 34
34 41
34 42
34 43
34 59
34 64
34 73
34 74
34 112
34 139
34 140
34 141
34 173
34 174
34 222
34 233
34 234
34 237
34 242
34 274
35 0
35 1
35 2
35 3
35 20
35 32
35 36
35 39
35 53
35 112
35 131
35 242
35 265
35 267
36 0
36 1
36 6
36 20
36 25
36 35
36 109
36 172
36 178
36 242
36 256
36 269
37 0
37 1
37 2
37 3
37 139
37 144
37 146
37 195
38 0
38 1
38 11
38 14
38 16
38 45
38 48
38 69
38 107
38 242
38 262
39 0
39 1
39 3
39 20
39 35
39 135
39 242
39 267
40 1
40 59
40 76
40 102
40 106
40 144
40 145
40 147
40 155
40 237
41 0
41 1
41 2
41 3
41 13
41 34
41 139
41 144
41 213
41 242
42 1
42 34
42 139
42 247
43 1
43 2
43 3
43 34
43 57
43 64
43 112
43 134
43 139
43 183
43 238
43 242
43 245
43 274
44 1
44 51
44 85
44 96
44 139
44 140
45 0
45 1
45 2
45 3
45 6
45 10
45 11
45 13
45 16
45 38
45 50
45 68
45 77
45 106
45 128
45 129
45 156
45 157
45 204
46 0
46 1
46 2
46 18
46 20
46 31
47 0
47 1
47 2
47 136
47 158
47 229
47 239
47 262
47 274
48 1
48 2
48 3
48 4
48 7
48 9
48 38
48 69
48 128
48 214
48 216
48 237
48 259
49 1
49 2
49 3
49 4
49 6
49 9
49 12
49 14
49 25
49 60
49 69
49 105
49 107
49 109
49 117
49 123
49 201
49 216
50 1
50 2
50 3
50 6
50 9
50 45
50 60
50 85
50 101
50 186
50 242
51 0
51 1
51 2
51 3
51 20
51 32
51 44
51 61
51 74
51 77
51 80
51 139
51 242
51 274
52 0
52 1
52 57
52 182
52 242
53 0
53 1
53 2
53 3
53 16
53 20
53 35
53 61
53 134
53 219
53 245
53 274
53 286
54 0
54 1
54 274
55 1
55 2
55 3
55 6
55 7
55 8
55 9
55 12
55 56
55 101
55 115
55 121
55 126
55 128
55 129
55 157
55 199
55 216
56 0
56 1
56 2
56 4
56 6
56 16
56 55
57 0
57 1
57 2
57 17
57 33
57 43
57 52
57 64
57 160
57 161
57 162
57 262
58 0
58 1
58 2
58 17
58 19
58 24
58 192
58 194
58 241
58 242
58 263
59 0
59 1
59 2
59 34
59 40
59 147
59 182
60 1
60 4
60 14
60 16
60 49
60 50
60 105
60 109
60 117
60 120
60 123
61 1
61 2
61 3
61 32
61 51
61 53
61 66
61 79
61 97
62 0
62 1
62 242
63 0
63 1
63 28
63 139
63 230
63 231
64 0
64 1
64 2
64 33
64 34
64 43
64 57
64 136
64 159
64 160
64 161
64 162
64 262
64 274
64 284
65 1
65 2
65 3
65 6
65 8
65 104
65 109
65 121
65 126
65 156
65 214
65 218
66 1
66 2
66 3
66 5
66 15
66 61
66 69
66 74
66 270
66 274
67 1
67 2
67 69
67 74
67 96
67 172
67 179
67 199
67 237
68 1
68 2
68 3
68 45
68 106
68 113
68 203
68 237
69 0
69 1
69 2
69 3
69 5
69 13
69 16
69 38
69 48
69 49
69 66
69 67
69 76
69 98
69 105
69 109
69 114
69 163
69 172
69 179
69 201
69 203
69 237
70 0
70 1
70 94
70 185
71 1
71 2
71 15
71 92
71 139
71 176
71 248
72 1
72 2
72 231
72 255
72 257
73 1
73 2
73 24
73 34
73 81
73 86
73 248
74 1
74 2
74 3
74 15
74 32
74 34
74 51
74 66
74 67
74 130
74 237
74 242
75 1
75 2
75 31
75 242
75 268
76 1
76 2
76 3
76 5
76 13
76 31
76 40
76 69
76 98
76 176
76 237
76 242
76 266
77 0
77 1
77 2
77 3
77 11
77 13
77 45
77 51
77 81
77 97
77 115
77 203
78 2
78 78
78 166
78 167
78 168
79 3
79 11
79 32
79 61
79 98
79 115
79 205
79 242
79 255
79 265
80 2
80 51
80 81
80 85
80 184
80 242
81 0
81 1
81 2
81 73
81 77
81 80
81 81
81 86
81 184
81 242
81 250
81 255
81 260
82 82
82 180
82 182
82 185
83 13
83 120
83 186
83 187
83 188
83 189
83 190
84 1
84 2
84 28
84 147
84 173
84 237
84 260
84 261
85 0
85 1
85 2
85 3
85 44
85 50
85 80
85 85
85 104
85 139
85 170
85 172
85 177
85 184
85 188
85 191
86 1
86 2
86 73
86 81
86 130
86 147
86 237
86 242
87 0
87 1
87 2
87 3
87 88
87 237
88 1
88 2
88 3
88 27
88 87
88 97
88 99
88 108
88 206
88 207
89 0
89 1
89 2
89 242
89 274
90 0
90 1
90 2
90 3
90 4
90 16
90 237
91 1
91 2
91 4
91 7
91 119
91 121
91 125
91 126
91 128
91 129
91 215
91 237
91 242
92 0
92 1
92 2
92 15
92 24
92 71
92 139
92 176
92 183
93 0
93 255
94 70
94 185
95 1
95 111
95 192
95 194
95 263
96 44
96 67
96 179
96 198
96 199
96 200
96 201
97 3
97 11
97 32
97 61
97 77
97 88
97 98
97 99
97 108
97 110
97 111
97 115
97 206
97 207
97 265
98 1
98 2
98 3
98 5
98 11
98 12
98 69
98 76
98 79
98 97
98 203
98 208
98 209
98 210
99 2
99 3
99 88
99 97
99 108
99 111
99 206
99 207
100 0
100 1
100 202
100 211
100 212
100 213
101 0
101 1
101 2
101 3
101 6
101 8
101 10
101 14
101 16
101 50
101 55
101 107
101 116
101 118
101 123
101 163
102 1
102 2
102 3
102 31
102 40
102 106
102 113
103 0
103 1
103 202
103 211
103 212
103 213
103 255
104 1
104 2
104 3
104 10
104 12
104 65
104 85
104 120
104 156
104 188
104 189
104 190
104 199
105 1
105 2
105 3
105 6
105 9
105 14
105 16
105 49
105 60
105 69
105 109
105 237
105 259
106 1
106 2
106 3
106 13
106 40
106 45
106 68
106 102
106 176
106 210
106 266
107 1
107 3
107 14
107 16
107 38
107 49
107 101
107 199
108 27
108 88
108 97
108 99
108 206
108 207
109 2
109 3
109 4
109 6
109 9
109 14
109 16
109 36
109 49
109 60
109 65
109 69
109 105
109 117
110 1
110 3
110 16
110 97
110 111
111 3
111 95
111 97
111 99
111 110
111 192
111 263
112 0
112 1
112 2
112 3
112 34
112 35
112 43
113 1
113 2
113 3
113 13
113 31
113 68
113 102
113 210
113 237
113 242
114 0
114 2
114 3
114 4
114 16
114 69
114 274
115 3
115 6
115 55
115 77
115 79
115 97
115 157
115 199
115 204
116 2
116 3
116 4
116 9
116 14
116 101
116 124
116 216
116 217
117 2
117 3
117 4
117 6
117 9
117 49
117 60
117 109
117 124
117 216
117 217
118 2
118 4
118 7
118 12
118 101
118 125
118 126
118 127
118 128
118 129
119 4
119 91
119 125
119 127
120 2
120 4
120 9
120 60
120 83
120 104
120 170
120 228
120 262
121 7
121 8
121 55
121 65
121 91
121 121
121 125
121 126
121 127
121 128
121 129
121 214
121 215
121 218
122 1
122 16
122 128
122 129
122 214
122 218
123 3
123 9
123 14
123 16
123 49
123 60
123 101
123 216
123 217
124 0
124 9
124 10
124 116
124 117
124 134
124 216
125 2
125 7
125 8
125 16
125 91
125 118
125 119
125 121
125 126
125 128
125 129
126 8
126 16
126 55
126 65
126 91
126 118
126 121
126 125
126 127
126 214
126 215
126 218
126 237
127 1
127 8
127 118
127 119
127 121
127 126
128 1
128 8
128 16
128 45
128 48
128 55
128 91
128 118
128 121
128 122
128 125
129 8
129 45
129 55
129 91
129 118
129 121
129 122
129 125
129 214
129 218
130 0
130 1
130 2
130 3
130 74
130 86
130 172
130 242
130 270
130 281
131 0
131 1
131 2
131 20
131 35
131 139
131 219
131 220
131 223
131 224
131 226
131 237
131 245
131 247
131 271
131 286
132 0
132 1
132 2
132 28
132 281
133 133
133 229
134 0
134 1
134 2
134 43
134 53
134 124
134 224
134 227
135 0
135 1
135 39
135 237
135 245
136 1
136 33
136 47
136 64
136 143
136 159
136 160
137 230
137 231
137 232
138 1
138 242
139 0
139 1
139 2
139 19
139 34
139 37
139 41
139 42
139 43
139 44
139 51
139 63
139 71
139 85
139 92
139 131
139 141
139 155
139 157
139 222
139 229
139 230
139 237
139 242
139 283
139 284
139 286
140 0
140 1
140 34
140 44
140 140
140 235
140 274
140 288
140 290
141 1
141 34
141 139
141 274
142 0
142 274
143 0
143 1
143 2
143 15
143 136
143 274
144 1
144 37
144 40
144 41
144 146
144 155
144 165
144 196
144 237
144 280
145 1
145 3
145 13
145 40
145 176
145 228
145 237
145 242
146 0
146 1
146 2
146 37
146 144
146 146
146 196
146 223
146 283
147 1
147 40
147 59
147 84
147 86
147 148
147 155
147 237
147 278
148 1
148 31
148 147
148 237
148 242
148 278
149 1
149 237
149 242
150 0
150 1
150 17
150 24
150 282
151 0
151 152
151 248
151 282
152 0
152 2
152 151
152 248
152 282
153 0
153 1
153 2
153 282
154 184
154 250
154 251
154 252
154 253
155 0
155 1
155 40
155 139
155 144
155 147
155 237
156 1
156 3
156 10
156 12
156 45
156 65
156 104
156 204
157 1
157 12
157 45
157 55
157 115
157 139
157 179
158 3
158 47
158 239
159 64
159 136
160 0
160 1
160 33
160 57
160 64
160 136
161 1
161 33
161 57
161 64
162 1
162 2
162 15
162 33
162 57
162 64
162 183
163 1
163 2
163 3
163 69
163 101
163 201
163 237
164 1
164 164
164 165
164 194
164 254
165 1
165 19
165 144
165 164
165 254
166 1
166 2
166 78
166 166
166 167
167 0
167 27
167 78
167 166
168 78
169 1
169 2
169 3
169 31
169 199
169 242
170 2
170 3
170 85
170 120
170 188
170 189
170 190
171 1
171 2
171 3
171 31
171 199
171 242
172 0
172 1
172 2
172 3
172 15
172 36
172 67
172 69
172 85
172 130
172 174
172 178
172 191
173 2
173 16
173 34
173 84
173 194
174 1
174 2
174 34
174 172
174 260
174 274
175 0
175 1
175 250
175 252
176 2
176 15
176 71
176 76
176 92
176 106
176 145
176 183
176 266
177 0
177 2
177 85
178 1
178 2
178 36
178 172
179 2
179 3
179 20
179 67
179 69
179 96
179 157
179 237
180 82
180 182
180 185
181 1
181 15
181 255
182 52
182 59
182 82
182 180
182 185
182 239
183 1
183 2
183 43
183 92
183 162
183 176
183 242
183 255
184 1
184 2
184 80
184 81
184 85
184 154
185 70
185 82
185 94
185 180
185 182
186 50
186 83
186 186
187 5
187 83
187 187
188 83
188 85
188 104
188 170
189 1
189 2
189 83
189 104
189 170
189 262
190 1
190 2
190 83
190 104
190 170
190 262
191 1
191 85
191 172
192 58
192 95
192 111
192 194
192 240
192 241
192 263
193 264
194 2
194 58
194 95
194 164
194 173
194 192
194 240
194 241
194 242
195 37
195 196
195 264
196 1
196 144
196 146
196 195
196 264
196 283
197 1
197 264
197 283
198 0
198 96
198 199
199 0
199 5
199 55
199 67
199 96
199 104
199 107
199 115
199 169
199 171
199 198
200 1
200 2
200 16
200 96
201 2
201 3
201 16
201 49
201 69
201 96
201 163
202 100
202 103
202 211
202 213
202 269
203 1
203 2
203 3
203 4
203 5
203 11
203 12
203 13
203 31
203 32
203 68
203 69
203 77
203 98
204 1
204 2
204 3
204 12
204 45
204 115
204 156
205 1
205 79
205 209
205 255
205 257
206 27
206 88
206 97
206 99
206 108
206 206
206 207
207 2
207 27
207 88
207 97
207 99
207 108
207 206
208 98
208 209
208 268
209 1
209 98
209 205
209 208
209 209
209 268
210 1
210 2
210 3
210 98
210 106
210 113
211 100
211 103
211 202
211 213
211 269
212 1
212 100
212 103
212 213
212 269
213 41
213 100
213 103
213 202
213 211
213 212
213 256
213 269
214 8
214 48
214 65
214 121
214 122
214 126
214 129
214 218
215 1
215 2
215 7
215 12
215 91
215 121
215 126
215 242
216 14
216 16
216 48
216 49
216 55
216 116
216 117
216 123
216 124
216 216
216 217
217 14
217 116
217 117
217 123
217 216
218 7
218 8
218 65
218 121
218 122
218 126
218 129
218 214
219 53
219 131
219 223
219 242
219 286
219 287
220 131
220 270
220 284
221 1
221 270
222 1
222 2
222 17
222 34
222 139
222 237
222 242
222 244
222 270
223 1
223 131
223 146
223 219
223 286
224 0
224 1
224 30
224 131
224 134
224 242
225 1
225 20
225 242
225 270
226 0
226 1
226 131
226 242
227 0
227 1
227 2
227 17
227 134
227 242
228 0
228 1
228 2
228 31
228 120
228 145
228 242
229 47
229 133
229 139
229 229
230 63
230 137
230 139
230 232
231 1
231 2
231 28
231 63
231 72
231 137
231 260
232 1
232 137
232 230
233 0
233 34
234 0
234 1
234 34
235 140
235 275
236 1
236 274
237 0
237 1
237 2
237 3
237 4
237 7
237 13
237 16
237 20
237 34
237 40
237 48
237 67
237 68
237 69
237 74
237 76
237 84
237 86
237 87
237 90
237 91
237 105
237 113
237 126
237 131
237 135
237 139
237 144
237 145
237 147
237 148
237 149
237 155
237 163
237 179
237 222
237 237
237 239
237 242
237 277
237 278
237 280
238 0
238 1
238 43
238 242
238 245
239 0
239 1
239 2
239 47
239 158
239 182
239 237
240 1
240 2
240 192
240 194
241 0
241 1
241 58
241 192
241 194
241 263
242 0
242 1
242 2
242 3
242 4
242 11
242 13
242 15
242 16
242 19
242 20
242 24
242 28
242 29
242 31
242 33
242 34
242 35
242 36
242 38
242 39
242 41
242 43
242 50
242 51
242 52
242 58
242 62
242 74
242 75
242 76
242 79
242 80
242 81
242 86
242 89
242 91
242 113
242 130
242 138
242 139
242 145
242 148
242 149
242 169
242 171
242 183
242 194
242 215
242 219
242 222
242 224
242 225
242 226
242 227
242 228
242 237
242 238
242 242
242 244
242 253
242 279
242 280
242 281
242 286
242 287
243 1
243 270
244 1
244 2
244 222
244 242
245 0
245 1
245 3
245 29
245 32
245 43
245 53
245 131
245 135
245 238
245 249
246 1
247 42
247 131
247 282
248 1
248 71
248 73
248 151
248 152
248 282
249 1
249 2
249 29
249 245
249 282
250 81
250 154
250 175
250 252
250 253
251 154
251 253
252 1
252 2
252 154
252 175
252 250
253 1
253 154
253 242
253 250
253 251
254 1
254 164
254 165
254 254
255 0
255 1
255 2
255 11
255 15
255 17
255 24
255 72
255 79
255 81
255 93
255 103
255 181
255 183
255 205
255 255
255 256
255 257
255 258
256 1
256 36
256 213
256 255
257 1
257 72
257 205
257 255
258 1
258 17
258 255
259 2
259 3
259 48
259 105
260 1
260 2
260 81
260 84
260 174
260 231
261 2
261 28
261 84
262 1
262 2
262 38
262 47
262 57
262 64
262 120
262 189
262 190
262 266
263 58
263 95
263 111
263 192
263 241
264 193
264 195
264 196
264 197
264 283
265 1
265 12
265 35
265 79
265 97
266 0
266 1
266 2
266 3
266 76
266 106
266 176
266 262
267 1
267 3
267 35
267 39
268 0
268 1
268 2
268 75
268 208
268 209
269 1
269 2
269 36
269 202
269 211
269 212
269 213
270 0
270 1
270 2
270 20
270 66
270 130
270 220
270 221
270 222
270 225
270 243
270 270
270 284
270 285
271 131
272 1
272 273
273 0
273 1
273 272
273 273
274 0
274 1
274 20
274 27
274 34
274 43
274 47
274 51
274 53
274 54
274 64
274 66
274 89
274 114
274 140
274 141
274 142
274 143
274 174
274 236
274 274
275 235
275 275
275 289
276 276
277 237
278 1
278 147
278 148
278 237
279 0
279 1
279 242
280 1
280 2
280 144
280 237
280 242
281 0
281 1
281 2
281 130
281 132
281 242
282 24
282 150
282 151
282 152
282 153
282 247
282 248
282 249
283 0
283 1
283 139
283 146
283 196
283 197
283 264
283 283
284 0
284 1
284 2
284 20
284 64
284 139
284 220
284 270
284 284
284 285
285 0
285 270
285 284
286 20
286 53
286 131
286 139
286 219
286 223
286 242
286 287
287 219
287 242
287 286
288 140
289 0
289 1
289 275
290 140
