0 0
0 1
0 2
0 3
0 4
0 5
0 6
0 7
0 8
0 9
0 10
0 11
0 12
0 13
0 14
0 15
0 16
0 17
0 18
0 19
0 20
0 21
0 22
0 23
0 24
0 25
0 26
0 27
0 28
0 29
0 30
0 31
0 32
0 33
0 34
0 35
0 36
0 37
0 38
0 39
0 40
0 41
0 42
0 43
0 44
0 45
0 46
0 50
0 53
0 54
0 56
0 57
0 60
0 62
0 63
0 64
0 65
0 66
0 67
0 68
0 70
0 73
0 76
0 77
0 78
0 79
0 81
0 82
0 84
0 85
0 88
0 89
1 0
1 1
1 2
1 3
1 4
1 5
1 6
1 7
1 8
1 9
1 10
1 11
1 12
1 13
1 15
1 16
1 17
1 18
1 19
1 20
1 21
1 22
1 23
1 24
1 25
1 26
1 27
1 28
1 29
1 30
1 31
1 32
1 33
1 34
1 35
1 36
1 37
1 38
1 39
1 40
1 41
1 42
1 43
1 44
1 45
1 46
1 47
1 49
1 50
1 51
1 52
1 53
1 54
1 55
1 56
1 57
1 58
1 60
1 61
1 63
1 64
1 65
1 66
1 67
1 68
1 69
1 70
1 71
1 72
1 73
1 74
1 75
1 76
1 77
1 78
1 79
1 81
1 82
1 84
2 0
2 1
2 2
2 3
2 4
2 5
2 6
2 7
2 8
2 9
2 10
2 11
2 12
2 13
2 15
2 16
2 17
2 19
2 20
2 21
2 22
2 25
2 26
2 28
2 29
2 32
2 34
2 35
2 36
2 37
2 38
2 39
2 40
2 41
2 42
2 43
2 44
2 46
2 47
2 48
2 49
2 50
2 51
2 52
2 53
2 54
2 55
2 56
2 57
2 58
2 59
2 60
2 61
2 63
2 67
2 68
2 69
2 70
2 74
3 0
3 1
3 2
3 3
3 4
3 6
3 7
3 8
3 9
3 10
3 12
3 16
3 21
3 26
3 29
3 34
3 35
3 36
3 39
3 41
3 42
3 43
3 51
3 52
3 55
3 58
3 59
3 60
3 61
3 63
3 67
3 69
3 74
3 75
4 0
4 1
4 2
4 3
4 7
4 8
4 9
4 10
4 12
4 16
4 22
4 34
4 36
4 38
4 41
4 42
4 50
4 51
4 55
4 58
4 63
4 67
4 68
5 0
5 1
5 2
5 9
5 12
5 26
5 36
5 38
5 61
5 72
5 73
5 74
6 0
6 1
6 2
6 3
6 9
6 10
6 12
6 26
6 36
6 50
6 51
6 55
6 67
6 68
7 0
7 1
7 2
7 3
7 4
7 55
7 59
7 61
7 73
8 0
8 1
8 2
8 3
8 4
8 9
8 10
8 12
8 38
8 41
8 42
8 43
8 60
8 61
8 63
8 69
8 74
9 0
9 1
9 2
9 3
9 4
9 5
9 6
9 8
9 16
9 48
9 59
9 61
9 63
9 67
9 75
10 0
10 1
10 2
10 3
10 4
10 6
10 8
10 10
10 13
10 21
10 48
10 50
10 51
10 55
10 67
10 68
11 0
11 1
11 2
11 27
11 29
11 32
11 34
11 37
11 40
11 63
12 0
12 1
12 2
12 3
12 4
12 5
12 6
12 8
12 13
12 16
12 21
12 42
12 48
12 50
12 53
12 55
12 56
12 59
12 62
12 68
12 72
12 75
13 0
13 1
13 2
13 10
13 12
13 13
13 15
13 21
13 23
13 27
13 28
13 31
13 32
13 34
13 35
13 40
13 43
13 45
13 46
13 63
13 64
14 0
14 34
15 0
15 1
15 2
15 13
15 15
15 17
15 21
15 22
15 23
15 25
15 34
15 35
15 63
15 66
15 69
16 0
16 1
16 2
16 3
16 4
16 9
16 12
16 21
16 22
16 28
16 31
16 32
16 38
16 51
16 61
16 63
16 69
16 79
17 0
17 1
17 2
17 15
17 31
17 64
18 0
18 1
19 0
19 1
19 2
19 27
19 37
19 45
19 63
20 0
20 1
20 2
20 54
20 70
21 0
21 1
21 2
21 3
21 10
21 12
21 13
21 15
21 16
21 22
21 26
21 38
21 41
21 63
22 0
22 1
22 2
22 4
22 15
22 16
22 21
22 29
22 34
22 38
22 63
23 0
23 1
23 13
23 15
24 0
24 1
24 34
24 35
24 37
24 39
24 41
24 42
24 43
24 63
24 67
25 0
25 1
25 2
25 15
25 39
25 63
25 66
26 0
26 1
26 2
26 3
26 5
26 6
26 21
26 48
26 68
26 73
26 75
27 0
27 1
27 11
27 13
27 19
27 27
27 29
27 30
27 31
27 32
27 34
27 39
27 40
27 41
27 43
27 54
27 58
27 63
27 64
27 65
27 80
27 81
28 0
28 1
28 2
28 13
28 16
28 34
28 38
28 63
29 0
29 1
29 2
29 3
29 11
29 22
29 27
29 37
29 43
29 57
29 81
30 0
30 1
30 27
31 0
31 1
31 13
31 16
31 17
31 27
31 39
31 63
31 64
31 78
31 79
32 0
32 1
32 2
32 11
32 13
32 16
32 27
32 35
32 37
32 61
32 66
33 0
33 1
34 0
34 1
34 2
34 3
34 4
34 11
34 13
34 14
34 15
34 22
34 24
34 27
34 28
34 35
34 36
34 37
34 39
34 51
34 63
34 67
34 69
35 0
35 1
35 2
35 3
35 13
35 15
35 24
35 32
35 34
35 38
35 63
35 64
36 0
36 1
36 2
36 3
36 4
36 5
36 6
36 34
36 38
36 59
36 61
36 72
36 75
37 0
37 1
37 2
37 11
37 19
37 24
37 29
37 32
37 34
37 43
37 67
38 0
38 1
38 2
38 4
38 5
38 8
38 16
38 21
38 22
38 28
38 35
38 36
38 58
38 59
38 61
38 63
39 0
39 1
39 2
39 3
39 24
39 25
39 27
39 31
39 34
39 43
39 63
39 64
39 77
40 0
40 1
40 2
40 11
40 13
40 27
40 63
41 0
41 1
41 2
41 3
41 4
41 8
41 21
41 24
41 27
41 58
41 63
41 67
41 80
42 0
42 1
42 2
42 3
42 4
42 8
42 12
42 24
42 43
42 67
43 0
43 1
43 2
43 3
43 8
43 13
43 24
43 27
43 29
43 37
43 39
43 42
43 49
43 51
43 60
44 0
44 1
44 2
44 44
44 52
44 57
44 68
45 0
45 1
45 13
45 19
45 46
45 70
46 0
46 1
46 2
46 13
46 45
46 64
46 70
46 71
47 1
47 2
47 54
47 70
48 2
48 9
48 10
48 12
48 26
48 48
48 51
48 67
48 68
49 1
49 2
49 43
49 63
50 0
50 1
50 2
50 4
50 6
50 10
50 12
50 55
50 68
51 1
51 2
51 3
51 4
51 6
51 10
51 16
51 34
51 43
51 48
51 55
51 67
52 1
52 2
52 3
52 44
52 58
53 0
53 1
53 2
53 12
54 0
54 1
54 2
54 20
54 27
54 47
54 63
54 70
55 1
55 2
55 3
55 4
55 6
55 7
55 10
55 12
55 50
55 51
55 63
56 0
56 1
56 2
56 12
57 0
57 1
57 2
57 29
57 44
58 1
58 2
58 3
58 4
58 27
58 38
58 41
58 52
58 63
58 69
59 2
59 3
59 7
59 9
59 12
59 36
59 38
59 61
59 62
59 72
59 73
59 74
60 0
60 1
60 2
60 3
60 8
60 43
61 1
61 2
61 3
61 5
61 7
61 8
61 9
61 16
61 32
61 36
61 38
61 59
61 61
61 72
61 73
61 75
62 0
62 12
62 59
62 73
62 75
63 0
63 1
63 2
63 3
63 4
63 8
63 9
63 11
63 13
63 15
63 16
63 19
63 21
63 22
63 24
63 25
63 27
63 28
63 31
63 34
63 35
63 38
63 39
63 40
63 41
63 49
63 54
63 55
63 58
63 63
63 64
63 67
63 71
63 76
63 77
63 78
63 79
64 0
64 1
64 13
64 17
64 27
64 31
64 35
64 39
64 46
64 63
64 77
64 82
65 0
65 1
65 27
65 65
65 66
65 82
65 85
65 86
65 87
65 89
66 0
66 1
66 15
66 25
66 32
66 65
66 79
66 87
67 0
67 1
67 2
67 3
67 4
67 6
67 9
67 10
67 24
67 34
67 37
67 41
67 42
67 48
67 51
67 63
67 67
67 68
68 0
68 1
68 2
68 4
68 6
68 10
68 12
68 26
68 44
68 48
68 50
68 67
69 1
69 2
69 3
69 8
69 15
69 16
69 34
69 58
70 0
70 1
70 2
70 20
70 45
70 46
70 47
70 54
70 70
70 71
70 83
71 1
71 46
71 63
71 70
72 1
72 5
72 12
72 36
72 59
72 61
72 74
72 75
73 0
73 1
73 5
73 7
73 26
73 59
73 61
73 62
73 73
73 74
74 1
74 2
74 3
74 5
74 8
74 59
74 72
74 73
74 75
75 1
75 3
75 9
75 12
75 26
75 36
75 61
75 62
75 72
75 74
76 0
76 1
76 63
77 0
77 1
77 39
77 63
77 64
78 0
78 1
78 31
78 63
79 0
79 1
79 16
79 31
79 63
79 66
80 27
80 41
81 0
81 1
81 27
81 29
82 0
82 1
82 64
82 65
82 82
82 86
82 87
82 88
83 70
84 0
84 1
85 0
85 65
85 85
86 65
86 82
87 65
87 66
87 82
87 87
87 89
88 0
88 82
89 0
89 65
89 87
89 89
