1 1779
2 1792
3 1876
3 1877
4 300
4 301
4 1331
5 314
5 335
5 338
5 762
5 1394
6 329
6 359
6 360
6 361
6 362
7 19
7 28
7 31
7 60
7 366
7 367
7 368
8 30
8 71
8 72
8 73
8 116
8 153
8 299
8 371
9 20
9 21
9 24
9 150
9 269
9 312
9 377
9 378
9 379
10 63
10 364
10 382
10 383
10 384
10 385
10 386
10 387
10 388
10 389
11 81
11 143
11 172
11 231
11 307
11 331
11 334
11 390
11 391
11 392
12 26
12 47
12 114
12 150
12 247
12 393
12 394
12 395
12 396
12 397
12 398
12 925
13 15
13 17
13 21
13 27
13 31
13 244
13 258
13 281
13 372
13 373
13 374
13 399
13 400
14 15
14 17
14 31
14 68
14 258
14 293
14 373
14 374
14 375
14 401
14 402
14 403
14 404
14 714
15 13
15 14
15 21
15 27
15 68
15 244
15 281
15 293
15 372
15 373
15 374
15 375
15 401
15 402
15 404
16 19
16 21
16 28
16 29
16 31
16 81
16 143
16 230
16 275
16 355
16 365
16 390
16 395
16 405
16 406
16 461
17 13
17 14
17 21
17 24
17 49
17 50
17 58
17 68
17 281
17 294
17 374
17 375
17 401
17 402
17 404
17 407
17 408
18 26
18 47
18 63
18 249
18 289
18 319
18 393
18 396
18 397
18 409
18 410
18 411
18 412
18 413
18 414
18 613
18 925
18 1292
19 7
19 16
19 28
19 29
19 31
19 81
19 99
19 143
19 275
19 354
19 365
19 415
19 416
19 417
19 418
19 419
19 420
20 9
20 24
20 31
20 58
20 124
20 159
20 312
20 365
20 378
20 379
20 381
20 421
20 422
20 423
20 424
20 425
20 426
20 431
20 466
21 9
21 13
21 15
21 16
21 17
21 159
21 365
21 372
21 373
21 374
21 378
21 379
21 399
21 425
21 427
21 428
21 429
21 430
21 431
21 432
21 466
22 51
22 173
22 218
22 346
22 433
22 434
22 435
22 436
22 437
22 438
22 439
22 440
22 441
22 442
22 443
22 444
22 445
22 628
22 639
22 1132
22 1466
23 24
23 63
23 80
23 93
23 115
23 256
23 257
23 259
23 274
23 319
23 363
23 446
23 447
23 448
23 449
23 450
23 451
23 452
23 453
23 454
23 455
23 1025
23 1206
24 9
24 17
24 20
24 23
24 26
24 27
24 28
24 29
24 31
24 80
24 244
24 246
24 248
24 258
24 269
24 290
24 294
24 373
24 379
24 406
24 424
24 425
24 456
24 457
24 458
24 459
25 68
25 81
25 93
25 99
25 309
25 316
25 354
25 369
25 372
25 390
25 402
25 406
25 416
25 427
25 460
25 461
25 462
25 463
25 464
25 465
25 466
25 467
25 468
25 469
25 520
25 521
25 719
25 915
26 12
26 18
26 24
26 63
26 109
26 115
26 162
26 231
26 248
26 249
26 289
26 297
26 394
26 470
26 471
26 472
26 473
26 474
26 475
26 476
26 477
26 478
26 479
26 1086
26 1087
26 1290
26 1315
26 1316
27 13
27 15
27 24
27 48
27 58
27 68
27 81
27 124
27 145
27 159
27 255
27 290
27 373
27 374
27 375
27 401
27 402
27 404
27 424
27 431
27 460
27 480
27 481
27 482
27 483
27 492
28 7
28 16
28 19
28 24
28 29
28 81
28 93
28 120
28 124
28 143
28 145
28 295
28 349
28 365
28 369
28 380
28 406
28 415
28 419
28 420
28 460
28 461
28 468
28 484
28 485
28 486
28 487
28 488
28 489
28 490
28 518
28 1360
29 16
29 19
29 24
29 28
29 81
29 120
29 143
29 149
29 159
29 275
29 306
29 309
29 349
29 355
29 365
29 380
29 395
29 406
29 415
29 418
29 419
29 420
29 456
29 468
29 482
29 485
29 489
29 491
29 492
29 493
29 494
29 495
29 1471
30 8
30 69
30 123
30 147
30 228
30 253
30 308
30 443
30 496
30 497
30 498
30 499
30 500
30 501
30 502
30 503
30 504
30 505
30 506
30 507
30 508
30 717
30 725
30 890
30 943
30 947
30 967
30 1093
30 1152
30 1362
30 1401
30 1463
30 1483
30 1485
31 7
31 13
31 14
31 16
31 19
31 20
31 24
31 48
31 58
31 60
31 68
31 70
31 81
31 93
31 99
31 115
31 120
31 124
31 143
31 149
31 150
31 159
31 194
31 275
31 306
31 309
31 312
31 349
31 365
31 366
31 367
31 369
31 376
31 390
31 401
31 402
31 405
31 406
31 415
31 416
31 418
31 419
31 422
31 423
31 424
31 432
31 456
31 460
31 461
31 466
31 468
31 479
31 480
31 482
31 484
31 485
31 488
31 490
31 493
31 494
31 509
31 510
31 511
31 512
31 513
31 514
31 515
31 516
31 517
31 518
31 519
31 520
31 521
31 522
31 523
31 524
31 525
31 618
31 918
31 1044
31 1360
31 1471
31 1493
31 1668
32 32
33 162
33 200
33 302
33 473
33 532
33 533
33 1596
34 62
34 135
34 534
34 535
34 536
34 537
35 538
35 539
35 540
36 198
36 541
37 1539
37 1956
38 573
39 108
39 579
39 580
39 581
39 1592
40 576
40 582
40 583
40 584
40 585
41 56
41 586
41 587
41 588
42 589
42 590
43 598
43 599
43 600
43 1673
44 607
44 608
44 1842
45 611
45 1851
46 612
47 12
47 18
47 397
47 411
47 414
47 450
47 565
47 613
47 614
47 615
48 27
48 31
48 159
48 294
48 422
48 517
48 616
48 617
48 618
49 17
49 50
49 64
49 407
49 619
49 620
49 621
49 622
50 17
50 49
50 414
50 619
50 622
50 623
50 624
51 22
51 69
51 625
51 626
51 627
51 628
51 629
51 630
51 631
51 632
51 633
51 634
51 635
51 636
51 637
51 638
51 639
51 640
51 641
51 978
52 822
52 1829
53 660
53 1942
54 661
55 335
55 338
55 662
55 663
55 664
55 665
55 666
56 41
56 526
56 667
56 668
56 669
56 670
56 671
57 160
57 215
57 351
57 356
57 672
57 673
57 674
57 675
57 676
57 677
57 678
57 679
57 680
57 681
57 682
57 1226
58 17
58 20
58 27
58 31
58 245
58 258
58 336
58 424
58 683
58 684
59 71
59 72
59 73
59 153
59 223
59 685
59 686
59 687
59 688
59 726
60 7
60 31
60 194
60 275
60 367
60 370
60 468
60 689
60 690
61 652
61 691
61 692
61 693
61 694
62 34
62 695
62 696
62 697
62 698
62 699
62 700
62 768
62 790
62 892
62 1452
63 10
63 18
63 23
63 26
63 146
63 162
63 172
63 198
63 199
63 205
63 363
63 398
63 701
63 702
63 703
63 704
63 705
63 1129
64 49
64 244
64 373
64 407
64 706
65 339
65 358
65 707
65 708
66 709
66 710
66 711
67 712
67 713
68 14
68 15
68 17
68 25
68 27
68 31
68 244
68 258
68 293
68 373
68 374
68 399
68 400
68 714
68 715
69 30
69 51
69 116
69 253
69 308
69 627
69 629
69 636
69 637
69 640
69 716
69 717
69 718
70 31
70 99
70 124
70 370
70 468
70 487
70 489
70 491
70 519
70 719
70 720
70 721
71 8
71 59
71 72
71 73
71 188
71 223
71 688
71 722
71 723
71 724
71 725
72 8
72 59
72 71
72 153
72 188
72 286
72 441
72 726
72 727
72 728
72 729
72 730
72 731
72 732
72 733
72 991
73 8
73 59
73 71
73 188
73 286
73 730
73 733
73 734
73 735
73 736
73 737
73 738
73 991
73 1057
73 1336
74 97
74 125
74 638
74 739
74 740
74 741
74 742
74 743
74 744
74 1150
74 1631
74 1818
75 245
75 307
75 316
75 331
75 492
75 745
75 746
75 747
75 748
76 101
76 152
76 749
76 750
76 751
76 752
76 1050
77 563
77 753
77 754
77 755
78 254
78 590
78 756
78 757
78 758
78 759
78 760
78 761
78 813
78 858
79 335
79 695
79 713
79 762
79 763
79 764
79 765
79 766
79 767
79 768
79 769
79 1599
80 23
80 24
80 128
80 144
80 187
80 243
80 259
80 363
80 449
80 770
80 771
80 772
80 773
81 11
81 16
81 19
81 25
81 27
81 28
81 29
81 31
81 245
81 289
81 295
81 355
81 366
81 381
81 774
81 775
81 776
81 1022
82 807
82 1424
82 2015
83 1289
83 2016
84 1779
84 1857
85 633
85 834
86 92
86 157
86 575
86 781
86 835
86 836
86 837
86 838
86 839
87 90
87 758
87 761
87 840
87 841
87 842
87 843
87 844
87 1734
88 583
88 845
88 846
88 847
88 848
88 849
89 856
89 857
90 87
90 858
91 1988
91 2085
92 86
92 206
92 575
92 643
92 725
92 836
92 860
92 861
92 862
92 863
92 864
92 865
92 866
92 1159
93 23
93 25
93 28
93 31
93 115
93 120
93 249
93 525
93 565
93 867
93 868
93 869
93 870
93 1023
94 608
94 871
94 872
94 873
94 874
94 1706
95 146
95 189
95 558
95 880
95 1028
95 1683
96 884
96 885
96 886
96 887
96 1735
96 1816
97 74
97 741
97 888
97 889
97 1937
98 892
98 2044
99 19
99 25
99 31
99 70
99 720
99 893
99 894
100 895
100 896
100 897
100 898
100 899
100 900
101 76
101 152
101 176
101 226
101 229
101 304
101 901
101 902
102 127
102 141
102 175
102 903
102 904
102 905
102 906
102 907
102 908
103 909
103 910
104 267
104 335
104 911
104 912
105 568
105 913
105 914
105 915
106 916
106 917
106 1356
107 918
107 919
108 39
108 650
108 920
108 921
108 922
108 923
109 26
109 924
109 925
109 926
109 927
109 1027
110 240
110 928
110 929
110 930
110 931
111 580
111 581
111 932
111 933
112 244
112 293
112 294
112 934
113 325
113 937
113 956
113 1838
114 12
114 162
114 246
114 319
114 409
114 613
114 938
114 939
114 940
114 941
114 1292
115 23
115 26
115 31
115 93
115 159
115 245
115 247
115 297
115 528
115 942
115 1507
116 8
116 69
116 253
116 631
116 937
116 943
116 944
116 945
116 946
116 947
117 598
117 950
117 951
117 1953
118 709
118 1950
118 1951
119 954
119 955
119 956
119 957
120 28
120 29
120 31
120 93
120 145
120 255
120 419
120 495
121 326
121 958
121 959
121 960
121 961
121 962
121 975
122 260
122 282
122 772
122 963
122 964
122 965
122 966
122 1184
123 30
123 287
123 288
123 507
123 967
123 968
123 969
123 1688
124 20
124 27
124 28
124 31
124 70
124 159
124 429
125 74
125 180
125 629
125 635
125 970
126 190
126 738
126 836
126 971
126 972
127 102
127 905
127 973
127 974
127 975
127 1017
127 1386
128 80
128 144
128 243
128 297
128 454
128 471
128 907
128 936
128 976
128 977
128 978
128 979
128 1024
128 1736
129 155
129 203
129 980
129 981
130 254
130 945
130 982
130 983
131 263
131 328
131 330
131 984
131 985
131 986
131 987
131 1001
132 729
132 738
132 988
132 989
132 990
132 991
132 1094
132 1831
133 211
133 266
133 279
133 632
133 992
133 993
134 771
134 994
134 995
134 996
134 997
134 1419
135 34
135 998
135 999
135 1000
135 1505
136 152
136 304
136 898
136 899
136 1001
136 1002
136 1003
136 1004
137 139
137 1005
137 1006
137 1007
137 1008
138 772
138 1009
138 1010
138 1011
139 137
139 1012
139 1013
139 1576
139 1680
140 153
140 239
140 344
140 1014
140 1015
141 102
141 973
141 1016
141 1017
141 1018
142 1019
142 1020
142 1021
143 11
143 16
143 19
143 28
143 29
143 31
143 245
143 355
143 366
143 390
143 775
143 1022
144 80
144 128
144 232
144 238
144 256
144 259
144 449
144 455
144 1023
144 1024
144 1025
144 1026
145 27
145 28
145 120
145 159
145 295
145 305
145 380
145 395
145 482
145 1027
146 63
146 95
146 189
146 530
146 558
146 704
146 880
146 1028
146 1029
146 1030
147 30
147 190
147 732
147 738
147 836
147 971
147 972
147 1031
148 1032
148 1033
148 1034
149 29
149 31
149 230
149 1035
149 1036
149 1037
150 9
150 12
150 31
150 269
150 290
150 458
150 467
150 1038
150 1039
150 1040
151 342
151 391
151 1041
151 1042
151 1043
151 1044
152 76
152 101
152 136
152 200
152 801
152 902
152 1045
152 1046
152 1047
152 1048
152 1049
152 1050
152 1051
152 1188
153 8
153 59
153 72
153 140
153 188
153 223
153 732
153 737
153 1052
153 1053
153 1054
153 1055
153 1056
153 1057
154 1058
154 1059
155 129
155 1060
155 1061
156 1062
156 1063
157 86
157 183
157 730
157 835
157 836
157 862
157 866
157 1064
157 1065
157 1066
157 1067
158 239
158 254
158 568
158 997
158 1068
158 1069
158 1070
158 1071
158 1072
158 1073
158 1214
159 20
159 21
159 27
159 29
159 31
159 48
159 115
159 124
159 145
159 1074
159 1075
159 1076
160 57
160 213
160 215
160 332
160 333
160 351
160 356
160 674
160 676
160 678
160 680
160 1077
160 1078
160 1079
160 1226
160 1410
161 371
161 591
161 659
161 849
161 1080
161 1081
161 1082
161 1083
161 1084
162 26
162 33
162 63
162 114
162 247
162 382
162 396
162 398
162 930
162 938
162 939
162 940
162 1085
162 1086
162 1087
162 1088
163 1091
163 1092
163 1883
164 1096
164 1097
164 2051
165 755
165 1110
165 1111
166 627
166 640
167 167
168 1087
168 2040
169 174
169 568
169 654
169 1120
169 1121
170 912
170 1122
170 1123
170 1124
170 1125
171 665
171 1126
171 1127
171 1128
172 11
172 63
172 476
172 552
172 670
172 701
172 1129
172 1130
173 22
173 218
173 346
173 433
173 442
173 1131
173 1132
173 1133
174 169
174 236
174 644
174 654
174 1134
174 1135
175 102
175 291
175 962
175 1136
175 1137
175 1403
176 101
176 751
176 1138
176 1139
176 1140
176 1694
177 292
177 1141
177 1190
178 202
178 1144
178 1145
179 1146
179 1147
179 1148
180 125
180 638
180 740
180 1149
180 1150
180 1151
180 1152
181 203
181 1153
181 1154
181 1155
182 225
182 1156
182 1157
183 157
183 1158
183 1159
184 487
184 747
184 1160
185 557
185 1152
185 1161
185 1162
186 220
186 1124
186 1164
186 1886
187 80
187 257
187 454
187 457
187 515
187 1167
188 71
188 72
188 73
188 153
188 496
188 733
189 95
189 146
189 880
189 1168
190 126
190 147
190 1100
190 1169
190 1170
191 280
191 282
191 350
191 353
191 1171
192 193
192 855
192 1172
193 192
193 1172
193 1173
193 1174
194 31
194 60
194 248
194 366
194 481
194 524
194 1175
195 1176
195 1177
196 1131
196 1178
196 1179
197 350
197 352
197 944
197 1171
197 1180
197 1181
197 1182
197 1183
197 1184
198 36
198 63
198 268
198 939
198 1042
198 1168
198 1185
198 1186
199 63
199 364
199 382
199 383
199 384
199 385
199 386
199 387
199 388
199 389
199 1090
199 1187
200 33
200 152
200 229
200 514
200 960
200 961
200 962
200 1188
200 1189
200 1190
200 1191
200 1266
201 259
201 348
201 1037
201 1192
201 1193
201 1194
201 1195
202 178
202 1144
202 1145
202 1196
202 1197
202 1738
203 129
203 181
203 917
203 1067
203 1153
203 1198
203 1199
203 1200
203 1201
203 1202
203 1892
204 772
204 1011
204 1203
204 1204
205 63
205 284
205 595
205 596
205 597
205 701
205 803
205 1205
205 1206
205 1359
206 92
206 847
206 861
206 1207
207 1208
207 1209
207 1372
208 819
208 920
208 922
208 932
208 1210
208 1211
208 1212
208 1213
208 1828
209 1068
209 1213
209 1214
209 1215
209 1216
210 381
210 1041
210 1217
210 1218
210 1219
211 133
211 546
211 796
211 874
211 881
211 883
211 1220
211 1221
211 1222
212 1223
212 1224
212 1225
213 160
213 215
213 332
213 356
213 674
213 1226
213 1227
214 580
214 581
214 920
214 1210
214 1211
214 1828
215 57
215 160
215 213
215 332
215 1227
215 1228
216 350
216 966
216 1181
216 1229
216 1230
216 1231
217 1232
217 1233
217 1234
217 1235
217 1605
218 22
218 173
218 345
218 433
218 440
218 442
218 501
218 1106
218 1236
218 1237
218 1238
219 1110
219 1239
219 1241
219 1903
220 186
220 1164
220 1242
221 1243
221 1244
221 1245
221 1246
221 1247
222 255
222 285
222 306
222 339
222 384
222 512
222 1248
222 1249
223 59
223 71
223 153
223 228
223 239
223 496
223 1057
223 1250
224 250
224 1251
224 1252
224 1253
224 1254
224 1255
225 182
225 1156
225 1256
225 1257
225 1258
226 101
226 1045
226 1141
226 1259
226 1260
226 1261
227 408
227 455
227 1025
227 1026
227 1262
227 1263
227 1264
228 30
228 223
228 849
228 1055
228 1116
228 1265
229 101
229 200
229 303
229 800
229 906
229 1191
229 1266
229 1267
230 16
230 149
230 365
230 684
230 806
230 1268
230 1269
230 1270
231 11
231 26
231 262
231 283
231 318
231 746
231 1271
231 1272
231 1273
231 1274
232 144
232 427
232 1275
232 1276
232 1277
233 235
233 1278
233 1279
233 1280
233 1281
233 1286
234 671
234 913
234 1282
234 1283
235 233
235 921
235 1280
235 1284
235 1285
235 1286
236 174
236 1135
236 1287
236 1288
236 1289
237 511
237 521
237 616
238 144
238 243
238 249
238 289
238 392
238 907
238 1071
238 1290
238 1291
238 1292
238 1293
239 140
239 158
239 223
239 286
239 717
239 1065
239 1070
239 1294
239 1295
239 1296
239 1297
240 110
240 561
240 1298
240 1299
240 1300
240 1301
241 1302
241 1303
241 1304
241 1305
241 1306
242 1297
242 1307
243 80
243 128
243 238
243 285
243 416
243 1292
243 1293
243 1308
243 1309
243 1310
244 13
244 15
244 24
244 64
244 68
244 112
244 293
244 374
244 401
244 408
244 466
244 1293
244 1311
245 58
245 75
245 81
245 115
245 143
245 262
245 316
245 365
245 432
245 471
245 489
245 684
245 806
245 1312
246 24
246 114
246 249
246 259
246 289
246 348
246 449
246 452
246 1192
246 1313
246 1314
247 12
247 115
247 162
247 363
247 471
247 472
247 478
247 479
247 1290
247 1315
247 1316
248 24
248 26
248 194
248 289
248 309
248 390
248 463
248 493
248 1317
249 18
249 26
249 93
249 238
249 246
249 289
249 305
249 1290
249 1316
250 224
250 1131
250 1251
250 1253
251 394
251 470
251 475
251 1318
252 662
252 1251
252 1255
252 1319
252 1320
253 30
253 69
253 116
253 308
253 629
253 637
254 78
254 130
254 158
254 261
254 1321
254 1326
255 27
255 120
255 222
255 289
255 320
255 379
255 1074
256 23
256 144
256 259
256 427
256 449
256 1322
257 23
257 187
257 363
257 450
257 1323
257 1324
258 13
258 14
258 24
258 58
258 68
258 281
258 294
258 375
258 401
258 402
258 404
258 408
259 23
259 80
259 144
259 201
259 246
259 256
259 274
259 278
259 453
259 457
259 1195
259 1323
260 122
260 350
260 944
260 946
260 1171
260 1325
261 254
261 273
261 1143
261 1326
261 1327
262 231
262 245
262 1271
263 131
263 1048
263 1328
264 503
264 504
264 1072
264 1329
264 1330
265 287
265 288
265 507
265 1332
266 133
266 279
266 502
266 641
267 104
267 912
267 1081
267 1127
267 1333
268 198
268 297
268 1334
268 1335
269 9
269 24
269 150
269 415
269 463
269 464
269 1074
270 655
270 656
270 1238
270 1336
270 1337
270 1338
271 1339
271 1340
271 1341
271 1342
271 1343
271 1733
272 285
272 411
272 543
272 1344
272 1345
272 1346
272 1347
273 261
273 550
273 1142
273 1143
273 1321
274 23
274 259
274 448
274 1193
274 1195
275 16
275 19
275 29
275 31
275 60
275 405
275 491
275 1348
276 491
276 1349
277 810
277 1350
277 1351
277 1352
277 1353
278 259
278 448
278 1193
278 1195
279 133
279 266
279 502
279 1354
280 191
280 350
280 352
280 1180
280 1182
280 1355
281 13
281 15
281 17
281 258
281 373
281 374
281 401
281 403
281 1018
282 122
282 191
282 350
282 352
282 898
282 1180
282 1182
282 1356
283 231
283 307
283 331
283 334
283 392
283 1357
284 205
284 348
284 597
284 1192
284 1313
284 1314
284 1358
284 1359
285 222
285 243
285 272
285 320
285 339
285 340
285 357
285 384
285 1360
285 1361
286 72
286 73
286 239
286 504
286 1330
286 1362
286 1363
287 123
287 265
287 288
287 1364
287 1365
288 123
288 265
288 287
288 507
288 1366
289 18
289 26
289 81
289 238
289 246
289 248
289 249
289 255
289 1272
289 1360
290 24
290 27
290 150
290 312
290 339
290 483
290 1038
290 1367
291 175
291 962
291 979
291 1136
291 1262
291 1368
292 177
292 1190
292 1261
292 1266
293 14
293 15
293 68
293 112
293 244
293 294
293 375
293 400
293 401
293 402
293 403
293 404
293 714
293 1369
293 1370
294 17
294 24
294 48
294 112
294 258
294 293
294 400
294 403
295 28
295 81
295 145
295 349
295 381
295 390
295 395
295 460
295 486
295 488
296 849
296 1371
296 1372
297 26
297 115
297 128
297 268
297 467
297 474
297 1335
298 426
298 1373
299 8
299 641
299 1374
300 4
300 1375
300 1376
301 4
301 301
301 1375
301 1377
302 33
302 471
302 1378
302 1379
302 1476
303 229
303 800
303 1188
303 1189
303 1380
304 101
304 136
304 1046
304 1188
305 145
305 249
305 306
305 309
305 472
305 493
305 1218
305 1381
305 1382
306 29
306 31
306 222
306 305
306 309
306 320
306 493
306 1218
307 11
307 75
307 283
307 316
307 318
307 745
307 746
307 1370
308 30
308 69
308 253
308 997
308 1383
308 1384
308 1385
309 25
309 29
309 31
309 248
309 305
309 306
309 493
309 1218
309 1370
310 512
310 1308
310 1386
311 317
311 1387
312 9
312 20
312 31
312 290
312 375
312 404
312 422
312 456
312 481
312 1388
312 1389
313 593
313 601
313 677
313 1079
313 1390
313 1391
314 5
314 335
314 338
314 594
314 1392
315 317
315 322
315 323
315 1938
316 25
316 75
316 245
316 307
316 331
316 745
317 311
317 315
317 317
317 322
317 323
318 231
318 307
318 331
318 334
318 391
318 745
318 747
318 1395
318 1396
319 18
319 23
319 114
319 348
319 363
319 416
319 467
319 1192
319 1194
319 1314
320 255
320 285
320 306
320 339
320 384
320 512
320 808
320 1248
320 1249
321 1045
321 1141
321 1397
322 315
322 317
322 1387
322 1398
323 315
323 317
323 1399
324 631
324 1325
324 1400
325 113
325 631
325 937
325 965
325 1207
325 1401
326 121
326 959
326 960
326 1045
326 1402
326 1403
327 631
327 989
327 1404
328 131
328 330
328 960
328 1045
328 1048
328 1405
329 6
329 338
329 570
329 1339
329 1341
329 1342
329 1406
329 1407
330 131
330 328
330 960
330 1048
330 1405
331 11
331 75
331 283
331 316
331 318
331 746
331 1370
331 1408
332 160
332 213
332 215
332 351
332 356
332 674
332 676
332 678
332 1078
332 1226
332 1227
333 160
333 676
333 678
333 1409
333 1410
334 11
334 283
334 318
334 391
334 392
334 462
334 1357
335 5
335 55
335 79
335 104
335 314
335 338
335 591
335 664
335 665
335 765
335 1394
336 58
336 379
336 431
336 624
337 765
337 1411
337 1412
338 5
338 55
338 314
338 329
338 335
338 765
338 1394
338 1413
339 65
339 222
339 285
339 290
339 320
339 357
339 358
339 369
339 708
339 938
339 940
339 1345
340 285
340 357
340 938
340 940
340 1345
341 1370
341 1414
342 151
342 343
342 344
342 1385
342 1415
343 342
343 344
343 1385
343 1416
344 140
344 342
344 343
344 1385
344 1417
345 218
345 433
345 434
345 437
345 442
345 634
346 22
346 173
346 433
346 442
346 1106
346 1418
347 941
347 1086
347 1192
348 201
348 246
348 284
348 319
348 1192
348 1314
349 28
349 29
349 31
349 295
349 355
349 366
349 380
349 381
349 460
349 486
350 191
350 197
350 216
350 260
350 280
350 282
350 352
350 353
350 1180
351 57
351 160
351 332
351 356
351 674
351 1078
351 1226
352 197
352 280
352 282
352 350
352 353
352 1180
353 191
353 350
353 352
353 1180
353 1182
353 1419
354 19
354 25
354 415
354 420
354 465
355 16
355 29
355 81
355 143
355 349
355 365
355 381
355 390
355 460
355 479
355 486
355 488
356 57
356 160
356 213
356 332
356 351
356 674
356 1078
356 1226
357 285
357 339
357 340
357 358
357 708
357 938
357 940
357 1420
358 65
358 339
358 357
358 938
358 1420
358 1421
359 6
359 1422
360 6
360 362
360 1423
361 6
361 362
361 1424
362 6
362 360
362 361
362 1425
363 23
363 63
363 80
363 247
363 257
363 319
363 364
363 447
363 467
364 10
364 199
364 363
364 467
364 1187
364 1426
365 16
365 19
365 20
365 21
365 28
365 29
365 31
365 230
365 245
365 355
365 405
365 406
366 7
366 31
366 81
366 143
366 194
366 349
366 460
366 486
367 7
367 31
367 60
367 390
367 1427
368 7
368 658
368 1428
368 1429
369 25
369 28
369 31
369 339
369 468
369 477
369 1345
370 60
370 70
370 468
370 719
371 8
371 161
371 1430
371 1431
372 13
372 15
372 21
372 25
372 373
372 374
372 375
372 376
372 399
372 401
373 13
373 14
373 15
373 21
373 24
373 27
373 64
373 68
373 281
373 372
373 374
373 375
373 399
373 401
373 402
373 404
373 714
374 13
374 14
374 15
374 17
374 21
374 27
374 68
374 244
374 281
374 372
374 373
374 375
374 399
374 401
374 404
375 14
375 15
375 17
375 27
375 258
375 293
375 312
375 372
375 373
375 374
375 376
375 399
376 31
376 372
376 375
376 399
376 404
376 1432
377 9
377 422
377 1389
378 9
378 20
378 21
378 379
378 398
378 431
379 9
379 20
379 21
379 24
379 255
379 336
379 378
379 426
380 28
380 29
380 145
380 349
380 395
380 456
380 460
380 486
381 20
381 81
381 210
381 295
381 349
381 355
381 460
381 1433
382 10
382 162
382 199
382 1434
383 10
383 199
383 1435
383 1436
383 1437
384 10
384 199
384 222
384 285
384 320
384 1248
384 1438
385 10
385 199
385 1435
386 10
386 199
386 1090
386 1187
386 1439
387 10
387 199
387 1440
388 10
388 199
388 1441
389 10
389 199
389 1442
389 1443
390 11
390 16
390 25
390 31
390 143
390 248
390 295
390 355
390 367
391 11
391 151
391 318
391 334
391 745
392 11
392 238
392 283
392 334
393 12
393 18
393 1444
394 12
394 26
394 251
394 470
394 1445
395 12
395 16
395 29
395 145
395 295
395 380
395 774
396 12
396 18
396 162
396 398
396 476
396 1088
396 1446
397 12
397 18
397 47
397 409
397 476
397 613
398 12
398 63
398 162
398 378
398 396
398 409
398 411
398 414
398 925
398 1447
399 13
399 21
399 68
399 372
399 373
399 374
399 375
399 376
399 401
400 13
400 68
400 293
400 294
400 456
400 1432
400 1448
401 14
401 15
401 17
401 27
401 31
401 244
401 258
401 281
401 293
401 372
401 373
401 374
401 399
402 14
402 15
402 17
402 25
402 27
402 31
402 258
402 293
402 373
402 702
403 14
403 281
403 293
403 294
404 14
404 15
404 17
404 27
404 258
404 293
404 312
404 373
404 374
404 376
405 16
405 31
405 275
405 365
406 16
406 24
406 25
406 28
406 29
406 31
406 365
407 17
407 49
407 64
407 1449
408 17
408 227
408 244
408 258
409 18
409 114
409 397
409 398
410 18
410 413
410 476
411 18
411 47
411 272
411 398
411 476
411 1450
411 1451
412 18
412 476
412 700
412 713
412 1452
412 1453
413 18
413 410
413 476
413 1454
414 18
414 47
414 50
414 398
414 476
414 619
414 1455
415 19
415 28
415 29
415 31
415 269
415 354
416 19
416 25
416 31
416 243
416 319
417 19
417 519
418 19
418 29
418 31
419 19
419 28
419 29
419 31
419 120
419 464
420 19
420 28
420 29
420 354
421 20
422 20
422 31
422 48
422 312
422 377
423 20
423 31
423 465
423 523
424 20
424 24
424 27
424 31
424 58
424 483
425 20
425 21
425 24
425 426
425 518
426 20
426 298
426 379
426 425
427 21
427 25
427 232
427 256
428 21
428 1456
429 21
429 124
430 21
430 1457
431 20
431 21
431 27
431 336
431 378
432 21
432 31
432 245
432 1458
433 22
433 173
433 218
433 345
433 346
433 1106
434 22
434 345
434 1236
434 1237
435 22
435 440
435 1132
436 22
437 22
437 345
437 632
438 22
438 1106
439 22
439 1459
440 22
440 218
440 435
440 1460
441 22
441 72
441 1461
441 1462
442 22
442 173
442 218
442 345
442 346
442 1106
442 1418
443 22
443 30
443 1463
444 22
444 1464
445 22
445 1465
445 1466
446 23
446 1467
447 23
447 363
447 453
448 23
448 274
448 278
448 1335
449 23
449 80
449 144
449 246
449 256
449 457
449 1323
450 23
450 47
450 257
450 565
451 23
451 1335
451 1468
452 23
452 246
452 565
452 1469
452 1470
453 23
453 259
453 447
453 1381
453 1467
454 23
454 128
454 187
454 515
454 1167
454 1323
455 23
455 144
455 227
455 1026
456 24
456 29
456 31
456 312
456 380
456 400
456 1471
457 24
457 187
457 259
457 449
457 772
457 773
458 24
458 150
459 24
460 25
460 27
460 28
460 31
460 295
460 349
460 355
460 366
460 380
460 381
461 16
461 25
461 28
461 31
462 25
462 334
463 25
463 248
463 269
463 479
464 25
464 269
464 419
465 25
465 354
465 423
465 523
466 20
466 21
466 25
466 31
466 244
467 25
467 150
467 297
467 319
467 363
467 364
468 25
468 28
468 29
468 31
468 60
468 70
468 369
468 370
469 25
469 1472
470 26
470 251
470 394
470 1318
471 26
471 128
471 245
471 247
471 302
472 26
472 247
472 305
472 1382
472 1473
472 1474
473 26
473 33
473 1475
473 1476
474 26
474 297
474 479
475 26
475 251
476 26
476 172
476 396
476 397
476 410
476 411
476 412
476 413
476 414
476 925
477 26
477 369
477 1038
477 1039
477 1477
477 1478
478 26
478 247
478 1304
478 1479
479 26
479 31
479 247
479 355
479 463
479 474
480 27
480 31
481 27
481 194
481 312
482 27
482 29
482 31
482 145
482 1074
482 1395
483 27
483 290
483 424
484 28
484 31
485 28
485 29
485 31
485 519
485 1480
486 28
486 295
486 349
486 355
486 366
486 380
487 28
487 70
487 184
488 28
488 31
488 295
488 355
489 28
489 29
489 70
489 245
489 1481
490 28
490 31
490 512
490 1482
491 29
491 70
491 275
491 276
492 27
492 29
492 75
493 29
493 31
493 248
493 305
493 306
493 309
493 1218
494 29
494 31
494 780
495 29
495 120
496 30
496 188
496 223
497 30
497 497
498 30
498 544
499 30
500 30
500 1483
500 1484
501 30
501 218
501 1485
502 30
502 266
502 279
502 641
503 30
503 264
503 504
503 1330
503 1486
504 30
504 264
504 286
504 503
505 30
505 557
505 576
505 582
505 583
505 585
505 785
505 1487
505 1488
505 1583
506 30
506 1489
507 30
507 123
507 265
507 288
508 30
508 865
508 1490
508 1491
509 31
509 1492
510 31
510 1494
511 31
511 237
512 31
512 222
512 310
512 320
512 490
513 31
514 31
514 200
514 1188
514 1189
515 31
515 187
515 454
515 1167
515 1495
516 31
516 1316
516 1496
517 31
517 48
517 1497
518 28
518 31
518 425
519 31
519 70
519 417
519 485
520 25
520 31
521 25
521 31
521 237
522 31
522 1498
523 31
523 423
523 465
524 31
524 194
524 1427
524 1499
524 1500
525 31
525 93
525 774
525 1501
526 56
526 588
526 1502
527 588
527 1503
527 1504
527 1505
528 115
528 588
528 1506
528 1507
529 588
530 146
530 588
530 1096
530 1120
531 588
531 1508
531 1509
531 1510
532 33
532 603
532 1511
533 33
533 1512
534 34
535 34
535 1513
535 1514
535 1515
536 34
536 999
536 1000
537 34
537 1516
538 35
538 538
539 35
540 35
540 540
540 1517
541 36
542 1520
543 272
543 1518
543 1519
544 498
544 1520
545 545
545 1522
546 211
546 1523
546 1524
546 1525
546 1526
547 1527
547 1528
548 1102
548 1529
548 1530
548 1531
549 1114
549 1532
549 1533
550 273
550 1142
550 1327
550 1534
550 1535
551 1536
551 1537
551 1538
551 1539
552 172
552 670
552 1540
552 1541
553 1239
553 1542
553 1543
554 1544
554 1545
555 942
555 1344
555 1546
555 1547
556 1548
556 1549
556 1550
557 185
557 505
557 1083
557 1162
557 1215
557 1551
558 95
558 146
558 880
558 1552
558 1553
559 1139
559 1554
559 1555
560 1236
560 1251
560 1556
560 1557
561 240
561 1301
561 1558
561 1559
562 1513
562 1560
562 1561
562 1562
563 77
563 1563
563 1564
564 1565
564 1566
565 47
565 93
565 450
565 452
565 1313
565 1567
566 1568
566 1569
567 1019
567 1570
568 105
568 158
568 169
568 1571
568 1572
568 1573
569 1120
569 1283
569 1574
570 329
570 1339
570 1407
570 1560
570 1575
571 1576
571 1577
571 1578
572 1579
572 1580
573 38
574 713
575 86
575 92
575 583
575 866
575 1581
575 1582
576 40
576 505
576 582
576 583
576 1583
577 713
577 1584
577 1585
578 596
578 713
578 755
578 1586
578 1587
579 39
579 1212
579 1588
580 39
580 111
580 214
580 581
580 1211
580 1589
581 39
581 111
581 214
581 580
581 1590
582 40
582 505
582 576
582 585
582 1591
583 40
583 88
583 505
583 575
583 576
583 1593
584 40
585 40
585 505
585 582
585 1487
585 1594
585 1595
586 41
587 41
587 670
588 41
588 526
588 527
588 528
588 529
588 530
588 531
589 42
590 42
590 78
590 789
590 855
591 161
591 335
591 1597
591 1598
591 1599
592 1597
593 313
593 601
593 677
593 681
593 1390
593 1391
594 314
594 665
594 1597
594 1600
595 205
595 1205
595 1601
596 205
596 578
596 1205
596 1587
597 205
597 284
597 702
597 803
597 1359
598 43
598 117
598 1602
598 1603
599 43
599 600
599 1604
599 1605
600 43
600 599
600 1606
601 313
601 593
601 681
601 1390
601 1410
602 1609
603 532
603 772
603 994
603 1011
603 1378
604 801
604 987
604 1500
604 1607
605 1562
605 1608
605 1609
606 1609
606 1610
607 44
607 1093
607 1611
608 44
608 94
608 1612
608 1613
609 1614
610 1614
610 1615
611 45
611 1616
611 1617
612 46
613 18
613 47
613 114
613 397
614 47
614 1450
615 47
616 48
616 237
617 48
618 31
618 48
619 49
619 50
619 414
619 999
619 1618
620 49
620 1619
621 49
622 49
622 50
622 1620
623 50
624 50
624 336
625 51
626 51
626 744
626 1250
626 1621
626 1622
626 1623
626 1624
627 51
627 69
627 166
628 22
628 51
628 1625
628 1626
629 51
629 69
629 125
629 253
629 637
630 51
630 1213
630 1627
631 51
631 116
631 324
631 325
631 327
632 51
632 133
632 437
632 635
632 1628
633 51
633 85
634 51
634 345
635 51
635 125
635 632
635 886
635 1514
635 1622
636 51
636 69
636 1629
636 1630
637 51
637 69
637 253
637 629
638 51
638 74
638 180
638 888
638 1070
638 1631
639 22
639 51
639 1625
640 51
640 69
640 166
640 1632
641 51
641 266
641 299
641 502
642 1658
643 92
643 860
643 1572
643 1633
643 1634
643 1635
644 174
644 1636
644 1637
645 1638
645 1639
646 1640
646 1641
646 1642
647 1640
647 1641
647 1643
647 1644
648 1645
648 1646
648 1647
648 1648
649 653
649 1649
649 1650
649 1651
650 108
650 1102
650 1279
650 1529
650 1530
650 1652
651 1638
651 1639
651 1653
652 61
652 1654
652 1655
652 1656
653 649
653 1649
653 1650
654 169
654 174
654 1121
654 1288
654 1636
655 270
655 656
655 1255
655 1336
655 1338
655 1657
655 1658
656 270
656 655
656 1238
656 1338
656 1658
656 1659
657 1662
658 368
658 1429
658 1660
658 1661
659 161
659 1014
659 1662
659 1663
660 53
660 1128
660 1664
661 54
662 55
662 252
662 1665
663 55
663 665
663 1333
663 1666
664 55
664 335
664 1333
664 1667
665 55
665 171
665 335
665 594
665 663
665 1112
665 1125
665 1333
665 1666
666 55
667 56
668 56
668 1668
669 56
669 1669
670 56
670 172
670 552
670 587
671 56
671 234
671 1337
672 57
673 57
673 1670
674 57
674 160
674 213
674 332
674 351
674 356
674 678
674 1078
675 57
675 1077
675 1079
675 1671
676 57
676 160
676 332
676 333
677 57
677 313
677 593
677 1390
677 1672
678 57
678 160
678 332
678 333
678 674
679 57
679 1030
680 57
680 160
681 57
681 593
681 601
681 1674
682 57
682 1675
682 1676
683 58
684 58
684 230
684 245
685 59
685 723
686 59
687 59
687 1677
688 59
688 71
688 1053
689 60
690 60
690 1678
691 61
692 61
692 694
693 61
693 693
694 61
694 692
694 1654
695 62
695 79
695 699
695 1679
696 62
697 62
697 882
697 1680
698 62
698 1681
699 62
699 695
700 62
700 412
700 1453
700 1682
701 63
701 172
701 205
701 705
701 1129
702 63
702 402
702 597
703 63
704 63
704 146
704 1683
705 63
705 701
706 64
707 65
708 65
708 339
708 357
708 1684
709 66
709 118
709 1685
710 66
711 66
711 983
712 67
713 67
713 79
713 412
713 574
713 577
713 578
714 14
714 68
714 293
714 373
715 68
716 69
717 30
717 69
717 239
718 69
718 1491
718 1633
719 25
719 70
719 370
720 70
720 99
720 893
721 70
722 71
723 71
723 685
723 1686
723 1687
724 71
724 736
724 1686
725 30
725 71
725 92
726 59
726 72
727 72
727 1363
727 1688
727 1689
728 72
729 72
729 132
729 736
730 72
730 73
730 157
730 1207
730 1690
731 72
731 1064
732 72
732 147
732 153
732 1055
733 72
733 73
733 188
734 73
734 971
734 1100
735 73
736 73
736 724
736 729
737 73
737 153
738 73
738 126
738 132
738 147
739 74
739 1631
739 1691
740 74
740 180
740 1692
741 74
741 97
742 74
743 74
743 1029
743 1150
743 1623
744 74
744 626
744 1029
744 1693
745 75
745 307
745 316
745 318
745 391
746 75
746 231
746 307
746 331
747 75
747 184
747 318
748 75
749 76
750 76
750 752
751 76
751 176
752 76
752 750
752 1694
753 77
753 1695
754 77
755 77
755 165
755 578
756 78
756 760
757 78
758 78
758 87
758 761
758 840
759 78
759 759
760 78
760 756
760 840
761 78
761 87
761 758
761 840
761 842
761 1696
762 5
762 79
762 1697
763 79
763 1698
764 79
764 1699
765 79
765 335
765 337
765 338
765 765
766 79
766 767
767 79
767 766
767 1700
767 1701
767 1833
768 62
768 79
769 79
770 80
771 80
771 134
771 1315
771 1702
771 1703
771 1704
772 80
772 122
772 138
772 204
772 457
772 603
772 1011
772 1204
772 1704
773 80
773 457
773 804
774 81
774 395
774 525
775 81
775 143
776 81
777 1712
778 796
778 1706
779 1707
780 494
780 1708
780 1709
781 86
781 837
781 866
781 1710
782 813
782 1711
782 1712
783 1457
783 1824
783 2013
784 784
784 1716
785 505
785 968
785 1717
785 1718
785 1719
786 1705
786 1720
786 1721
787 1723
787 1725
788 1856
789 590
789 1726
790 62
790 1723
791 1727
791 1728
791 1729
792 1909
792 2086
793 848
793 1197
793 1737
793 1738
794 795
794 1739
795 794
795 829
795 1739
796 211
796 778
796 1526
797 1740
797 1743
798 820
798 1744
798 1745
799 799
799 1746
799 1747
800 229
800 303
800 1191
800 1748
800 1749
801 152
801 604
801 899
801 1004
801 1750
802 802
802 1751
802 1752
802 1879
803 205
803 597
803 1206
803 1601
804 773
804 1309
804 1361
805 827
805 1122
805 1265
805 1753
805 1754
806 230
806 245
806 1270
806 1434
806 1755
807 82
807 1756
807 1757
808 320
808 1758
808 1759
808 1760
809 810
809 1350
809 1761
810 277
810 809
810 1350
810 1761
811 1762
811 1763
812 1764
812 1765
813 78
813 782
813 841
814 992
814 1766
815 1762
816 1096
816 1097
816 1767
817 1652
817 1768
817 1769
818 1770
818 1771
819 208
819 920
819 1585
819 1772
820 798
820 1744
820 1773
821 1774
821 1775
822 52
822 822
822 1776
823 1051
823 1782
824 1714
824 1718
825 1627
826 1700
826 1783
826 1784
827 805
827 1785
828 1786
828 1787
829 795
829 1788
830 1022
830 1789
831 1790
831 1791
832 1655
832 1656
833 833
834 85
834 1629
835 86
835 157
835 860
835 866
836 86
836 92
836 126
836 147
836 157
836 866
836 1686
837 86
837 781
837 866
838 86
838 1793
839 86
840 87
840 758
840 760
840 761
840 842
840 1794
841 87
841 813
842 87
842 761
842 840
843 87
844 87
844 1696
845 88
845 845
846 88
847 88
847 206
848 88
848 793
848 1462
849 88
849 161
849 228
849 296
850 1769
850 1795
851 1103
851 1137
851 1796
851 1797
852 1775
852 1796
852 1798
853 854
853 1795
853 1799
853 1800
854 853
854 1795
854 1799
854 1801
855 192
855 590
855 1276
855 1277
856 89
856 1802
857 89
857 1803
857 1804
858 78
858 90
859 1618
859 2038
860 92
860 643
860 835
861 92
861 206
862 92
862 157
862 1806
863 92
863 1581
863 1807
864 92
865 92
865 508
865 1159
865 1808
866 92
866 157
866 575
866 781
866 835
866 836
866 837
867 93
867 1470
868 93
868 1458
868 1809
869 93
869 1458
869 1810
870 93
871 94
871 1612
872 94
872 1525
872 1811
873 94
873 1613
873 1812
874 94
874 211
874 1612
874 1613
875 877
875 1220
876 878
876 1220
877 875
877 879
877 1220
877 1813
878 876
878 881
878 882
878 883
878 1220
878 1524
879 877
879 1220
879 1813
880 95
880 146
880 189
880 558
880 1541
881 211
881 878
881 883
881 1222
881 1814
882 697
882 878
882 1815
883 211
883 878
883 881
883 1222
884 96
884 887
885 96
885 1816
885 1817
886 96
886 635
887 96
887 884
887 1617
888 97
888 638
888 1691
888 1818
889 97
889 1623
890 30
890 1819
891 1819
892 62
892 98
893 99
893 720
894 99
895 100
895 897
896 100
897 100
897 895
897 1820
898 100
898 136
898 282
898 899
899 100
899 136
899 801
899 898
899 1202
900 100
900 1821
901 101
901 1822
902 101
902 152
903 102
903 1726
904 102
904 1147
904 1823
905 102
905 127
905 973
905 1403
906 102
906 229
906 973
906 1191
907 102
907 128
907 238
908 102
908 973
909 103
909 1824
910 103
911 104
911 1825
912 104
912 170
912 267
912 1081
912 1826
913 105
913 234
913 1495
914 105
914 1073
915 25
915 105
916 106
916 917
917 106
917 203
917 916
918 31
918 107
919 107
919 1827
920 108
920 208
920 214
920 819
920 1588
920 1828
921 108
921 235
921 1278
922 108
922 208
923 108
924 109
924 927
925 12
925 18
925 109
925 398
925 476
925 927
925 1408
926 109
927 109
927 924
927 925
928 110
929 110
929 929
930 110
930 162
931 110
931 1300
931 1830
932 111
932 208
932 933
933 111
933 932
934 112
934 934
935 935
935 979
936 128
936 979
937 113
937 116
937 325
937 1484
937 1626
938 114
938 162
938 339
938 340
938 357
938 358
939 114
939 162
939 198
940 114
940 162
940 339
940 340
940 357
941 114
941 347
942 115
942 555
943 30
943 116
944 116
944 197
944 260
944 946
944 1325
945 116
945 130
946 116
946 260
946 944
946 1325
946 1400
947 30
947 116
947 1831
947 1832
948 1513
948 1833
949 1513
950 117
950 1472
951 117
951 1659
951 1834
952 1506
953 953
953 1506
954 119
954 1704
955 119
955 963
956 113
956 119
957 119
958 121
958 1835
959 121
959 326
960 121
960 200
960 326
960 328
960 330
961 121
961 200
961 1749
962 121
962 175
962 200
962 291
963 122
963 955
964 122
964 1836
965 122
965 325
966 122
966 216
966 1230
967 30
967 123
968 123
968 785
969 123
969 1710
970 125
970 1837
971 126
971 147
971 734
971 1100
971 1169
972 126
972 147
973 127
973 141
973 905
973 906
973 908
974 127
974 1262
975 121
975 127
976 128
976 977
977 128
977 976
978 51
978 128
979 128
979 291
979 935
979 936
980 129
980 1839
981 129
982 130
983 130
983 711
984 131
984 1840
985 131
986 131
986 1841
987 131
987 604
987 1843
988 132
988 989
989 132
989 327
989 988
990 132
991 72
991 73
991 132
992 133
992 814
993 133
994 134
994 603
994 1844
995 134
995 1202
996 134
997 134
997 158
997 308
997 1845
998 135
999 135
999 536
999 619
999 1455
999 1846
1000 135
1000 536
1001 131
1001 136
1002 136
1003 136
1003 1003
1004 136
1004 801
1005 137
1006 137
1006 1847
1007 137
1007 1092
1007 1302
1007 1847
1007 1848
1008 137
1008 1849
1008 2034
1009 138
1010 138
1010 1850
1011 138
1011 204
1011 603
1011 772
1011 1204
1012 139
1013 139
1013 1847
1014 140
1014 659
1015 140
1016 141
1017 127
1017 141
1018 141
1018 281
1019 142
1019 567
1020 142
1020 1852
1021 142
1022 81
1022 143
1022 830
1023 93
1023 144
1024 128
1024 144
1025 23
1025 144
1025 227
1026 144
1026 227
1026 455
1027 109
1027 145
1028 95
1028 146
1029 146
1029 743
1029 744
1030 146
1030 679
1031 147
1031 1853
1032 148
1033 148
1033 1033
1034 148
1034 1854
1035 149
1035 1035
1036 149
1037 149
1037 201
1038 150
1038 290
1038 477
1039 150
1039 477
1040 150
1041 151
1041 210
1041 1041
1042 151
1042 198
1043 151
1044 31
1044 151
1045 152
1045 226
1045 321
1045 326
1045 328
1046 152
1046 304
1046 1051
1047 152
1048 152
1048 263
1048 328
1048 330
1049 152
1049 1855
1050 76
1050 152
1051 152
1051 823
1051 1046
1051 1277
1052 153
1052 1116
1053 153
1053 688
1054 153
1055 153
1055 228
1055 732
1056 153
1056 1856
1057 73
1057 153
1057 223
1058 154
1058 1857
1059 154
1060 155
1061 155
1061 1858
1062 156
1062 1062
1063 156
1064 157
1064 731
1065 157
1065 239
1065 1859
1066 157
1067 157
1067 203
1067 1200
1068 158
1068 209
1068 1860
1069 158
1070 158
1070 239
1070 638
1071 158
1071 238
1072 158
1072 264
1072 1794
1073 158
1073 914
1074 159
1074 255
1074 269
1074 482
1075 159
1076 159
1076 1395
1077 160
1077 675
1077 1079
1078 160
1078 332
1078 351
1078 356
1078 674
1078 1226
1079 160
1079 313
1079 675
1079 1077
1079 1390
1080 161
1081 161
1081 267
1081 912
1082 161
1082 1699
1083 161
1083 557
1084 161
1084 1861
1085 162
1085 1086
1085 1684
1086 26
1086 162
1086 347
1086 1085
1087 26
1087 162
1087 168
1088 162
1088 396
1088 1160
1088 1446
1089 1625
1090 199
1090 386
1090 1439
1091 163
1091 1092
1091 1306
1092 163
1092 1007
1092 1091
1092 1848
1093 30
1093 607
1093 1862
1094 132
1094 1862
1095 1862
1096 164
1096 530
1096 816
1097 164
1097 816
1098 1181
1098 1229
1098 1412
1099 1792
1099 1863
1099 1864
1100 190
1100 734
1100 971
1100 1169
1101 1803
1101 2054
1102 548
1102 650
1102 1529
1102 1866
1103 851
1103 1590
1103 1867
1104 1582
1104 2052
1105 1146
1105 1147
1105 1148
1105 1869
1106 218
1106 346
1106 433
1106 438
1106 442
1106 1418
1107 1301
1107 1870
1108 1114
1108 1115
1108 1533
1109 1168
1110 165
1110 219
1110 1241
1111 165
1111 1871
1111 1872
1112 665
1112 1127
1113 1208
1113 1209
1114 549
1114 1108
1114 1873
1115 1108
1115 1874
1116 228
1116 1052
1116 1116
1117 1118
1117 1233
1118 1117
1118 1603
1118 1875
1119 1809
1120 169
1120 530
1120 569
1121 169
1121 654
1122 170
1122 805
1122 1754
1123 170
1123 1878
1124 170
1124 186
1124 1164
1125 170
1125 665
1126 171
1126 1701
1127 171
1127 267
1127 1112
1128 171
1128 660
1128 1879
1129 63
1129 172
1129 701
1130 172
1131 173
1131 196
1131 250
1132 22
1132 173
1132 435
1133 173
1134 174
1134 1880
1135 174
1135 236
1135 1288
1136 175
1136 291
1137 175
1137 851
1137 1881
1138 176
1138 1139
1139 176
1139 559
1139 1138
1140 176
1141 177
1141 226
1141 321
1141 1259
1141 1261
1142 273
1142 550
1142 1327
1143 261
1143 273
1143 1321
1143 1326
1143 1327
1144 178
1144 202
1144 1196
1145 178
1145 202
1145 1145
1146 179
1146 1105
1146 1146
1147 179
1147 904
1147 1105
1148 179
1148 1105
1148 1869
1148 1882
1149 180
1149 1319
1150 74
1150 180
1150 743
1151 180
1152 30
1152 180
1152 185
1153 181
1153 203
1153 1155
1154 181
1154 1624
1155 181
1155 1153
1155 1884
1156 182
1156 225
1156 1156
1157 182
1157 1257
1158 183
1158 1431
1159 92
1159 183
1159 865
1160 184
1160 1088
1161 185
1162 185
1162 557
1162 1488
1162 1885
1163 1166
1164 186
1164 220
1164 1124
1165 1165
1165 1166
1166 1163
1166 1165
1166 1166
1167 187
1167 454
1167 515
1168 189
1168 198
1168 1109
1169 190
1169 971
1169 1100
1170 190
1171 191
1171 197
1171 260
1172 192
1172 193
1173 193
1173 1174
1174 193
1174 1173
1174 1887
1175 194
1176 195
1176 1428
1176 1888
1177 195
1178 196
1178 1889
1179 196
1180 197
1180 280
1180 282
1180 350
1180 352
1180 353
1181 197
1181 216
1181 1098
1182 197
1182 280
1182 282
1182 353
1183 197
1184 122
1184 197
1185 198
1185 1890
1186 198
1187 199
1187 364
1187 386
1188 152
1188 200
1188 303
1188 304
1188 514
1189 200
1189 303
1189 514
1190 177
1190 200
1190 292
1191 200
1191 229
1191 800
1191 906
1191 1267
1192 201
1192 246
1192 284
1192 319
1192 347
1192 348
1193 201
1193 274
1193 278
1194 201
1194 319
1195 201
1195 259
1195 274
1195 278
1196 202
1196 1144
1197 202
1197 793
1197 1737
1198 203
1198 1201
1199 203
1199 1202
1199 1891
1200 203
1200 1067
1200 1201
1200 1892
1201 203
1201 1198
1201 1200
1202 203
1202 899
1202 995
1202 1199
1203 204
1204 204
1204 772
1204 1011
1205 205
1205 595
1205 596
1205 1893
1206 23
1206 205
1206 803
1207 206
1207 325
1207 730
1208 207
1208 1113
1209 207
1209 1113
1209 1209
1210 208
1210 214
1210 1894
1211 208
1211 214
1211 580
1212 208
1212 579
1213 208
1213 209
1213 630
1214 158
1214 209
1215 209
1215 557
1215 1895
1216 209
1217 210
1218 210
1218 305
1218 306
1218 309
1218 493
1219 210
1219 1896
1220 211
1220 875
1220 876
1220 877
1220 878
1220 879
1221 211
1221 1354
1222 211
1222 881
1222 883
1223 212
1223 1223
1224 212
1224 1225
1225 212
1225 1224
1225 1897
1226 57
1226 160
1226 213
1226 332
1226 351
1226 356
1226 1078
1227 213
1227 215
1227 332
1228 215
1229 216
1229 1098
1229 1898
1230 216
1230 966
1230 1899
1231 216
1232 217
1232 1900
1233 217
1233 1117
1233 1233
1234 217
1234 1901
1235 217
1236 218
1236 434
1236 560
1236 1237
1237 218
1237 434
1237 1236
1238 218
1238 270
1238 656
1238 1338
1238 1659
1239 219
1239 553
1239 1902
1240 1243
1241 219
1241 1110
1242 220
1243 221
1243 1240
1243 1245
1243 1246
1244 221
1244 1245
1244 1904
1245 221
1245 1243
1245 1244
1246 221
1246 1243
1247 221
1248 222
1248 320
1248 384
1249 222
1249 320
1249 1905
1250 223
1250 626
1250 1906
1251 224
1251 250
1251 252
1251 560
1252 224
1252 1907
1253 224
1253 250
1254 224
1255 224
1255 252
1255 655
1256 225
1257 225
1257 1157
1258 225
1258 1908
1258 1909
1259 226
1259 1141
1260 226
1260 1910
1261 226
1261 292
1261 1141
1262 227
1262 291
1262 974
1263 227
1263 1911
1264 227
1264 1448
1264 1898
1265 228
1265 805
1266 200
1266 229
1266 292
1267 229
1267 1191
1268 230
1268 1912
1269 230
1269 1367
1270 230
1270 806
1270 1367
1271 231
1271 262
1271 1271
1272 231
1272 289
1273 231
1274 231
1274 1274
1275 232
1276 232
1276 855
1276 1782
1277 232
1277 855
1277 1051
1278 233
1278 921
1279 233
1279 650
1279 1280
1279 1866
1280 233
1280 235
1280 1279
1281 233
1281 1913
1282 234
1282 1282
1283 234
1283 569
1283 1283
1284 235
1285 235
1285 1914
1286 233
1286 235
1287 236
1288 236
1288 654
1288 1135
1289 83
1289 236
1290 26
1290 238
1290 247
1290 249
1291 238
1291 1915
1292 18
1292 114
1292 238
1292 243
1293 238
1293 243
1293 244
1294 239
1294 1916
1295 239
1296 239
1296 1917
1297 239
1297 242
1298 240
1298 1300
1299 240
1300 240
1300 931
1300 1298
1300 1918
1301 240
1301 561
1301 1107
1302 241
1302 1007
1303 241
1304 241
1304 478
1304 1306
1304 1919
1305 241
1305 1479
1306 241
1306 1091
1306 1304
1307 242
1308 243
1308 310
1308 1910
1308 1920
1309 243
1309 804
1309 1310
1310 243
1310 1309
1311 244
1311 1921
1312 245
1312 1922
1313 246
1313 284
1313 565
1314 246
1314 284
1314 319
1314 348
1315 26
1315 247
1315 771
1316 26
1316 247
1316 249
1316 516
1317 248
1317 1923
1318 251
1318 470
1318 1445
1319 252
1319 1149
1319 1924
1320 252
1321 254
1321 273
1321 1143
1321 1326
1322 256
1323 257
1323 259
1323 449
1323 454
1324 257
1325 260
1325 324
1325 944
1325 946
1326 254
1326 261
1326 1143
1326 1321
1327 261
1327 550
1327 1142
1327 1143
1328 263
1328 1925
1329 264
1329 1330
1330 264
1330 286
1330 503
1330 1329
1331 4
1331 1926
1332 265
1332 1927
1333 267
1333 663
1333 664
1333 665
1334 268
1335 268
1335 297
1335 448
1335 451
1336 73
1336 270
1336 655
1337 270
1337 671
1338 270
1338 655
1338 656
1338 1238
1339 271
1339 329
1339 570
1340 271
1340 1728
1341 271
1341 329
1341 1342
1341 1394
1342 271
1342 329
1342 1341
1342 1597
1342 1764
1343 271
1344 272
1344 555
1344 1872
1345 272
1345 339
1345 340
1345 369
1346 272
1346 1928
1347 272
1348 275
1349 276
1350 277
1350 809
1350 810
1350 1353
1351 277
1352 277
1352 1353
1353 277
1353 1350
1353 1352
1354 279
1354 1221
1355 280
1356 106
1356 282
1357 283
1357 334
1358 284
1359 205
1359 284
1359 597
1359 1929
1360 28
1360 31
1360 285
1360 289
1361 285
1361 804
1362 30
1362 286
1363 286
1363 727
1364 287
1364 1930
1365 287
1366 288
1367 290
1367 1269
1367 1270
1368 291
1368 1931
1369 293
1369 1932
1370 293
1370 307
1370 309
1370 331
1370 341
1371 296
1372 207
1372 296
1373 298
1374 299
1375 300
1375 301
1376 300
1376 1933
1377 301
1378 302
1378 603
1379 302
1380 303
1380 1702
1380 1934
1380 1935
1381 305
1381 453
1382 305
1382 472
1382 1474
1383 308
1383 1936
1384 308
1384 1937
1385 308
1385 342
1385 343
1385 344
1386 127
1386 310
1387 311
1387 322
1388 312
1389 312
1389 377
1390 313
1390 593
1390 601
1390 677
1390 1079
1391 313
1391 593
1392 314
1393 1394
1394 5
1394 335
1394 338
1394 1341
1394 1393
1395 318
1395 482
1395 1076
1396 318
1396 1939
1397 321
1398 322
1399 323
1400 324
1400 946
1401 30
1401 325
1402 326
1402 1940
1403 175
1403 326
1403 905
1404 327
1405 328
1405 330
1406 329
1407 329
1407 570
1408 331
1408 925
1409 333
1410 160
1410 333
1410 601
1411 337
1411 1781
1412 337
1412 1098
1413 338
1413 1941
1414 341
1415 342
1416 343
1417 344
1418 346
1418 442
1418 1106
1419 134
1419 353
1420 357
1420 358
1420 1421
1421 358
1421 1420
1422 359
1423 360
1424 82
1424 361
1425 362
1425 1753
1426 364
1427 367
1427 524
1428 368
1428 1176
1428 1888
1429 368
1429 658
1430 371
1431 371
1431 1158
1432 376
1432 400
1433 381
1434 382
1434 806
1435 383
1435 385
1436 383
1436 1943
1437 383
1438 384
1439 386
1439 1090
1439 1944
1440 387
1441 388
1441 1441
1442 389
1443 389
1443 1945
1444 393
1445 394
1445 1318
1446 396
1446 1088
1447 398
1447 1452
1448 400
1448 1264
1449 407
1450 411
1450 614
1451 411
1452 62
1452 412
1452 1447
1453 412
1453 700
1454 413
1454 1454
1455 414
1455 999
1455 1846
1456 428
1457 430
1457 783
1458 432
1458 868
1458 869
1459 439
1460 440
1460 1460
1461 441
1462 441
1462 848
1463 30
1463 443
1464 444
1465 445
1466 22
1466 445
1467 446
1467 453
1468 451
1468 1501
1469 452
1470 452
1470 867
1470 1946
1471 29
1471 31
1471 456
1472 469
1472 950
1473 472
1474 472
1474 1382
1475 473
1476 302
1476 473
1477 477
1477 1478
1478 477
1478 1477
1478 1947
1479 478
1479 1305
1480 485
1481 489
1481 1948
1482 490
1483 30
1483 500
1484 500
1484 937
1484 1626
1485 30
1485 501
1486 503
1487 505
1487 585
1488 505
1488 1162
1488 1690
1489 506
1490 508
1491 508
1491 718
1492 509
1493 31
1493 1493
1494 510
1494 1786
1495 515
1495 913
1496 516
1496 1647
1497 517
1498 522
1499 524
1500 524
1500 604
1500 1750
1501 525
1501 1468
1502 526
1503 527
1504 527
1504 1949
1505 135
1505 527
1506 528
1506 952
1506 953
1507 115
1507 528
1508 531
1509 531
1509 1509
1510 531
1510 1952
1511 532
1511 1703
1512 533
1513 535
1513 562
1513 948
1513 949
1514 535
1514 635
1515 535
1515 1954
1516 537
1517 540
1518 543
1518 1955
1519 543
1519 1791
1520 542
1520 544
1521 1947
1522 545
1523 546
1523 1957
1524 546
1524 878
1525 546
1525 872
1526 546
1526 796
1527 547
1528 547
1528 1958
1529 548
1529 650
1529 1102
1530 548
1530 650
1530 1959
1531 548
1531 1960
1532 549
1532 1961
1533 549
1533 1108
1534 550
1534 1962
1535 550
1536 551
1536 1536
1536 1963
1537 551
1537 1964
1538 551
1538 1539
1539 37
1539 551
1539 1538
1540 552
1540 1965
1541 552
1541 880
1542 553
1542 1966
1543 553
1544 554
1544 1967
1545 554
1545 1968
1546 555
1546 1969
1547 555
1548 556
1549 556
1549 1970
1550 556
1550 1802
1551 557
1551 1971
1552 558
1552 1720
1553 558
1553 1972
1554 559
1554 1973
1555 559
1556 560
1556 1889
1557 560
1557 1974
1558 561
1559 561
1559 1975
1560 562
1560 570
1561 562
1561 1976
1562 562
1562 605
1562 1608
1563 563
1564 563
1564 1977
1565 564
1566 564
1566 1978
1567 565
1567 1979
1568 566
1569 566
1569 1980
1570 567
1570 1981
1571 568
1571 1637
1572 568
1572 643
1573 568
1573 1982
1574 569
1574 1983
1575 570
1575 1984
1576 139
1576 571
1577 571
1578 571
1578 1985
1579 572
1580 572
1580 1986
1581 575
1581 863
1582 575
1582 1104
1582 1595
1583 505
1583 576
1584 577
1585 577
1585 819
1586 578
1587 578
1587 596
1588 579
1588 920
1589 580
1590 581
1590 1103
1590 1987
1591 582
1591 1988
1592 39
1593 583
1594 585
1594 1595
1595 585
1595 1582
1595 1594
1596 33
1597 591
1597 592
1597 594
1597 1342
1598 591
1598 1989
1599 79
1599 591
1600 594
1601 595
1601 803
1602 598
1603 598
1603 1118
1604 599
1605 217
1605 599
1606 600
1607 604
1608 605
1608 1562
1609 602
1609 605
1609 606
1610 606
1611 607
1612 608
1612 871
1612 874
1613 608
1613 873
1613 874
1614 609
1614 610
1615 610
1615 1990
1616 611
1617 611
1617 887
1618 619
1618 859
1619 620
1620 622
1621 626
1621 1622
1622 626
1622 635
1622 1621
1623 626
1623 743
1623 889
1624 626
1624 1154
1625 628
1625 639
1625 1089
1626 628
1626 937
1626 1484
1627 630
1627 825
1628 632
1629 636
1629 834
1630 636
1631 74
1631 638
1631 739
1631 1818
1632 640
1633 643
1633 718
1633 1991
1634 643
1634 1992
1635 643
1636 644
1636 654
1636 1993
1637 644
1637 1571
1638 645
1638 651
1638 1994
1639 645
1639 651
1640 646
1640 647
1641 646
1641 647
1641 1995
1642 646
1643 647
1644 647
1644 1996
1645 648
1645 1647
1645 1997
1646 648
1646 1998
1647 648
1647 1496
1647 1645
1647 1648
1647 1999
1648 648
1648 1647
1649 649
1649 653
1650 649
1650 653
1650 2000
1651 649
1652 650
1652 817
1653 651
1654 652
1654 694
1654 2001
1655 652
1655 832
1656 652
1656 832
1656 2002
1657 655
1657 2003
1658 642
1658 655
1658 656
1659 656
1659 951
1659 1238
1660 658
1660 2004
1661 658
1661 1888
1662 657
1662 659
1663 659
1664 660
1665 662
1666 663
1666 665
1667 664
1668 31
1668 668
1669 669
1670 673
1671 675
1672 677
1673 43
1674 681
1675 682
1675 1676
1675 2005
1676 682
1676 1675
1677 687
1678 690
1678 1678
1679 695
1680 139
1680 697
1681 698
1682 700
1683 95
1683 704
1684 708
1684 1085
1685 709
1685 1685
1686 723
1686 724
1686 836
1687 723
1687 1906
1688 123
1688 727
1689 727
1690 730
1690 1488
1690 1771
1691 739
1691 888
1691 1692
1692 740
1692 1691
1693 744
1694 176
1694 752
1695 753
1696 761
1696 844
1696 2006
1697 762
1698 763
1699 764
1699 1082
1700 767
1700 826
1700 1783
1701 767
1701 1126
1702 771
1702 1380
1702 2007
1703 771
1703 1511
1704 771
1704 772
1704 954
1705 786
1705 1721
1705 2008
1706 94
1706 778
1706 2009
1707 779
1707 1707
1707 2010
1708 780
1708 1709
1708 2011
1709 780
1709 1708
1710 781
1710 969
1710 2012
1711 782
1711 1712
1712 777
1712 782
1712 1711
1713 1717
1714 824
1714 1717
1715 1824
1716 784
1716 1716
1716 2014
1717 785
1717 1713
1717 1714
1718 785
1718 824
1719 785
1720 786
1720 1552
1721 786
1721 1705
1722 1722
1722 1724
1723 787
1723 790
1723 2017
1724 1722
1724 2018
1725 787
1725 1784
1726 789
1726 903
1726 2019
1727 791
1727 2020
1728 791
1728 1340
1728 1729
1728 2021
1729 791
1729 1728
1730 2032
1731 1846
1731 2082
1732 2023
1733 271
1733 2024
1734 87
1734 2025
1735 96
1735 2026
1736 128
1736 2027
1737 793
1737 1197
1738 202
1738 793
1739 794
1739 795
1740 797
1740 1743
1741 1742
1742 1741
1742 1742
1743 797
1743 1740
1743 2028
1744 798
1744 820
1745 798
1746 799
1747 799
1747 1747
1748 800
1748 1925
1749 800
1749 961
1750 801
1750 1500
1751 802
1751 1751
1752 802
1753 805
1753 1425
1754 805
1754 1122
1754 2029
1755 806
1755 2030
1756 807
1756 2031
1757 807
1757 1777
1758 808
1758 1759
1759 808
1759 1758
1760 808
1760 2032
1761 809
1761 810
1762 811
1762 815
1763 811
1764 812
1764 1342
1765 812
1766 814
1766 1766
1767 816
1768 817
1769 817
1769 850
1770 818
1771 818
1771 1690
1772 819
1773 820
1774 821
1774 2033
1775 821
1775 852
1776 822
1777 1757
1777 2034
1778 1785
1779 1
1779 84
1780 1825
1780 1849
1781 1411
1781 1781
1782 823
1782 1276
1783 826
1783 1700
1784 826
1784 1725
1785 827
1785 1778
1786 828
1786 1494
1787 828
1788 829
1788 1788
1789 830
1789 1789
1790 831
1791 831
1791 1519
1792 2
1792 1099
1792 1863
1793 838
1793 2036
1794 840
1794 1072
1795 850
1795 853
1795 854
1796 851
1796 852
1796 1914
1797 851
1798 852
1799 853
1799 854
1800 853
1800 2037
1801 854
1802 856
1802 1550
1803 857
1803 1101
1804 857
1805 1805
1805 2038
1806 862
1806 2039
1807 863
1808 865
1809 868
1809 1119
1810 869
1810 2041
1811 872
1812 873
1813 877
1813 879
1814 881
1814 2042
1815 882
1815 1815
1816 96
1816 885
1817 885
1817 2043
1818 74
1818 888
1818 1631
1819 890
1819 891
1820 897
1821 900
1822 901
1823 904
1824 783
1824 909
1824 1715
1825 911
1825 1780
1826 912
1827 919
1827 2045
1828 208
1828 214
1828 920
1829 52
1830 931
1831 132
1831 947
1832 947
1833 767
1833 948
1834 951
1835 958
1836 964
1837 970
1838 113
1838 1838
1839 980
1839 2046
1840 984
1840 2047
1841 986
1842 44
1843 987
1844 994
1845 997
1846 999
1846 1455
1846 1731
1847 1006
1847 1007
1847 1013
1848 1007
1848 1092
1849 1008
1849 1780
1850 1010
1851 45
1852 1020
1853 1031
1853 2048
1854 1034
1854 2049
1855 1049
1856 788
1856 1056
1857 84
1857 1058
1858 1061
1858 2050
1859 1065
1860 1068
1861 1084
1861 1861
1862 1093
1862 1094
1862 1095
1863 1099
1863 1792
1864 1099
1865 1987
1866 1102
1866 1279
1867 1103
1868 1894
1869 1105
1869 1148
1870 1107
1870 1870
1871 1111
1872 1111
1872 1344
1873 1114
1874 1115
1875 1118
1876 3
1876 2053
1877 3
1877 2055
1878 1123
1879 802
1879 1128
1880 1134
1880 2056
1881 1137
1881 2057
1882 1148
1882 2058
1883 163
1884 1155
1885 1162
1886 186
1887 1174
1888 1176
1888 1428
1888 1661
1889 1178
1889 1556
1890 1185
1891 1199
1891 2059
1892 203
1892 1200
1893 1205
1894 1210
1894 1868
1895 1215
1896 1219
1897 1225
1898 1229
1898 1264
1899 1230
1900 1232
1900 2060
1901 1234
1902 1239
1902 2061
1903 219
1904 1244
1905 1249
1906 1250
1906 1687
1907 1252
1908 1258
1908 2062
1909 792
1909 1258
1910 1260
1910 1308
1910 1920
1911 1263
1911 2063
1912 1268
1913 1281
1914 1285
1914 1796
1915 1291
1915 1915
1916 1294
1916 1916
1917 1296
1918 1300
1919 1304
1920 1308
1920 1910
1921 1311
1922 1312
1923 1317
1924 1319
1924 2064
1925 1328
1925 1748
1926 1331
1927 1332
1928 1346
1928 2065
1929 1359
1930 1364
1931 1368
1932 1369
1933 1376
1933 2066
1934 1380
1934 1935
1934 2007
1935 1380
1935 1934
1936 1383
1937 97
1937 1384
1938 315
1939 1396
1940 1402
1940 2067
1941 1413
1941 2068
1942 53
1943 1436
1944 1439
1945 1443
1946 1470
1946 2069
1947 1478
1947 1521
1948 1481
1948 2070
1949 1504
1949 2071
1950 118
1950 1950
1951 118
1952 1510
1952 2072
1953 117
1954 1515
1954 2073
1955 1518
1956 37
1957 1523
1958 1528
1959 1530
1960 1531
1961 1532
1962 1534
1963 1536
1964 1537
1965 1540
1966 1542
1967 1544
1968 1545
1969 1546
1970 1549
1971 1551
1972 1553
1973 1554
1974 1557
1975 1559
1976 1561
1977 1564
1978 1566
1979 1567
1980 1569
1981 1570
1982 1573
1983 1574
1984 1575
1985 1578
1986 1580
1987 1590
1987 1865
1988 91
1988 1591
1989 1598
1990 1615
1991 1633
1992 1634
1992 2074
1993 1636
1994 1638
1995 1641
1996 1644
1996 2075
1997 1645
1998 1646
1999 1647
2000 1650
2001 1654
2002 1656
2003 1657
2004 1660
2005 1675
2006 1696
2007 1702
2007 1934
2008 1705
2009 1706
2010 1707
2011 1708
2012 1710
2013 783
2014 1716
2015 82
2016 83
2017 1723
2018 1724
2019 1726
2020 1727
2021 1728
2022 2029
2022 2089
2023 1732
2023 2077
2024 1733
2024 2078
2025 1734
2025 2079
2026 1735
2026 2080
2027 1736
2027 2081
2028 1743
2029 1754
2029 2022
2030 1755
2030 2083
2031 1756
2031 2084
2032 1730
2032 1760
2033 1774
2034 1008
2034 1777
2035 2058
2036 1793
2037 1800
2038 859
2038 1805
2039 1806
2039 2087
2040 168
2041 1810
2042 1814
2042 2088
2043 1817
2044 98
2045 1827
2046 1839
2047 1840
2048 1853
2049 1854
2050 1858
2051 164
2052 1104
2053 1876
2054 1101
2055 1877
2056 1880
2057 1881
2058 1882
2058 2035
2059 1891
2060 1900
2061 1902
2062 1908
2063 1911
2064 1924
2065 1928
2066 1933
2067 1940
2068 1941
2069 1946
2070 1948
2071 1949
2072 1952
2073 1954
2074 1992
2075 1996
2076 2082
2077 2023
2078 2024
2079 2025
2080 2026
2081 2027
2082 1731
2082 2076
2083 2030
2084 2031
2085 91
2085 2085
2086 792
2087 2039
2088 2042
2089 2022
