0 2208
1 1814
1 2157
2 1449
2 1453
2 1454
3 672
3 899
3 1087
3 1934
4 373
4 432
4 1531
4 1891
5 213
5 414
5 415
5 417
5 900
5 2249
6 29
6 58
6 426
6 439
6 440
6 441
6 498
7 14
7 36
7 205
7 349
7 442
7 443
7 444
7 445
8 20
8 36
8 389
8 449
8 450
8 451
8 452
8 453
9 22
9 28
9 52
9 275
9 361
9 454
9 455
9 456
10 14
10 222
10 457
10 458
10 459
10 460
10 461
10 462
10 463
10 465
10 467
11 36
11 356
11 393
11 460
11 464
11 465
11 466
11 467
11 468
11 469
11 470
11 471
12 392
12 472
12 473
12 474
12 475
12 476
12 477
12 478
12 479
12 480
12 993
12 1921
12 1987
13 31
13 35
13 481
13 482
13 483
13 484
13 485
13 486
13 487
13 488
13 620
13 1990
13 1991
13 1998
14 7
14 10
14 36
14 66
14 128
14 222
14 286
14 457
14 458
14 463
14 489
14 490
14 491
14 492
15 29
15 58
15 493
15 494
15 495
15 496
15 497
15 498
15 499
15 500
15 501
15 656
15 677
16 73
16 139
16 211
16 485
16 502
16 503
16 504
16 505
16 506
16 507
16 508
16 509
16 510
16 511
16 512
16 696
16 786
17 194
17 335
17 381
17 437
17 493
17 513
17 514
17 515
17 516
17 517
17 518
17 519
17 520
17 870
17 1031
17 1401
17 1543
18 19
18 58
18 72
18 123
18 521
18 522
18 523
18 524
18 525
18 526
18 527
18 528
18 529
18 530
18 531
18 532
18 539
18 1545
19 18
19 70
19 93
19 97
19 190
19 194
19 200
19 277
19 431
19 533
19 534
19 535
19 536
19 537
19 538
19 539
19 540
19 541
19 650
19 1029
19 2012
20 8
20 24
20 35
20 36
20 388
20 449
20 450
20 451
20 452
20 453
20 542
20 543
20 544
20 545
20 546
20 547
20 548
20 807
20 1818
20 1919
20 1920
21 36
21 62
21 205
21 328
21 444
21 549
21 550
21 551
21 552
21 553
21 554
21 555
21 556
21 557
21 558
21 559
21 908
21 969
21 998
21 1312
21 2018
22 9
22 140
22 223
22 308
22 316
22 383
22 427
22 560
22 561
22 562
22 563
22 564
22 565
22 566
22 567
22 568
22 569
22 570
22 602
22 608
22 673
22 916
22 921
22 1371
22 1696
23 55
23 90
23 116
23 404
23 422
23 423
23 571
23 572
23 573
23 574
23 575
23 576
23 577
23 578
23 579
23 580
23 581
23 675
23 691
23 726
23 933
23 981
23 1140
23 1447
23 1633
23 1664
23 1865
23 1957
23 2020
24 20
24 35
24 36
24 52
24 66
24 119
24 188
24 211
24 214
24 379
24 582
24 583
24 584
24 585
24 586
24 587
24 588
24 589
24 590
24 591
24 592
24 593
24 594
24 595
24 596
24 626
24 774
24 787
24 801
24 1618
25 282
25 383
25 435
25 436
25 567
25 597
25 598
25 599
25 600
25 601
25 602
25 603
25 604
25 605
25 606
25 607
25 608
25 609
25 610
25 611
25 612
25 613
25 614
25 615
25 616
25 1004
25 1082
25 1239
25 1242
25 1727
26 28
26 35
26 73
26 117
26 126
26 188
26 191
26 232
26 323
26 447
26 511
26 617
26 618
26 619
26 620
26 621
26 622
26 623
26 624
26 625
26 626
26 627
26 628
26 629
26 630
26 631
26 632
26 734
26 762
26 768
26 792
27 126
27 170
27 196
27 251
27 373
27 458
27 633
27 634
27 635
27 636
27 637
27 638
27 639
27 640
27 641
27 642
27 643
27 644
27 645
27 646
27 647
27 648
27 721
27 728
27 729
27 745
27 747
27 757
27 766
28 9
28 26
28 199
28 282
28 324
28 427
28 456
28 566
28 598
28 600
28 611
28 613
28 649
28 650
28 651
28 652
28 653
28 654
28 655
28 656
28 657
28 658
28 659
28 660
28 661
28 674
28 917
28 950
28 1352
28 1408
28 1466
28 1617
29 6
29 15
29 58
29 68
29 156
29 495
29 497
29 498
29 499
29 500
29 501
29 662
29 663
29 664
29 665
29 666
29 667
29 668
29 669
29 670
29 671
29 672
29 673
29 674
29 675
29 676
29 677
29 678
29 685
29 741
29 920
29 949
29 951
29 1024
29 1632
29 1839
30 43
30 59
30 65
30 209
30 245
30 475
30 586
30 625
30 679
30 680
30 681
30 682
30 683
30 684
30 685
30 686
30 687
30 688
30 689
30 690
30 691
30 692
30 693
30 711
30 758
30 944
30 952
30 990
30 991
30 1222
30 1240
30 1334
30 1492
30 1521
30 1524
30 1548
30 1688
30 1689
30 2063
30 2069
31 13
31 102
31 117
31 191
31 323
31 447
31 484
31 485
31 486
31 505
31 507
31 508
31 617
31 618
31 626
31 694
31 695
31 696
31 697
31 698
31 699
31 700
31 701
31 702
31 703
31 704
31 705
31 706
31 707
31 708
31 780
31 786
31 793
31 1205
31 1442
31 1722
31 1751
31 1780
31 1851
31 2035
31 2087
32 99
32 167
32 284
32 334
32 377
32 511
32 576
32 644
32 689
32 700
32 709
32 710
32 711
32 712
32 713
32 714
32 715
32 716
32 717
32 718
32 719
32 720
32 721
32 722
32 723
32 724
32 725
32 726
32 727
32 728
32 729
32 756
32 775
32 931
32 982
32 1478
32 1651
32 1702
32 1865
32 2068
32 2074
32 2278
33 101
33 126
33 133
33 219
33 354
33 360
33 404
33 418
33 454
33 477
33 580
33 636
33 642
33 689
33 720
33 730
33 731
33 732
33 733
33 734
33 735
33 736
33 737
33 738
33 739
33 740
33 741
33 742
33 743
33 744
33 745
33 746
33 747
33 748
33 749
33 750
33 751
33 752
33 753
33 754
33 755
33 763
33 771
33 815
33 958
33 961
33 1074
33 1092
33 1153
33 1311
33 1359
33 1444
33 1468
33 1473
33 1552
33 1717
33 2078
34 99
34 169
34 251
34 623
34 629
34 630
34 634
34 636
34 641
34 647
34 648
34 660
34 687
34 721
34 734
34 735
34 745
34 746
34 747
34 756
34 757
34 758
34 759
34 760
34 761
34 762
34 763
34 764
34 765
34 766
34 767
34 768
34 769
34 770
34 771
34 772
34 773
34 774
34 775
34 776
34 777
34 778
34 1101
34 1197
34 1206
34 1278
34 1300
34 1357
34 1422
34 1581
34 1647
34 1656
34 1711
34 1720
34 2049
34 2091
35 13
35 20
35 24
35 26
35 52
35 73
35 126
35 139
35 188
35 214
35 229
35 256
35 270
35 323
35 446
35 447
35 481
35 483
35 484
35 486
35 487
35 488
35 507
35 511
35 586
35 591
35 594
35 595
35 596
35 617
35 618
35 619
35 620
35 630
35 631
35 697
35 698
35 699
35 700
35 701
35 703
35 708
35 739
35 774
35 779
35 780
35 781
35 782
35 783
35 784
35 785
35 786
35 787
35 788
35 789
35 790
35 791
35 792
35 793
35 1006
35 1047
35 1155
35 1348
35 1368
35 1528
35 1529
35 1625
35 1626
35 1751
35 1780
35 1893
35 1927
35 1990
35 1991
35 1998
35 2031
36 7
36 8
36 11
36 14
36 20
36 21
36 24
36 51
36 62
36 66
36 81
36 89
36 94
36 119
36 124
36 125
36 127
36 193
36 204
36 212
36 240
36 253
36 268
36 290
36 293
36 328
36 349
36 364
36 379
36 381
36 388
36 403
36 443
36 444
36 465
36 466
36 467
36 469
36 470
36 471
36 489
36 491
36 492
36 499
36 546
36 550
36 551
36 553
36 554
36 555
36 556
36 557
36 587
36 622
36 658
36 672
36 673
36 730
36 744
36 794
36 795
36 796
36 797
36 798
36 799
36 800
36 801
36 802
36 803
36 804
36 805
36 806
36 807
36 808
36 809
36 810
36 811
36 812
36 813
36 814
36 815
36 816
36 817
36 818
36 819
36 820
36 821
36 822
36 823
36 824
36 825
36 826
36 827
36 828
36 829
36 830
36 831
36 832
36 906
36 908
36 910
36 969
36 971
36 972
36 997
36 998
36 1041
36 1045
36 1066
36 1087
36 1125
36 1133
36 1147
36 1149
36 1160
36 1172
36 1173
36 1175
36 1288
36 1295
36 1301
36 1302
36 1303
36 1304
36 1305
36 1459
36 1745
36 1747
36 1772
36 1773
36 1774
36 1804
36 1818
36 1832
36 1836
36 1859
36 1889
36 1903
36 1937
36 1938
36 1941
36 2014
36 2015
36 2016
36 2045
36 2046
36 2100
36 2103
36 2109
36 2112
36 2117
37 37
38 1439
38 2343
39 845
40 856
40 857
40 2178
41 859
41 2309
42 862
42 863
42 865
42 2286
43 30
43 536
43 867
44 1695
44 2355
45 93
45 277
45 335
45 437
45 520
45 529
45 870
45 871
45 872
45 873
45 874
45 875
45 876
45 877
45 878
45 879
45 880
45 881
45 882
45 1543
45 1867
45 1894
46 246
46 320
46 348
46 844
46 865
46 883
46 884
46 885
46 886
46 887
46 1418
46 2154
47 92
47 155
47 840
47 888
47 889
47 890
48 891
48 893
48 894
48 1084
48 2299
49 456
49 901
49 902
49 903
50 904
50 905
51 36
51 293
51 457
51 553
51 559
51 820
51 827
51 906
51 907
51 908
51 909
51 910
52 9
52 24
52 35
52 246
52 911
52 912
52 913
52 914
52 915
52 916
52 917
52 918
52 919
52 920
52 921
52 1840
53 217
53 263
53 324
53 922
53 923
53 924
53 925
54 208
54 926
54 927
54 928
54 929
54 930
55 23
55 423
55 532
55 571
55 579
55 931
55 932
55 933
55 934
56 348
56 407
56 935
56 936
56 937
56 938
56 939
56 940
57 941
57 942
57 943
57 944
57 945
57 2119
58 6
58 15
58 18
58 29
58 123
58 156
58 495
58 498
58 501
58 661
58 665
58 668
58 674
58 946
58 947
58 948
58 949
58 950
58 951
59 30
59 228
59 591
59 952
59 953
59 954
59 955
59 956
60 111
60 319
60 957
60 958
60 959
60 1030
61 224
61 303
61 960
61 961
61 962
61 963
61 964
61 965
61 966
61 967
61 1667
62 21
62 36
62 94
62 673
62 968
62 969
62 970
62 971
62 972
62 973
63 115
63 359
63 974
63 975
63 976
63 977
63 978
63 979
63 980
63 981
63 1252
63 1563
63 1636
64 472
64 982
64 983
64 984
64 985
64 986
64 987
64 988
64 1462
64 2171
64 2172
64 2173
65 30
65 245
65 989
65 990
65 991
65 992
65 993
65 994
65 1688
66 14
66 24
66 36
66 119
66 193
66 379
66 470
66 552
66 832
66 995
66 996
66 997
66 998
66 999
66 1000
66 1287
67 500
67 853
67 918
67 938
67 1001
67 1002
67 1003
67 1004
67 1005
67 1006
67 1007
67 1008
67 1009
67 1010
68 29
68 314
68 424
68 434
68 651
68 949
68 1011
68 1012
68 1013
68 1014
68 1015
68 1016
68 1017
68 1641
69 140
69 666
69 1018
69 1019
69 1020
69 1021
69 1022
69 1023
69 1024
69 1025
69 1026
69 1251
69 1437
69 1443
69 1833
69 1834
69 1841
69 1997
70 19
70 200
70 317
70 538
70 874
70 979
70 1027
70 1028
70 1029
70 2012
71 249
71 374
71 519
71 690
71 1030
71 1031
71 1032
71 1033
71 1034
71 1035
71 1036
71 1037
72 18
72 296
72 701
72 786
72 1038
72 1039
72 1040
72 1041
72 1042
72 1043
72 1044
73 16
73 26
73 35
73 101
73 102
73 117
73 126
73 188
73 446
73 447
73 507
73 509
73 511
73 596
73 618
73 623
73 657
73 694
73 762
73 781
73 912
73 1006
73 1045
73 1046
73 1047
73 1048
73 1049
73 1050
73 1051
73 1052
73 1722
74 134
74 994
74 1053
74 1054
74 1055
74 1056
74 1057
74 1058
74 1059
74 1060
74 1061
74 1062
74 1326
75 2208
75 2253
76 646
76 1103
77 429
77 1104
77 1107
77 1108
77 2246
78 1109
78 1110
78 1111
78 1112
78 1113
79 140
79 199
79 209
79 284
79 513
79 1063
79 1114
79 1115
79 1116
79 1117
79 1118
79 1522
80 136
80 223
80 839
80 1119
80 1120
80 1121
81 36
81 252
81 398
81 1122
81 1123
81 1298
82 94
82 267
82 817
82 1124
82 1125
83 95
83 131
83 178
83 224
83 362
83 410
83 509
83 964
83 967
83 1126
83 1127
83 1128
83 1129
83 1130
83 1131
83 1132
83 1196
83 1946
84 329
84 558
84 1133
84 1134
85 1135
85 1136
86 634
86 1138
86 1139
86 1489
87 236
87 1140
87 1141
88 856
88 1183
88 2236
89 36
89 124
89 555
89 811
89 1146
89 1147
89 1148
89 1149
89 1150
89 1151
89 1459
90 23
90 167
90 723
90 855
90 1152
90 1153
90 1154
90 1155
90 1156
90 1157
91 590
91 595
91 1158
91 1159
91 1160
91 1161
91 1162
91 1163
91 1268
91 1876
92 47
92 246
92 915
92 1002
92 1051
92 1164
92 1165
92 1166
92 1706
92 2168
93 19
93 45
93 103
93 123
93 277
93 296
93 523
93 527
93 881
93 1043
93 1167
93 1168
93 1169
93 1170
93 1171
93 1284
93 2006
94 36
94 62
94 82
94 817
94 909
94 1172
94 1173
94 1174
94 1175
94 1176
94 1177
94 1804
94 1937
94 1939
95 83
95 98
95 378
95 1129
95 1178
95 1179
95 1180
96 960
96 1064
96 1181
96 1182
96 1183
96 1184
96 1185
97 19
97 190
97 358
97 430
97 541
97 659
97 1186
97 1187
97 1188
97 1189
98 95
98 1129
98 1131
98 1179
98 1190
98 1191
98 1192
98 1193
98 1194
98 2169
99 32
99 34
99 397
99 847
99 914
99 1195
99 1196
99 1197
99 1198
100 1064
100 1105
100 1199
100 1200
100 1201
100 1202
100 1673
101 33
101 73
101 126
101 228
101 448
101 708
101 1203
101 1204
102 31
102 73
102 625
102 703
102 1007
102 1205
102 1206
102 1207
103 93
103 190
103 659
103 1208
103 1209
103 1210
103 1211
104 301
104 1212
104 1213
104 1214
104 1215
104 1216
104 1948
105 186
105 710
105 1217
105 1218
105 1219
105 1220
106 1221
106 1222
106 1223
106 1224
106 1225
106 1226
107 299
107 1227
107 1228
108 136
108 1229
108 1230
108 1231
108 1232
108 2010
109 120
109 1233
109 1234
109 1235
110 167
110 1217
110 1236
110 1237
111 60
111 171
111 185
111 397
111 957
111 1238
111 1239
111 1240
111 1241
111 1242
112 211
112 485
112 1088
112 1243
112 1244
113 769
113 1245
113 1246
113 1247
113 2052
114 1185
114 1248
114 1254
114 1257
115 63
115 359
115 974
115 979
115 980
115 1023
115 1250
115 1251
115 1252
116 23
116 225
116 560
116 1185
116 1253
116 1254
116 1255
116 1256
116 1257
116 1258
117 26
117 31
117 73
117 505
117 626
117 697
117 1259
117 1260
117 1261
118 125
118 172
118 1096
118 1262
118 1263
118 1264
118 1265
118 1266
118 1267
119 24
119 36
119 66
119 172
119 356
119 595
119 1161
119 1162
119 1163
119 1268
119 1269
119 1270
119 1297
120 109
120 134
120 994
120 1053
120 1055
120 1057
120 1271
120 1272
120 1273
120 1274
120 1275
120 1276
120 1277
120 1906
121 191
121 1278
121 1279
122 1280
122 1281
123 18
123 58
123 93
123 200
123 277
123 431
123 527
123 528
123 533
123 1167
123 1170
123 1209
123 1282
123 1283
123 1284
124 36
124 89
124 293
124 800
124 829
124 1097
124 1148
124 1285
124 1286
124 1287
124 1288
124 1289
124 1290
124 1291
124 1292
125 36
125 118
125 172
125 1262
125 1264
125 1265
125 1266
125 1288
125 1293
125 1294
125 1295
125 1296
125 1297
125 1298
125 1494
126 26
126 27
126 33
126 35
126 73
126 101
126 324
126 743
126 1047
126 1260
126 1299
126 1300
127 36
127 204
127 809
127 972
127 1301
127 1302
127 1303
127 1304
127 1305
127 1306
128 14
128 286
128 469
128 801
128 805
128 1249
128 1285
128 1307
128 1308
128 1309
129 1310
129 1311
130 1312
130 1313
131 83
131 378
131 967
131 1127
131 1129
131 1180
131 1314
131 1315
132 395
132 668
132 1009
132 1316
132 1317
132 1318
132 1319
132 2177
133 33
133 1153
133 1320
133 1321
133 1322
133 1323
133 2163
133 2261
134 74
134 120
134 150
134 174
134 416
134 994
134 1053
134 1055
134 1057
134 1058
134 1273
134 1324
134 1325
134 1326
134 1327
134 1328
135 219
135 245
135 421
135 575
135 688
135 952
135 1099
135 1120
135 1329
135 1330
135 1331
135 1332
135 1333
135 1334
135 1335
135 1336
136 80
136 108
136 512
136 878
136 954
136 1048
136 1120
136 1121
136 1256
136 1337
136 1338
136 1339
136 1340
137 1304
137 1341
137 1342
137 1343
138 383
138 1344
138 1345
138 1346
138 1347
138 1642
138 1660
139 16
139 35
139 256
139 1348
139 1349
139 1350
139 1942
140 22
140 69
140 79
140 223
140 261
140 283
140 284
140 295
140 324
140 494
140 1037
140 1042
140 1116
140 1351
140 1352
140 1353
140 1354
140 1355
140 1609
141 1356
141 1357
141 1358
142 1362
142 1374
142 1379
143 824
143 1363
143 1364
143 1365
144 485
144 768
144 1368
144 2301
145 1369
145 1370
145 1371
146 1372
146 1373
146 1380
146 1508
147 234
147 854
147 1374
147 1375
147 1376
147 1377
147 1378
147 1379
148 313
148 798
148 855
148 1380
148 1381
148 1382
148 1383
148 1869
149 274
149 1376
149 1387
149 1388
149 1784
150 134
150 1391
150 1392
150 1393
150 1394
151 475
151 778
151 1398
151 1399
151 2096
152 262
152 1404
152 1405
152 1511
152 2232
153 785
153 1406
153 1407
153 1949
153 2099
154 616
154 1347
154 1408
154 1409
155 47
155 218
155 840
155 889
155 1410
155 1411
155 1412
155 1413
156 29
156 58
156 389
156 1414
156 1415
156 1416
156 1417
156 1418
157 209
157 660
157 1419
157 1420
157 1421
157 1422
157 1513
158 305
158 1423
158 1424
158 1425
159 1441
159 1442
159 1781
160 902
160 1401
160 1443
160 1444
161 983
161 987
161 1462
162 876
162 881
163 163
164 1442
164 1472
164 1473
165 1218
165 1476
165 2359
166 1446
166 1447
166 1477
167 32
167 90
167 110
167 688
167 689
167 712
167 1218
167 1289
167 1478
168 217
168 613
168 698
168 864
168 1479
168 1480
168 1481
168 1482
168 1658
169 34
169 733
169 735
169 777
169 912
169 1299
169 1483
169 1484
169 1485
170 27
170 186
170 1334
170 1486
170 1487
170 1488
170 1489
170 1871
171 111
171 176
171 411
171 669
171 1043
171 1239
171 1414
171 1490
171 1491
171 1492
171 1493
171 1848
172 118
172 119
172 125
172 658
172 1096
172 1249
172 1262
172 1265
172 1266
172 1267
172 1459
172 1494
173 241
173 457
173 588
173 1122
173 1495
173 1496
173 1497
174 134
174 1059
174 1324
174 1325
174 1326
174 1328
174 1498
175 706
175 834
175 894
175 1119
175 1426
175 1499
175 1500
176 171
176 184
176 570
176 1023
176 1501
176 1502
176 1809
177 839
177 893
177 1231
177 1503
177 1504
177 1505
177 2252
178 83
178 224
178 441
178 954
178 1506
178 1507
179 181
179 1508
179 1509
179 1510
180 1404
180 1511
180 1512
180 2232
181 179
181 258
181 1513
181 1514
181 1515
182 301
182 1087
182 1516
182 1517
182 1624
183 313
183 720
183 1382
183 1518
183 1519
183 2339
184 176
184 501
184 570
184 1023
184 1437
184 1520
185 111
185 690
185 1240
185 1521
185 1522
185 1523
186 105
186 170
186 354
186 1488
186 1524
186 1525
187 207
187 320
187 1087
187 1526
187 1527
187 1601
188 24
188 26
188 35
188 73
188 617
188 618
188 631
188 1528
188 1529
188 1530
189 482
189 507
189 547
189 625
189 703
189 704
189 785
189 1531
189 1532
189 1533
190 19
190 97
190 103
190 358
190 430
190 541
190 659
190 1186
190 1187
190 1189
190 1209
190 1534
191 26
191 31
191 121
191 388
191 545
191 803
191 1528
191 1529
191 1535
191 1536
192 299
192 1071
192 1100
192 1191
192 1402
192 1403
192 1453
192 1537
192 1538
192 1539
192 1540
192 2221
193 36
193 66
193 212
193 293
193 307
193 442
193 818
193 1297
193 1541
193 1542
194 17
194 19
194 271
194 277
194 540
194 882
194 1208
194 1543
194 1544
194 1545
195 337
195 686
195 851
195 1487
195 1546
195 1547
195 1548
195 1549
195 1871
196 27
196 633
196 640
196 728
196 757
196 777
196 1550
196 1551
196 1552
197 343
197 963
197 1329
197 1337
197 1553
197 1554
197 1555
197 1556
198 283
198 308
198 565
198 1466
198 1557
198 1558
198 1559
198 1560
199 28
199 79
199 295
199 312
199 387
199 1021
199 1026
199 1354
199 1561
199 1997
200 19
200 70
200 123
200 227
200 277
200 317
200 538
200 1167
200 1562
200 1563
201 202
201 278
201 386
201 1400
201 1564
201 1565
201 1566
201 1567
201 1568
201 1569
201 1570
201 1571
201 1572
201 1573
201 1578
201 1582
202 201
202 203
202 368
202 386
202 1400
202 1567
202 1569
202 1571
202 1573
202 1574
202 1575
202 1576
202 1577
202 1578
202 1579
202 1580
202 1582
202 2269
203 202
203 278
203 368
203 386
203 394
203 637
203 645
203 773
203 1400
203 1567
203 1568
203 1570
203 1571
203 1572
203 1574
203 1575
203 1576
203 1580
203 1581
203 1582
203 1583
203 1584
203 1585
203 1586
203 1587
203 1588
203 1589
203 1590
203 2269
204 36
204 127
204 809
204 812
204 828
204 1174
204 1591
204 1592
204 1593
204 1594
204 1805
205 7
205 21
205 442
205 550
205 1542
205 1595
205 1596
206 494
206 525
206 526
206 1597
206 1598
206 1599
207 187
207 899
207 1166
207 1600
207 1601
207 1602
208 54
208 930
208 1603
208 1604
208 1605
208 1606
209 30
209 79
209 157
209 761
209 815
209 1420
209 1421
209 1495
209 1607
209 1608
209 1609
210 380
210 401
210 402
210 835
210 1076
210 1610
210 1611
210 1612
210 1613
210 1614
210 1615
210 1935
211 16
211 24
211 112
211 512
211 590
211 790
211 1088
211 1616
211 1617
211 1618
211 1619
211 1620
211 1694
212 36
212 193
212 338
212 814
212 1080
212 1452
212 1621
213 5
213 301
213 415
213 900
213 1215
213 1622
213 1623
213 1624
214 24
214 35
214 256
214 486
214 787
214 1625
214 1626
215 545
215 810
215 1050
215 1627
215 2107
216 416
216 1486
216 1628
216 1629
217 53
217 168
217 246
217 263
217 295
217 566
217 698
217 784
217 922
217 924
217 1065
217 1086
217 1360
217 1516
217 1630
217 1631
217 1632
217 1766
218 155
218 496
218 732
218 949
218 1633
218 1634
218 1635
219 33
219 135
219 754
219 891
219 1232
219 1336
219 1450
219 1468
219 1525
219 1636
219 1637
219 1638
219 1639
219 1850
220 383
220 494
220 568
220 608
220 913
220 1142
220 1390
220 1640
220 1641
220 1642
220 1643
220 1644
220 1752
221 236
221 773
221 1141
221 1463
221 1645
221 1646
221 1647
221 1648
221 1649
221 1650
221 1651
221 1652
221 1653
221 1701
222 10
222 14
222 740
222 1042
222 1352
222 1654
222 1655
222 1656
222 2084
222 2138
223 22
223 80
223 140
223 312
223 335
223 537
223 560
223 870
223 921
223 1035
223 1117
223 1657
223 1658
223 1659
223 1660
223 1661
223 1662
224 61
224 83
224 178
224 225
224 303
224 957
224 960
224 1521
224 1663
224 1664
224 1665
224 1666
224 1667
224 1668
224 1670
224 1674
224 1945
225 116
225 224
225 303
225 408
225 1440
225 1669
225 1670
225 1671
225 1672
225 1673
225 1674
225 1945
226 438
226 1089
226 1545
226 1675
226 1676
226 1677
227 200
227 237
227 1562
227 1678
227 1679
227 1680
228 59
228 101
228 244
228 579
228 953
228 1676
228 1681
228 1682
228 1683
229 35
229 322
229 481
229 504
229 1171
229 1684
229 1685
229 1686
230 688
230 712
230 758
230 1154
230 1236
230 1552
230 1687
230 1688
230 1689
231 422
231 1248
231 1690
231 1691
231 1692
231 1693
231 1694
232 26
232 624
232 714
232 717
232 728
232 746
232 1695
233 496
233 581
233 1203
233 1696
234 147
234 1377
234 1697
235 1699
235 2334
236 87
236 221
236 722
236 1141
236 1389
236 1584
236 1646
236 1647
236 1648
236 1651
236 1652
236 1653
236 1700
236 1701
236 1702
236 1703
237 227
237 977
237 1679
237 1680
237 1704
238 1455
238 1705
238 1706
238 1707
238 1708
238 1950
239 1232
239 1709
239 1710
240 36
240 253
240 764
240 1711
240 1712
240 1746
241 173
241 813
241 1123
241 1497
241 1713
241 1714
242 978
242 1715
242 1716
242 1717
242 1718
242 1719
243 772
243 1720
243 1721
244 228
244 503
244 953
244 1676
244 1681
244 1683
244 1722
244 1723
244 2001
245 30
245 65
245 135
245 693
245 991
245 992
245 1724
245 1725
245 1726
246 46
246 52
246 92
246 217
246 438
246 657
246 698
246 1727
246 1728
246 1729
246 1730
247 1727
247 1731
247 1732
248 435
248 537
248 598
248 606
248 609
248 1116
248 1733
248 1734
248 1793
248 2039
249 71
249 1433
249 1735
249 1736
249 1737
250 1358
250 1739
250 1843
251 27
251 34
251 636
251 647
251 1740
251 1741
251 1742
252 81
252 385
252 468
252 1743
252 1744
252 1745
253 36
253 240
253 761
253 770
253 1746
254 307
254 390
254 1151
254 1747
254 1748
255 287
255 294
255 1749
255 1750
255 1800
256 35
256 139
256 214
256 270
256 446
256 447
256 486
256 621
256 706
256 782
256 1743
256 1751
257 283
257 924
257 1351
257 1353
257 1432
257 1558
257 1752
257 1753
257 1754
257 1755
257 1756
258 181
258 1419
258 1514
258 1663
259 1752
259 1756
259 1757
260 829
260 1097
260 1291
260 1292
261 140
261 261
261 295
262 152
262 547
262 809
262 828
262 1764
262 1765
262 1899
263 53
263 217
263 923
263 1760
263 1766
263 1767
264 272
264 1458
264 1762
264 1768
264 1769
264 2284
265 304
265 861
265 865
265 1216
265 1770
266 315
266 318
266 1759
266 1771
267 82
267 737
267 744
267 812
267 825
267 1772
267 1773
268 36
268 269
268 799
268 831
268 1774
268 1775
268 2100
269 268
269 799
269 831
269 1774
269 1776
269 1777
269 1778
269 2100
270 35
270 256
270 699
270 782
270 789
270 791
270 1407
270 1751
270 1779
270 1780
271 194
271 358
271 539
271 1063
271 1781
272 264
272 1458
272 1768
272 1769
272 2284
273 737
273 1041
273 2332
274 149
274 1387
274 1783
274 1784
274 1785
275 9
275 456
275 513
275 515
275 562
275 621
275 742
275 915
275 1786
275 1787
275 1788
275 1954
276 362
276 961
276 965
276 1667
277 19
277 45
277 93
277 123
277 194
277 200
277 523
277 526
277 1170
278 201
278 203
278 368
278 386
278 1565
278 1567
278 1570
278 1572
278 1578
279 528
279 1282
279 1283
279 1789
280 330
280 1003
280 1790
280 1791
281 635
281 1792
282 25
282 28
282 605
282 649
282 1390
282 1640
282 1793
282 1794
282 1795
283 140
283 198
283 257
283 1351
283 1353
283 1753
284 32
284 79
284 140
284 718
284 1115
284 1522
285 805
285 1097
285 1291
285 1292
285 1772
285 1796
286 14
286 128
286 801
286 1269
286 1797
286 1798
287 255
287 897
287 1799
287 1800
288 371
288 453
288 524
288 913
288 1086
288 1658
288 1801
288 1802
289 316
289 566
289 609
289 913
289 1482
289 1803
290 36
290 1804
290 1805
290 1806
291 1008
291 1643
291 1807
291 1808
292 516
292 1491
292 1492
292 1502
292 1809
292 1810
293 36
293 51
293 124
293 193
293 829
293 1147
293 1291
293 1292
294 255
294 300
294 897
294 1087
294 1800
294 1811
294 1812
294 1813
295 140
295 199
295 217
295 261
295 1073
295 1814
296 72
296 93
296 652
296 1038
296 1043
296 1044
296 1490
296 1815
296 1816
296 1848
297 466
297 490
297 547
297 1070
297 1765
297 1817
297 1818
298 862
298 1811
298 1812
298 1819
298 1820
298 1821
298 1822
298 1825
299 107
299 192
299 1071
299 1100
299 1403
299 1538
299 1540
299 1823
300 294
300 862
300 1087
300 1438
300 1749
300 1812
300 1821
300 1824
301 104
301 182
301 213
301 589
301 1213
301 1623
301 1811
301 1812
301 1813
301 1825
302 1171
302 1395
302 1426
302 1499
302 1500
302 1554
302 1555
302 1684
302 1686
302 1826
303 61
303 224
303 225
303 378
303 960
303 1663
303 1668
303 1670
303 1674
303 1945
304 265
304 886
304 1216
304 1821
304 1827
304 2154
305 158
305 1423
305 1425
305 1828
305 1829
305 1830
306 1829
306 1830
306 1831
307 193
307 254
307 628
307 1080
307 1289
307 1796
307 1832
308 22
308 198
308 326
308 1008
308 1559
308 1833
308 1834
309 822
309 1424
309 1828
309 1829
309 1830
309 1835
309 1836
310 323
310 510
310 704
310 1261
310 1837
311 495
311 662
311 669
311 841
311 1838
311 1839
311 1840
312 199
312 223
312 683
312 1115
312 1609
312 1841
312 1842
313 148
313 183
313 1358
313 1372
313 1514
313 1843
313 1844
314 68
314 376
314 424
314 568
314 1011
314 1014
314 1845
315 266
315 318
315 1457
315 1771
315 1846
315 1847
316 22
316 289
316 383
316 567
316 568
316 602
316 608
316 1418
317 70
317 200
317 335
317 538
317 694
317 880
317 1259
317 1563
318 266
318 315
318 1457
318 1759
318 1771
318 1846
318 1847
319 60
319 1024
319 1030
319 1035
319 1115
319 1117
319 1492
319 1848
320 46
320 187
320 330
320 348
320 844
320 885
320 887
320 1790
321 343
321 681
321 1156
321 1337
321 1553
321 1554
321 1555
321 1849
321 1850
322 229
322 504
322 702
322 1341
322 1412
322 1685
323 26
323 31
323 35
323 310
323 508
323 701
323 779
323 1851
324 28
324 53
324 126
324 140
324 1529
324 1836
324 1852
325 1175
325 2336
326 308
326 565
326 1068
326 1559
326 1854
327 590
327 1028
327 1855
327 1856
327 1857
328 21
328 36
328 559
328 797
328 830
328 1858
329 84
329 403
329 444
329 558
329 908
329 1134
329 1592
329 1804
329 1859
330 280
330 320
330 849
330 1003
330 1790
330 1860
330 1861
330 1862
331 584
331 585
331 1501
331 1837
332 1526
332 1527
332 1767
332 1863
333 829
333 1148
333 1286
333 1309
333 1864
334 32
334 687
334 688
334 724
334 1865
334 1866
334 2278
335 17
335 45
335 223
335 317
335 560
335 870
335 880
335 1816
335 1867
336 644
336 1844
336 1868
336 1869
336 1870
337 195
337 956
337 1334
337 1871
338 212
338 997
338 1080
338 1287
338 1288
338 1621
338 1745
338 1796
339 1761
339 1872
339 1873
340 844
340 868
340 1322
340 1868
340 1872
340 1874
341 1175
341 1591
341 1875
341 1876
342 428
342 576
342 1877
342 1878
342 1879
343 197
343 321
343 681
343 1880
343 1881
344 1436
344 1837
344 1882
344 1883
344 1884
345 346
345 1885
345 1886
345 1887
345 1890
346 345
346 855
346 1885
346 1887
346 1890
347 369
347 391
347 679
347 1154
347 1155
347 1687
347 1888
348 46
348 56
348 320
348 407
348 853
348 936
348 938
349 7
349 36
349 1146
349 1887
349 1889
349 1890
350 381
350 382
350 409
350 493
350 1033
351 878
351 1333
351 1894
352 516
352 517
352 957
352 1030
352 1032
352 1036
353 355
353 363
353 853
353 918
353 1002
353 1196
353 1198
354 33
354 186
354 1895
354 1896
354 1897
355 353
355 363
355 1196
355 1198
355 1898
356 11
356 119
356 462
356 590
356 1270
356 1899
356 1900
357 363
357 432
357 441
357 947
357 1196
357 1198
357 1560
358 97
358 190
358 271
358 529
358 1189
359 63
359 115
359 974
359 980
360 33
360 361
360 418
360 454
360 741
360 742
361 9
361 360
361 418
361 454
361 742
361 914
362 83
362 276
362 964
362 1901
363 353
363 355
363 357
363 1198
363 1902
364 36
364 812
364 825
364 1098
364 1903
365 681
365 891
365 963
365 1329
365 1429
365 1450
365 1555
365 1850
365 1880
365 1896
366 678
366 2331
367 994
367 1053
367 1273
367 1276
367 1905
367 1906
367 1907
368 202
368 203
368 278
368 1568
368 1580
368 1585
369 347
369 370
369 404
369 1154
369 1888
370 369
370 391
370 1633
370 1888
371 288
371 597
371 601
371 835
371 1411
371 1533
372 459
372 492
372 806
372 1908
373 4
373 27
373 1909
374 71
374 560
374 1239
374 1910
375 500
375 1025
375 1318
375 1520
375 1561
376 314
376 424
376 435
376 568
376 1014
376 1845
377 32
377 1636
377 1880
378 95
378 131
378 303
378 964
378 965
378 1665
379 24
379 36
379 66
379 1411
379 1438
379 1813
379 1911
380 210
380 401
380 1076
380 1610
380 1613
380 1912
381 17
381 36
381 350
381 1033
381 1913
381 1914
382 350
382 493
382 513
382 1033
382 1490
382 1755
382 1914
383 22
383 25
383 138
383 220
383 316
383 567
383 602
383 609
384 892
384 1153
384 1915
384 1916
385 252
385 399
385 673
385 1917
385 1918
386 201
386 202
386 203
386 278
386 1567
386 1573
386 1578
387 199
387 1019
387 1021
387 1026
387 1354
387 1561
387 1997
388 20
388 36
388 191
388 452
388 545
388 1536
388 1919
389 8
389 156
389 449
389 450
389 452
389 453
389 546
389 807
389 817
389 1919
389 1920
390 254
390 1151
390 1262
390 1264
390 1265
390 1266
391 347
391 370
391 679
391 732
391 1154
392 12
392 472
392 473
392 475
392 478
392 1921
392 1922
392 1987
393 11
393 466
393 467
393 1923
394 203
394 773
394 892
394 1463
394 1464
394 1924
394 1925
395 132
395 1015
395 1016
395 1319
395 1807
395 1926
396 621
396 626
396 630
396 1471
396 1743
396 1927
397 99
397 111
397 1015
397 1842
397 1928
397 1929
397 1930
397 1931
398 81
398 1266
398 1932
398 1933
399 385
399 609
399 677
399 888
399 920
399 1036
399 1408
399 1934
400 401
400 1612
400 1613
400 1935
400 1936
401 210
401 380
401 400
401 402
401 1076
401 1610
401 1613
402 210
402 401
402 772
402 1611
402 1613
402 1935
403 36
403 329
403 744
403 827
403 1134
403 1772
403 1937
403 1938
403 1939
404 23
404 33
404 369
404 573
404 1446
404 1888
405 825
405 1940
405 1941
406 484
406 631
406 779
406 780
406 791
406 1694
406 1942
407 56
407 348
407 935
407 936
407 937
407 938
407 1943
408 225
408 957
408 1184
408 1944
408 1945
409 350
409 536
409 723
409 1551
409 1761
410 83
410 962
410 1127
410 1191
410 1193
410 1946
411 171
411 664
411 666
411 1493
411 1728
412 516
412 666
412 1370
412 1810
413 427
413 435
413 666
413 888
413 1734
414 5
414 1622
414 1947
415 5
415 213
415 900
415 1824
415 1949
416 134
416 216
416 994
416 1057
416 1273
416 1325
416 1629
417 5
417 898
417 899
417 1860
417 1950
417 1951
417 1952
417 1953
418 33
418 360
418 361
418 741
418 742
418 753
418 914
419 741
419 1954
419 1955
420 667
420 741
420 1956
421 135
421 577
421 1331
421 1957
422 23
422 231
422 577
422 1691
422 1693
422 1958
423 23
423 55
423 572
423 577
423 1878
423 1959
424 68
424 314
424 376
424 434
424 1015
424 1016
425 505
425 511
425 791
425 1960
426 6
426 671
426 841
426 1042
426 1238
427 22
427 28
427 413
427 1040
427 1042
427 1816
427 1961
428 342
428 576
428 1042
428 1877
428 1878
428 1959
429 77
429 541
429 1186
429 1962
430 97
430 190
430 431
430 541
430 1186
430 1738
431 19
431 123
431 430
431 540
431 541
431 1167
431 1189
431 1963
432 4
432 357
432 1016
432 1758
432 1807
433 434
433 612
433 1015
433 1016
433 1465
433 1964
433 1965
434 68
434 424
434 433
434 1013
434 1016
435 25
435 248
435 376
435 413
435 598
436 25
436 437
436 598
436 1966
436 1967
436 1968
437 17
437 45
437 436
437 438
437 598
437 879
437 880
438 226
438 246
438 437
438 579
438 598
438 1969
439 6
439 441
439 1502
439 1507
440 6
440 947
440 1232
440 1970
441 6
441 178
441 357
441 439
441 1502
441 1507
441 1971
442 7
442 193
442 205
442 1542
443 7
443 36
443 1206
443 1972
443 1973
444 7
444 21
444 36
444 329
444 1859
445 7
445 643
445 1747
445 1974
446 35
446 73
446 256
446 447
446 486
446 505
446 596
446 1048
447 26
447 31
447 35
447 73
447 256
447 446
447 486
447 1975
448 101
448 486
448 919
448 1022
449 8
449 20
449 389
449 450
449 542
449 543
449 1002
449 1920
450 8
450 20
450 389
450 449
450 452
450 453
450 1919
451 8
451 20
451 546
452 8
452 20
452 388
452 389
452 450
453 8
453 20
453 288
453 389
453 450
453 1920
454 9
454 33
454 360
454 361
455 9
455 1776
455 1976
456 9
456 28
456 49
456 275
456 562
457 10
457 14
457 51
457 173
457 1405
458 10
458 14
458 27
458 463
458 492
458 1713
459 10
459 372
459 464
459 1081
459 1900
460 10
460 11
460 467
460 1977
461 10
461 1978
462 10
462 356
462 1979
463 10
463 14
463 458
464 11
464 459
464 1980
464 1981
465 10
465 11
465 36
465 1081
465 1900
466 11
466 36
466 297
466 393
466 1817
466 1982
467 10
467 11
467 36
467 393
467 460
468 11
468 252
468 470
468 803
468 1745
469 11
469 36
469 128
469 822
469 1917
470 11
470 36
470 66
470 468
470 996
470 1899
470 1983
471 11
471 36
471 996
471 1713
472 12
472 64
472 392
473 12
473 392
473 475
473 480
473 1987
474 12
474 476
474 1921
474 1984
475 12
475 30
475 151
475 392
475 473
475 478
475 480
475 1987
476 12
476 474
476 1985
477 12
477 33
477 1182
477 1986
478 12
478 392
478 475
478 993
478 1922
478 1984
478 1987
479 12
479 480
480 12
480 473
480 475
480 479
481 13
481 35
481 229
481 700
481 1988
482 13
482 189
482 1989
483 13
483 35
483 1088
484 13
484 31
484 35
484 406
484 779
485 13
485 16
485 31
485 112
485 144
485 791
485 793
486 13
486 31
486 35
486 214
486 256
486 446
486 447
486 448
487 13
487 35
487 701
487 1368
487 1990
488 13
488 35
488 1991
488 1992
489 14
489 36
489 490
490 14
490 297
490 489
491 14
491 36
491 595
491 622
491 1070
492 14
492 36
492 372
492 458
492 1291
493 15
493 17
493 350
493 382
493 1993
494 15
494 140
494 206
494 220
494 1008
494 1467
494 1559
494 1834
494 1994
495 15
495 29
495 58
495 311
496 15
496 218
496 233
497 15
497 29
498 6
498 15
498 29
498 58
498 1203
499 15
499 29
499 36
499 1995
500 15
500 29
500 67
500 375
500 1996
501 15
501 29
501 58
501 184
501 662
501 668
501 1997
502 16
502 509
503 16
503 244
503 1681
503 1998
504 16
504 229
504 322
504 702
505 16
505 31
505 117
505 425
505 446
506 16
506 791
506 1999
506 2000
507 16
507 31
507 35
507 73
507 189
507 2001
508 16
508 31
508 323
508 706
509 16
509 73
509 83
509 502
509 1499
510 16
510 310
510 1975
511 16
511 26
511 32
511 35
511 73
511 425
512 16
512 136
512 211
513 17
513 79
513 275
513 382
514 17
514 517
515 17
515 275
515 1044
516 17
516 292
516 352
516 412
516 1970
517 17
517 352
517 514
517 2002
518 17
518 1030
518 2003
519 17
519 71
519 1547
520 17
520 45
520 2004
521 18
521 523
521 527
521 2005
521 2006
522 18
522 2007
523 18
523 93
523 277
523 521
524 18
524 288
525 18
525 206
525 526
526 18
526 206
526 277
526 525
526 1107
526 1597
527 18
527 93
527 123
527 521
527 2005
528 18
528 123
528 279
528 533
528 1738
529 18
529 45
529 358
529 881
529 1186
530 18
530 934
531 18
531 1040
531 1544
532 18
532 55
532 2008
533 19
533 123
533 528
534 19
534 566
534 650
534 2009
534 2010
535 19
535 1409
535 1856
535 2011
536 19
536 43
536 409
536 1381
536 1763
537 19
537 223
537 248
537 1082
537 1657
537 1661
538 19
538 70
538 200
538 317
538 1725
538 2012
539 18
539 19
539 271
539 2013
540 19
540 194
540 431
540 1534
541 19
541 97
541 190
541 429
541 430
541 431
542 20
542 449
542 546
543 20
543 449
543 545
543 546
544 20
544 1797
545 20
545 191
545 215
545 388
545 543
545 1535
545 1536
545 2014
546 20
546 36
546 389
546 451
546 542
546 543
547 20
547 189
547 262
547 297
547 811
547 971
547 1158
547 1159
547 1764
547 1765
548 20
549 21
549 823
550 21
550 36
550 205
550 551
550 1763
551 21
551 36
551 550
551 1029
552 21
552 66
552 1098
552 2015
553 21
553 36
553 51
553 931
553 1134
554 21
554 36
554 830
555 21
555 36
555 89
555 823
556 21
556 36
556 819
556 820
556 910
557 21
557 36
557 1075
557 1177
557 2016
557 2017
558 21
558 84
558 329
558 1134
558 1306
559 21
559 51
559 328
559 797
559 2018
560 22
560 116
560 223
560 335
560 374
561 22
561 569
562 22
562 275
562 456
562 1117
563 22
563 2019
564 22
564 564
564 569
565 22
565 198
565 326
566 22
566 28
566 217
566 289
566 534
566 657
567 22
567 25
567 316
567 383
567 602
567 1481
568 22
568 220
568 314
568 316
568 376
568 612
568 1845
569 22
569 561
569 564
570 22
570 176
570 184
570 902
571 23
571 55
571 933
571 2020
572 23
572 423
572 732
572 1959
573 23
573 404
573 2021
574 23
574 580
575 23
575 135
575 577
575 1331
575 2022
576 23
576 32
576 342
576 428
577 23
577 421
577 422
577 423
577 575
577 1331
578 23
578 1865
578 2023
579 23
579 55
579 228
579 438
579 953
579 1676
579 1681
579 1683
579 1723
579 2024
580 23
580 33
580 574
581 23
581 233
581 847
581 2025
582 24
582 863
582 1216
582 2026
582 2027
583 24
583 588
583 1595
583 2028
584 24
584 331
584 616
584 1413
585 24
585 331
586 24
586 30
586 35
586 1206
586 2029
587 24
587 36
587 810
588 24
588 173
588 583
588 1122
588 1595
588 2028
589 24
589 301
589 2030
590 24
590 91
590 211
590 327
590 356
591 24
591 35
591 59
591 953
591 2031
592 24
592 2032
592 2033
592 2335
593 24
593 739
593 2034
594 24
594 35
594 1530
595 24
595 35
595 91
595 119
595 491
596 24
596 35
596 73
596 446
596 2035
597 25
597 371
597 599
597 601
598 25
598 28
598 248
598 435
598 436
598 437
598 438
599 25
599 597
599 601
599 603
599 616
599 1485
599 2036
600 25
600 28
600 614
600 2037
601 25
601 371
601 597
601 599
601 1802
601 2038
602 22
602 25
602 316
602 383
602 567
603 25
603 599
603 1390
604 25
604 1661
604 2039
605 25
605 282
605 649
605 2040
605 2041
606 25
606 248
606 2042
607 25
608 22
608 25
608 220
608 316
609 25
609 248
609 289
609 383
609 399
610 25
610 2043
610 2044
611 25
611 28
611 612
611 1965
612 25
612 433
612 568
612 611
612 1965
613 25
613 28
613 168
613 864
613 1465
613 1479
613 1480
614 25
614 600
615 25
615 1732
616 25
616 154
616 584
616 599
616 1411
616 1484
617 26
617 31
617 35
617 188
617 788
617 1530
618 26
618 31
618 35
618 73
618 188
618 1722
619 26
619 35
619 631
620 13
620 26
620 35
620 1260
620 1988
621 26
621 256
621 275
621 396
622 26
622 36
622 491
622 2045
622 2046
623 26
623 34
623 73
623 762
624 26
624 232
624 792
625 26
625 30
625 102
625 189
625 703
626 24
626 26
626 31
626 117
626 396
627 26
627 1203
627 1204
627 1634
628 26
628 307
628 843
628 1497
629 26
629 34
630 26
630 34
630 35
630 396
630 1992
631 26
631 35
631 188
631 406
631 619
632 26
632 783
633 27
633 196
633 640
634 27
634 34
634 86
634 745
635 27
635 281
635 635
636 27
636 33
636 34
636 251
636 637
636 2047
637 27
637 203
637 636
637 1074
637 2048
638 27
639 27
639 943
640 27
640 196
640 633
640 777
641 27
641 34
641 648
641 735
641 2049
642 27
642 33
642 2050
643 27
643 445
643 1757
643 2051
644 27
644 32
644 336
644 1639
644 2052
645 27
645 203
645 852
645 1386
645 2053
645 2054
646 27
646 76
647 27
647 34
647 251
647 1741
647 1742
648 27
648 34
648 641
648 735
649 28
649 282
649 605
649 1640
650 19
650 28
650 534
651 28
651 68
651 670
652 28
652 296
652 1044
653 28
653 1612
654 28
654 2055
655 28
655 847
655 1736
656 15
656 28
656 658
657 28
657 73
657 246
657 566
658 28
658 36
658 172
658 656
658 972
659 28
659 97
659 103
659 190
659 1209
660 28
660 34
660 157
660 1185
660 1422
661 28
661 58
661 1752
662 29
662 311
662 501
663 29
663 678
663 1018
664 29
664 411
664 949
664 1809
664 1931
665 29
665 58
665 1926
666 29
666 69
666 411
666 412
666 413
666 841
667 29
667 420
667 914
667 1956
668 29
668 58
668 132
668 501
668 1319
668 1522
668 1643
669 29
669 171
669 311
669 678
669 949
669 1433
670 29
670 651
671 29
671 426
671 1523
672 3
672 29
672 36
672 2056
673 22
673 29
673 36
673 62
673 385
674 28
674 29
674 58
675 23
675 29
675 2053
676 29
676 2057
677 15
677 29
677 399
678 29
678 366
678 663
678 669
678 1465
679 30
679 347
679 391
679 758
679 1888
680 30
680 1068
681 30
681 321
681 343
681 365
682 30
682 686
682 2058
683 30
683 312
683 1203
684 30
684 1330
685 29
685 30
686 30
686 195
686 682
686 956
686 1546
686 2058
687 30
687 34
687 334
687 2059
688 30
688 135
688 167
688 230
688 334
689 30
689 32
689 33
689 167
689 2060
690 30
690 71
690 185
690 1931
691 23
691 30
691 2061
692 30
692 2062
693 30
693 245
693 2063
694 31
694 73
694 317
694 1259
695 31
695 789
696 16
696 31
697 31
697 35
697 117
697 1533
698 31
698 35
698 168
698 217
698 246
698 1803
699 31
699 35
699 270
699 779
699 1203
700 31
700 32
700 35
700 481
700 1960
701 31
701 35
701 72
701 323
701 487
701 786
702 31
702 322
702 504
702 791
703 31
703 35
703 102
703 189
703 625
704 31
704 189
704 310
705 31
705 705
706 31
706 175
706 256
706 508
706 1006
706 1048
707 31
708 31
708 35
708 101
708 1088
708 1620
709 32
709 722
710 32
710 105
710 1219
710 2064
711 30
711 32
712 32
712 167
712 230
712 2065
712 2066
713 32
714 32
714 232
714 728
714 2067
715 32
715 982
715 2068
715 2069
716 32
716 2070
717 32
717 232
717 923
718 32
718 284
718 1476
718 1548
719 32
719 2071
720 32
720 33
720 183
720 982
720 1518
720 2072
721 27
721 32
721 34
722 32
722 236
722 709
723 32
723 90
723 409
723 2073
724 32
724 334
724 1866
725 32
725 2075
726 23
726 32
727 32
727 1653
727 1702
728 27
728 32
728 196
728 232
728 714
729 27
729 32
729 2076
730 33
730 36
730 737
731 33
731 2077
732 33
732 218
732 391
732 572
733 33
733 169
733 1483
734 26
734 33
734 34
735 33
735 34
735 169
735 641
735 648
736 33
736 984
737 33
737 267
737 273
737 730
738 33
738 2078
738 2079
739 33
739 35
739 593
739 2080
739 2081
740 33
740 222
740 2082
741 29
741 33
741 360
741 418
741 419
741 420
742 33
742 275
742 360
742 361
742 418
743 33
743 126
743 2083
744 33
744 36
744 267
744 403
744 825
745 27
745 33
745 34
745 634
746 33
746 34
746 232
746 775
746 918
747 27
747 33
747 34
748 33
748 1514
748 1552
748 2084
749 33
749 2085
750 33
751 33
751 1380
751 1519
751 2086
751 2339
752 33
752 1383
752 1470
753 33
753 418
753 837
753 2087
754 33
754 219
754 1450
754 1896
754 2048
755 33
755 1381
755 2088
756 32
756 34
757 27
757 34
757 196
758 30
758 34
758 230
758 679
759 34
759 1074
760 34
761 34
761 209
761 253
761 761
762 26
762 34
762 73
762 623
763 33
763 34
764 34
764 240
764 2089
765 34
765 765
766 27
766 34
767 34
767 2090
767 2091
768 26
768 34
768 144
769 34
769 113
769 1247
769 1356
769 1464
770 34
770 253
770 1712
770 1958
771 33
771 34
771 2092
772 34
772 243
772 402
773 34
773 203
773 221
773 394
773 1572
774 24
774 34
774 35
774 1915
775 32
775 34
775 746
776 34
776 2090
776 2093
776 2094
777 34
777 169
777 196
777 640
778 34
778 151
778 1398
778 1399
778 2095
778 2096
779 35
779 323
779 406
779 484
779 699
779 1682
780 31
780 35
780 406
780 789
781 35
781 73
781 791
781 1068
781 2097
782 35
782 256
782 270
783 35
783 632
784 35
784 217
784 2098
785 35
785 153
785 189
785 1073
785 2099
786 16
786 31
786 35
786 72
786 701
787 24
787 35
787 214
788 35
788 617
789 35
789 270
789 695
789 780
789 1780
790 35
790 211
790 1051
790 1243
791 35
791 270
791 406
791 425
791 485
791 506
791 702
791 781
791 1626
792 26
792 35
792 624
793 31
793 35
793 485
794 36
795 36
795 1161
795 1162
796 36
796 1405
797 36
797 328
797 559
797 830
798 36
798 148
798 1983
799 36
799 268
799 269
799 831
799 1775
799 2100
800 36
800 124
800 999
800 2101
801 24
801 36
801 128
801 286
802 36
802 2102
803 36
803 191
803 468
803 803
804 36
804 1093
805 36
805 128
805 285
805 2104
806 36
806 372
806 1797
807 20
807 36
807 389
808 36
808 817
808 2340
809 36
809 127
809 204
809 262
809 1805
810 36
810 215
810 587
810 1050
810 2106
810 2107
811 36
811 89
811 547
811 1159
811 1160
811 1764
811 1765
811 2108
812 36
812 204
812 267
812 364
812 866
813 36
813 241
813 815
813 1551
813 1973
814 36
814 212
814 1080
814 1161
814 2109
814 2110
815 33
815 36
815 209
815 813
816 36
816 826
816 1172
816 2111
817 36
817 82
817 94
817 389
817 808
817 1066
817 2112
818 36
818 193
818 931
818 2113
819 36
819 556
819 2114
819 2115
820 36
820 51
820 556
820 2116
820 2117
821 36
821 1045
821 1269
822 36
822 309
822 469
822 1828
822 1917
823 36
823 549
823 555
824 36
824 143
824 1364
824 1365
824 2118
825 36
825 267
825 364
825 405
825 744
826 36
826 816
826 2119
827 36
827 51
827 403
827 909
827 1938
827 2120
828 36
828 204
828 262
828 1591
828 1593
828 1594
829 36
829 124
829 260
829 293
829 333
829 1416
830 36
830 328
830 554
830 797
831 36
831 268
831 269
831 799
831 1774
832 36
832 66
832 998
832 1270
832 2046
832 2121
833 2123
834 175
834 894
834 1397
834 1668
834 2122
835 210
835 371
835 1611
835 2123
836 836
836 2125
837 753
837 2126
837 2127
838 1004
838 1345
838 2128
838 2129
839 80
839 177
839 1119
839 1503
839 1849
839 2000
839 2130
840 47
840 155
840 889
840 1410
840 2131
841 311
841 426
841 666
841 1910
841 2132
842 2061
842 2133
842 2134
843 628
843 1081
843 2135
843 2136
843 2137
844 46
844 320
844 340
844 1763
844 2138
844 2139
845 39
846 2147
847 99
847 581
847 655
847 2140
847 2141
848 2140
848 2142
848 2143
849 330
849 1862
849 2144
850 1077
850 1680
850 2145
850 2146
850 2199
851 195
851 1487
851 1546
851 1549
852 645
852 1384
852 1740
852 1741
852 2147
853 67
853 348
853 353
853 1010
853 2148
853 2149
854 147
854 1377
854 1378
854 2150
854 2151
855 90
855 148
855 346
855 1355
855 1761
856 40
856 88
856 857
856 1143
856 2235
857 40
857 856
857 1199
857 2152
858 1690
859 41
859 1366
859 2153
860 2027
861 265
861 897
861 1216
861 1770
861 1827
862 42
862 298
862 300
862 1427
862 1820
862 1821
863 42
863 582
863 1216
863 1770
863 1827
863 2027
864 168
864 613
864 1479
864 1480
865 42
865 46
865 265
865 1750
865 1770
865 2027
865 2154
866 812
866 1291
866 1593
866 1594
867 43
868 340
868 2155
869 2155
870 17
870 45
870 223
870 335
871 45
871 875
871 1543
872 45
872 1962
872 2013
872 2156
873 45
873 1509
874 45
874 70
874 882
874 979
874 1028
874 1855
875 45
875 871
876 45
876 162
876 876
877 45
878 45
878 136
878 351
878 1232
878 1333
879 45
879 437
879 1461
880 45
880 317
880 335
880 437
881 45
881 93
881 162
881 529
882 45
882 194
882 874
883 46
884 46
884 1814
884 2148
884 2157
884 2158
885 46
885 320
886 46
886 304
886 1216
887 46
887 320
887 887
888 47
888 399
888 413
888 2159
888 2160
889 47
889 155
889 840
889 1410
890 47
891 48
891 219
891 365
891 1450
891 1616
891 1637
892 384
892 394
892 1693
892 2161
893 48
893 177
893 1232
893 1503
893 1505
894 48
894 175
894 834
894 1084
894 1826
894 2162
895 1813
896 1436
896 1693
896 1880
896 2163
897 287
897 294
897 861
897 1750
897 1813
898 417
898 899
898 900
898 1602
898 2164
899 3
899 207
899 417
899 898
899 900
899 1602
900 5
900 213
900 415
900 898
900 899
900 1406
900 1602
901 49
902 49
902 160
902 570
903 49
903 1142
903 2165
904 50
905 50
905 1272
906 36
906 51
907 51
908 21
908 36
908 51
908 329
909 51
909 94
909 827
909 2166
910 36
910 51
910 556
911 52
912 52
912 73
912 169
913 52
913 220
913 288
913 289
914 52
914 99
914 361
914 418
914 667
915 52
915 92
915 275
915 1863
916 22
916 52
917 28
917 52
918 52
918 67
918 353
918 746
918 1863
919 52
919 448
920 29
920 52
920 399
920 1065
920 1632
921 22
921 52
921 223
922 53
922 217
922 1086
922 1971
923 53
923 263
923 717
923 1767
924 53
924 217
924 257
925 53
926 54
926 928
927 54
928 54
928 926
928 930
929 54
929 930
929 1435
929 2167
930 54
930 208
930 928
930 929
930 1435
930 2167
931 32
931 55
931 553
931 818
932 55
933 23
933 55
933 571
934 55
934 530
935 56
935 407
935 940
935 2168
936 56
936 348
936 407
937 56
937 407
937 938
937 1822
938 56
938 67
938 348
938 407
938 937
939 56
940 56
940 935
941 57
942 57
942 945
943 57
943 639
943 945
944 30
944 57
945 57
945 942
945 943
945 2029
946 58
947 58
947 357
947 440
948 58
948 1444
949 29
949 58
949 68
949 218
949 664
949 669
950 28
950 58
951 29
951 58
952 30
952 59
952 135
952 1117
953 59
953 228
953 244
953 579
953 591
954 59
954 136
954 178
955 59
956 59
956 337
956 686
956 2058
957 60
957 111
957 224
957 352
957 408
958 33
958 60
959 60
960 61
960 96
960 224
960 303
960 1670
961 33
961 61
961 276
961 1232
962 61
962 410
962 967
962 2169
963 61
963 197
963 365
963 1232
964 61
964 83
964 362
964 378
964 1180
965 61
965 276
965 378
966 61
967 61
967 83
967 131
967 962
967 1127
967 1131
967 1191
968 62
968 1659
969 21
969 36
969 62
970 62
971 36
971 62
971 547
972 36
972 62
972 127
972 658
973 62
973 1346
973 1411
973 1413
973 1438
974 63
974 115
974 359
974 974
975 63
976 63
976 978
976 1252
977 63
977 237
978 63
978 242
978 976
978 1252
978 1716
978 1718
978 1787
979 63
979 70
979 115
979 874
979 1855
980 63
980 115
980 359
981 23
981 63
982 32
982 64
982 715
982 720
982 2170
983 64
983 161
983 984
983 987
983 2171
984 64
984 736
984 983
984 987
985 64
985 986
985 2171
986 64
986 985
986 987
986 1462
986 2173
987 64
987 161
987 983
987 984
987 986
987 2172
988 64
989 65
990 30
990 65
991 30
991 65
991 245
992 65
992 245
993 12
993 65
993 478
993 2174
994 65
994 74
994 120
994 134
994 367
994 416
995 66
996 66
996 470
996 471
996 1983
997 36
997 66
997 338
998 21
998 36
998 66
998 832
999 66
999 800
1000 66
1000 1873
1000 2121
1001 67
1001 1001
1002 67
1002 92
1002 353
1002 449
1002 2175
1003 67
1003 280
1003 330
1003 1790
1004 25
1004 67
1004 838
1005 67
1006 35
1006 67
1006 73
1006 706
1006 2176
1007 67
1007 102
1007 1207
1008 67
1008 291
1008 308
1008 494
1009 67
1009 132
1009 2164
1009 2177
1010 67
1010 853
1010 2179
1011 68
1011 314
1011 1017
1012 68
1013 68
1013 434
1013 1433
1014 68
1014 314
1014 376
1014 1845
1015 68
1015 395
1015 397
1015 424
1015 433
1016 68
1016 395
1016 424
1016 432
1016 433
1016 434
1017 68
1017 1011
1017 1641
1018 69
1018 663
1019 69
1019 387
1019 1021
1019 1561
1020 69
1021 69
1021 199
1021 387
1021 1019
1021 1026
1021 1116
1021 1561
1022 69
1022 448
1022 1023
1023 69
1023 115
1023 176
1023 184
1023 1022
1023 1396
1023 1443
1024 29
1024 69
1024 319
1025 69
1025 375
1025 1520
1025 1838
1025 2149
1026 69
1026 199
1026 387
1026 1021
1026 1997
1027 70
1028 70
1028 327
1028 874
1028 1855
1029 19
1029 70
1029 551
1030 60
1030 71
1030 319
1030 352
1030 518
1031 17
1031 71
1032 71
1032 352
1032 1033
1032 2003
1033 71
1033 350
1033 381
1033 382
1033 1032
1034 71
1035 71
1035 223
1035 319
1035 2180
1036 71
1036 352
1036 399
1037 71
1037 140
1038 72
1038 296
1039 72
1040 72
1040 427
1040 531
1041 36
1041 72
1041 273
1041 2181
1042 72
1042 140
1042 222
1042 426
1042 427
1042 428
1043 72
1043 93
1043 171
1043 296
1043 1044
1044 72
1044 296
1044 515
1044 652
1044 1043
1044 2182
1045 36
1045 73
1045 821
1046 73
1046 1460
1046 1467
1046 2183
1046 2184
1046 2185
1046 2250
1047 35
1047 73
1047 126
1047 1260
1048 73
1048 136
1048 446
1048 706
1048 1120
1049 73
1050 73
1050 215
1050 810
1051 73
1051 92
1051 790
1051 1088
1051 1617
1051 2186
1052 73
1052 1436
1052 1837
1052 1882
1053 74
1053 120
1053 134
1053 367
1053 1273
1054 74
1054 1059
1054 1391
1055 74
1055 120
1055 134
1055 1057
1056 74
1056 1059
1056 1062
1057 74
1057 120
1057 134
1057 416
1057 1055
1057 1273
1057 1328
1058 74
1058 134
1059 74
1059 174
1059 1054
1059 1056
1060 74
1060 1392
1060 2187
1061 74
1062 74
1062 1056
1062 1062
1063 79
1063 271
1063 1114
1063 1763
1063 2188
1063 2189
1064 96
1064 100
1064 1181
1064 1277
1064 1907
1064 2190
1065 217
1065 920
1065 1091
1065 2191
1066 36
1066 817
1066 1940
1066 2112
1067 1519
1067 2290
1067 2339
1068 326
1068 680
1068 781
1068 1349
1069 2193
1069 2194
1070 297
1070 491
1070 2195
1070 2196
1071 192
1071 299
1071 1100
1071 1227
1071 1537
1071 1540
1072 1072
1072 2197
1072 2198
1073 295
1073 785
1073 1911
1073 2099
1074 33
1074 637
1074 759
1074 1924
1075 557
1075 2016
1075 2017
1076 210
1076 380
1076 401
1076 1610
1076 1912
1077 850
1077 2145
1077 2199
1078 1449
1078 1453
1078 2200
1078 2201
1079 1654
1079 2202
1080 212
1080 307
1080 338
1080 814
1080 2203
1081 459
1081 465
1081 843
1081 2135
1082 25
1082 537
1082 1733
1083 2205
1083 2361
1084 48
1084 894
1084 1503
1084 2205
1085 2129
1085 2142
1085 2206
1086 217
1086 288
1086 922
1086 1360
1086 1631
1086 1760
1087 3
1087 36
1087 182
1087 187
1087 294
1087 300
1087 1370
1087 1824
1087 1918
1087 2043
1087 2207
1088 112
1088 211
1088 483
1088 708
1088 1051
1088 1619
1088 1620
1088 2186
1089 226
1089 1461
1089 1677
1089 2024
1090 1455
1090 1705
1091 1065
1091 2211
1091 2212
1092 33
1092 1792
1093 804
1093 1980
1094 1930
1094 1966
1095 2213
1095 2214
1096 118
1096 172
1096 2215
1097 124
1097 260
1097 285
1097 1474
1097 2210
1097 2216
1098 364
1098 552
1098 2217
1098 2218
1099 135
1099 2219
1099 2220
1100 192
1100 299
1100 1071
1100 1539
1100 2221
1100 2222
1101 34
1101 1113
1102 1102
1103 76
1103 2223
1104 77
1104 1107
1105 100
1105 1199
1105 1202
1105 2224
1105 2225
1106 1743
1107 77
1107 526
1107 1104
1107 1108
1107 1169
1108 77
1108 1107
1108 2226
1109 78
1109 1111
1110 78
1110 2227
1111 78
1111 1109
1111 2228
1112 78
1113 78
1113 1101
1114 79
1114 1063
1115 79
1115 284
1115 312
1115 319
1116 79
1116 140
1116 248
1116 1021
1116 2036
1116 2212
1117 79
1117 223
1117 319
1117 562
1117 952
1118 79
1119 80
1119 175
1119 839
1119 1426
1119 2000
1120 80
1120 135
1120 136
1120 1048
1120 1340
1121 80
1121 136
1122 81
1122 173
1122 588
1122 1309
1122 2229
1123 81
1123 241
1124 82
1124 1124
1125 36
1125 82
1126 83
1126 1180
1127 83
1127 131
1127 410
1127 967
1127 1132
1128 83
1128 1128
1128 1132
1128 2230
1129 83
1129 95
1129 98
1129 131
1129 1193
1129 2231
1130 83
1130 1662
1131 83
1131 98
1131 967
1131 1194
1132 83
1132 1127
1132 1128
1132 1190
1133 36
1133 84
1134 84
1134 329
1134 403
1134 553
1134 558
1134 2232
1135 85
1135 1135
1135 2233
1136 85
1136 1136
1137 1235
1137 2234
1138 86
1138 2214
1139 86
1139 1488
1140 23
1140 87
1141 87
1141 221
1141 236
1141 1389
1141 1645
1141 1652
1142 220
1142 903
1142 1659
1142 1993
1143 856
1143 2235
1144 1145
1145 1144
1145 1145
1146 89
1146 349
1146 1147
1147 36
1147 89
1147 293
1147 1146
1148 89
1148 124
1148 333
1148 1285
1149 36
1149 89
1149 2237
1150 89
1150 1151
1151 89
1151 254
1151 390
1151 1150
1151 1747
1152 90
1152 2238
1153 33
1153 90
1153 133
1153 384
1153 1364
1154 90
1154 230
1154 347
1154 369
1154 391
1155 35
1155 90
1155 347
1156 90
1156 321
1157 90
1157 2239
1158 91
1158 547
1159 91
1159 547
1159 811
1160 36
1160 91
1160 811
1161 91
1161 119
1161 795
1161 814
1161 1162
1162 91
1162 119
1162 795
1162 1161
1163 91
1163 119
1163 2240
1164 92
1164 1164
1165 92
1165 1166
1166 92
1166 207
1166 1165
1167 93
1167 123
1167 200
1167 431
1167 2241
1168 93
1168 2159
1169 93
1169 1107
1169 2226
1169 2242
1170 93
1170 123
1170 277
1171 93
1171 229
1171 302
1171 2009
1172 36
1172 94
1172 816
1173 36
1173 94
1174 94
1174 204
1174 1591
1175 36
1175 94
1175 325
1175 341
1176 94
1176 1177
1177 94
1177 557
1177 1176
1178 95
1178 1179
1179 95
1179 98
1179 1178
1179 1192
1179 1314
1180 95
1180 131
1180 964
1180 1126
1181 96
1181 1064
1181 1201
1181 2243
1182 96
1182 477
1182 2239
1183 88
1183 96
1184 96
1184 408
1185 96
1185 114
1185 116
1185 660
1185 1257
1186 97
1186 190
1186 429
1186 430
1186 529
1186 1738
1187 97
1187 190
1187 2244
1188 97
1188 1963
1189 97
1189 190
1189 358
1189 431
1190 98
1190 1132
1191 98
1191 192
1191 410
1191 967
1191 2231
1192 98
1192 1179
1192 1193
1193 98
1193 410
1193 1129
1193 1192
1193 2231
1194 98
1194 1131
1194 1537
1194 2245
1195 99
1195 1195
1196 83
1196 99
1196 353
1196 355
1196 357
1197 34
1197 99
1198 99
1198 353
1198 355
1198 357
1198 363
1199 100
1199 857
1199 1105
1199 2225
1199 2247
1200 100
1200 1200
1201 100
1201 1181
1201 2243
1201 2248
1202 100
1202 1105
1202 2224
1203 101
1203 233
1203 498
1203 627
1203 683
1203 699
1204 101
1204 627
1205 31
1205 102
1206 34
1206 102
1206 443
1206 586
1207 102
1207 1007
1208 103
1208 194
1209 103
1209 123
1209 190
1209 659
1209 1282
1209 1544
1210 103
1210 1211
1211 103
1211 1210
1212 104
1212 1213
1213 104
1213 301
1213 1212
1213 2249
1214 104
1214 2250
1215 104
1215 213
1215 1623
1215 1624
1216 104
1216 265
1216 304
1216 582
1216 861
1216 863
1216 886
1217 105
1217 110
1218 105
1218 165
1218 167
1218 1699
1219 105
1219 710
1219 1954
1219 2064
1220 105
1221 106
1221 1223
1221 1225
1222 30
1222 106
1223 106
1223 1221
1223 1225
1223 1226
1224 106
1225 106
1225 1221
1225 1223
1225 1843
1226 106
1226 1223
1227 107
1227 1071
1228 107
1229 108
1229 1644
1230 108
1231 108
1231 177
1231 1849
1231 2251
1231 2252
1232 108
1232 219
1232 239
1232 440
1232 878
1232 893
1232 961
1232 963
1232 1339
1233 109
1233 2253
1234 109
1235 109
1235 1137
1235 1274
1236 110
1236 230
1237 110
1238 111
1238 426
1239 25
1239 111
1239 171
1239 374
1240 30
1240 111
1240 185
1241 111
1242 25
1242 111
1243 112
1243 790
1243 1259
1243 1627
1244 112
1244 2184
1245 113
1245 2254
1246 113
1246 2025
1246 2255
1247 113
1247 769
1247 2256
1248 114
1248 231
1249 128
1249 172
1249 1308
1250 115
1251 69
1251 115
1252 63
1252 115
1252 976
1252 978
1252 1718
1252 1719
1252 1787
1253 116
1253 2188
1254 114
1254 116
1255 116
1256 116
1256 136
1256 1258
1257 114
1257 116
1257 1185
1258 116
1258 1256
1259 117
1259 317
1259 694
1259 1243
1259 1620
1260 117
1260 126
1260 620
1260 1047
1260 1960
1261 117
1261 310
1262 118
1262 125
1262 172
1262 390
1262 2257
1263 118
1263 2215
1264 118
1264 125
1264 390
1264 2257
1265 118
1265 125
1265 172
1265 390
1266 118
1266 125
1266 172
1266 390
1266 398
1267 118
1267 172
1268 91
1268 119
1269 119
1269 286
1269 821
1270 119
1270 356
1270 832
1270 2121
1271 120
1271 1393
1271 2258
1272 120
1272 905
1273 120
1273 134
1273 367
1273 416
1273 1053
1273 1057
1274 120
1274 1235
1274 2190
1275 120
1275 2259
1276 120
1276 367
1276 1905
1277 120
1277 1064
1278 34
1278 121
1279 121
1280 122
1281 122
1281 1281
1282 123
1282 279
1282 1209
1282 1283
1283 123
1283 279
1283 1282
1283 1544
1283 1789
1284 93
1284 123
1285 124
1285 128
1285 1148
1285 1796
1286 124
1286 333
1287 66
1287 124
1287 338
1287 1416
1288 36
1288 124
1288 125
1288 338
1289 124
1289 167
1289 307
1290 124
1290 1541
1291 124
1291 260
1291 285
1291 293
1291 492
1291 866
1292 124
1292 260
1292 285
1292 293
1293 125
1293 1744
1294 125
1294 1297
1294 1494
1295 36
1295 125
1296 125
1296 1619
1297 119
1297 125
1297 193
1297 1294
1298 81
1298 125
1299 126
1299 169
1299 2260
1300 34
1300 126
1301 36
1301 127
1301 1305
1302 36
1302 127
1303 36
1303 127
1303 1303
1304 36
1304 127
1304 137
1304 2175
1305 36
1305 127
1305 1301
1306 127
1306 558
1307 128
1307 1308
1308 128
1308 1249
1308 1307
1309 128
1309 333
1309 1122
1310 129
1311 33
1311 129
1312 21
1312 130
1313 130
1314 131
1314 1179
1315 131
1316 132
1316 1318
1317 132
1318 132
1318 375
1318 1316
1319 132
1319 395
1319 668
1320 133
1320 1364
1321 133
1322 133
1322 340
1322 1323
1323 133
1323 1322
1323 1531
1323 2261
1324 134
1324 174
1325 134
1325 174
1325 416
1325 1629
1325 2262
1326 74
1326 134
1326 174
1327 134
1327 1498
1328 134
1328 174
1328 1057
1329 135
1329 197
1329 365
1330 135
1330 684
1331 135
1331 421
1331 575
1331 577
1331 2022
1332 135
1333 135
1333 351
1333 878
1333 1725
1334 30
1334 135
1334 170
1334 337
1335 135
1335 2220
1336 135
1336 219
1337 136
1337 197
1337 321
1337 1553
1337 1554
1338 136
1338 2133
1338 2263
1339 136
1339 1232
1339 1486
1340 136
1340 1120
1341 137
1341 322
1342 137
1343 137
1343 2162
1344 138
1345 138
1345 838
1346 138
1346 973
1346 1413
1347 138
1347 154
1347 1347
1348 35
1348 139
1349 139
1349 1068
1350 139
1351 140
1351 257
1351 283
1351 1353
1352 28
1352 140
1352 222
1353 140
1353 257
1353 283
1353 1351
1353 1753
1354 140
1354 199
1354 387
1355 140
1355 855
1355 2264
1356 141
1356 769
1356 1358
1357 34
1357 141
1358 141
1358 250
1358 313
1358 1356
1359 33
1359 2094
1360 217
1360 1086
1360 2265
1361 1760
1361 2265
1362 142
1362 1374
1362 1388
1363 143
1364 143
1364 824
1364 1153
1364 1320
1364 1365
1365 143
1365 824
1365 1364
1366 859
1366 1518
1366 1605
1367 1605
1368 35
1368 144
1368 487
1369 145
1370 145
1370 412
1370 1087
1371 22
1371 145
1371 1756
1372 146
1372 313
1372 1382
1373 146
1374 142
1374 147
1374 1362
1375 147
1375 1448
1375 2150
1375 2266
1376 147
1376 149
1377 147
1377 234
1377 854
1378 147
1378 854
1378 2267
1379 142
1379 147
1380 146
1380 148
1380 751
1381 148
1381 536
1381 755
1382 148
1382 183
1382 1372
1382 1843
1383 148
1383 752
1384 852
1384 1386
1384 1740
1385 1646
1385 1700
1386 645
1386 1384
1386 1740
1386 2147
1387 149
1387 274
1387 1783
1387 1784
1388 149
1388 1362
1388 1783
1389 236
1389 1141
1389 1646
1389 1648
1389 1652
1390 220
1390 282
1390 603
1390 1481
1390 1599
1391 150
1391 1054
1391 1392
1391 1394
1392 150
1392 1060
1392 1391
1393 150
1393 1271
1393 1905
1394 150
1394 1391
1395 302
1395 1397
1395 1504
1395 1826
1396 1023
1396 1826
1396 2251
1397 834
1397 1395
1397 1826
1398 151
1398 778
1398 1548
1398 2096
1399 151
1399 778
1399 1655
1399 2095
1399 2268
1400 201
1400 202
1400 203
1400 1570
1400 1571
1400 1577
1400 2269
1401 17
1401 160
1401 1544
1402 192
1402 1403
1402 1539
1403 192
1403 299
1403 1402
1403 1539
1403 2270
1404 152
1404 180
1404 1511
1404 1512
1405 152
1405 457
1405 796
1406 153
1406 900
1406 1407
1407 153
1407 270
1407 1406
1407 1949
1408 28
1408 154
1408 399
1409 154
1409 535
1409 1781
1410 155
1410 840
1410 889
1411 155
1411 371
1411 379
1411 616
1411 973
1412 155
1412 322
1413 155
1413 584
1413 973
1413 1346
1414 156
1414 171
1414 2142
1415 156
1415 2041
1416 156
1416 829
1416 1287
1417 156
1417 2271
1418 46
1418 156
1418 316
1419 157
1419 258
1419 1513
1420 157
1420 209
1421 157
1421 209
1421 1607
1422 34
1422 157
1422 660
1423 158
1423 305
1423 1424
1424 158
1424 309
1424 1423
1424 1836
1425 158
1425 305
1425 1835
1426 175
1426 302
1426 1119
1426 1555
1426 1684
1426 1849
1427 862
1427 1819
1427 1820
1427 1822
1427 2272
1428 1429
1428 1430
1428 1583
1428 1586
1429 365
1429 1428
1429 1431
1429 1586
1430 1428
1430 1431
1430 1586
1431 1429
1431 1430
1431 1583
1432 257
1432 1711
1432 1756
1432 2089
1433 249
1433 669
1433 1013
1433 2053
1433 2273
1434 1451
1434 1951
1434 2274
1435 929
1435 930
1435 2167
1436 344
1436 896
1436 1052
1436 1856
1436 1883
1436 1884
1437 69
1437 184
1437 1838
1438 300
1438 379
1438 973
1438 1455
1438 1708
1438 2274
1439 38
1439 2030
1439 2274
1440 225
1440 1672
1440 1724
1440 2275
1441 159
1441 1441
1441 2276
1442 31
1442 159
1442 164
1443 69
1443 160
1443 1023
1444 33
1444 160
1444 948
1444 2277
1445 1476
1445 1928
1445 2278
1446 166
1446 404
1446 1928
1447 23
1447 166
1447 1928
1448 1375
1448 2150
1448 2266
1449 2
1449 1078
1449 1453
1449 2200
1450 219
1450 365
1450 754
1450 891
1450 1616
1450 1637
1451 1434
1451 1516
1451 2279
1452 212
1452 2101
1452 2104
1452 2280
1453 2
1453 192
1453 1078
1453 1449
1453 1538
1453 2281
1454 2
1454 2281
1454 2282
1455 238
1455 1090
1455 1438
1455 1708
1456 2036
1456 2283
1457 315
1457 318
1457 1759
1457 1846
1457 1847
1458 264
1458 272
1458 1769
1458 2284
1459 36
1459 89
1459 172
1459 2257
1460 1046
1460 1467
1460 2185
1461 879
1461 1089
1461 1562
1462 64
1462 161
1462 986
1463 221
1463 394
1463 1584
1463 1649
1463 1650
1463 1925
1464 394
1464 769
1464 1587
1464 1703
1464 2256
1465 433
1465 613
1465 678
1465 1523
1466 28
1466 198
1466 1560
1467 494
1467 1046
1467 1460
1467 1791
1468 33
1468 219
1468 1639
1469 1606
1469 2285
1470 752
1470 1483
1470 2025
1471 396
1471 1532
1472 164
1473 33
1473 164
1474 1097
1474 1621
1474 2216
1475 2216
1476 165
1476 718
1476 1445
1477 166
1478 32
1478 167
1479 168
1479 613
1479 864
1480 168
1480 613
1480 864
1480 2287
1481 168
1481 567
1481 1390
1481 1734
1481 2288
1482 168
1482 289
1483 169
1483 733
1483 1470
1484 169
1484 616
1485 169
1485 599
1485 1501
1485 2212
1485 2289
1486 170
1486 216
1486 1339
1487 170
1487 195
1487 851
1488 170
1488 186
1488 1139
1488 1525
1489 86
1489 170
1490 171
1490 296
1490 382
1490 1848
1491 171
1491 292
1491 1961
1492 30
1492 171
1492 292
1492 319
1493 171
1493 411
1494 125
1494 172
1494 1294
1495 173
1495 209
1496 173
1496 1718
1497 173
1497 241
1497 628
1498 174
1498 1327
1499 175
1499 302
1499 509
1499 1500
1500 175
1500 302
1500 1499
1501 176
1501 331
1501 1485
1502 176
1502 292
1502 439
1502 441
1502 1971
1503 177
1503 839
1503 893
1503 1084
1503 1505
1504 177
1504 1395
1504 2252
1505 177
1505 893
1505 1503
1506 178
1506 1506
1506 1709
1507 178
1507 439
1507 441
1508 146
1508 179
1508 1510
1509 179
1509 873
1510 179
1510 1508
1510 1739
1511 152
1511 180
1511 1404
1512 180
1512 1404
1513 157
1513 181
1513 1419
1514 181
1514 258
1514 313
1514 748
1514 1663
1515 181
1516 182
1516 217
1516 1451
1517 182
1518 183
1518 720
1518 1366
1519 183
1519 751
1519 1067
1519 2290
1519 2339
1520 184
1520 375
1520 1025
1521 30
1521 185
1521 224
1522 79
1522 185
1522 284
1522 668
1523 185
1523 671
1523 1465
1524 30
1524 186
1525 186
1525 219
1525 1488
1526 187
1526 332
1526 1601
1527 187
1527 332
1528 35
1528 188
1528 191
1529 35
1529 188
1529 191
1529 324
1530 188
1530 594
1530 617
1531 4
1531 189
1531 1323
1531 2291
1532 189
1532 1471
1532 1532
1533 189
1533 371
1533 697
1534 190
1534 540
1534 1962
1535 191
1535 545
1535 1536
1536 191
1536 388
1536 545
1536 1535
1537 192
1537 1071
1537 1194
1537 1540
1537 2245
1538 192
1538 299
1538 1453
1539 192
1539 1100
1539 1402
1539 1403
1539 2221
1540 192
1540 299
1540 1071
1540 1537
1541 193
1541 1290
1542 193
1542 205
1542 442
1543 17
1543 45
1543 194
1543 871
1544 194
1544 531
1544 1209
1544 1283
1544 1401
1545 18
1545 194
1545 226
1546 195
1546 686
1546 851
1546 2223
1547 195
1547 519
1548 30
1548 195
1548 718
1548 1398
1549 195
1549 851
1549 2292
1550 196
1550 1726
1551 196
1551 409
1551 813
1552 33
1552 196
1552 230
1552 748
1553 197
1553 321
1553 1337
1554 197
1554 302
1554 321
1554 1337
1555 197
1555 302
1555 321
1555 365
1555 1426
1555 1849
1556 197
1557 198
1558 198
1558 257
1558 1753
1558 2293
1559 198
1559 308
1559 326
1559 494
1560 198
1560 357
1560 1466
1561 199
1561 375
1561 387
1561 1019
1561 1021
1562 200
1562 227
1562 1461
1563 63
1563 200
1563 317
1564 201
1564 2294
1564 2295
1565 201
1565 278
1565 1572
1566 201
1566 1566
1567 201
1567 202
1567 203
1567 278
1567 386
1568 201
1568 203
1568 368
1568 1580
1568 2296
1569 201
1569 202
1570 201
1570 203
1570 278
1570 1400
1571 201
1571 202
1571 203
1571 1400
1571 1577
1572 201
1572 203
1572 278
1572 773
1572 1565
1573 201
1573 202
1573 386
1574 202
1574 203
1574 1579
1575 202
1575 203
1575 1576
1576 202
1576 203
1576 1575
1576 1590
1577 202
1577 1400
1577 1571
1578 201
1578 202
1578 278
1578 386
1579 202
1579 1574
1580 202
1580 203
1580 368
1580 1568
1580 1585
1581 34
1581 203
1582 201
1582 202
1582 203
1583 203
1583 1428
1583 1431
1584 203
1584 236
1584 1463
1585 203
1585 368
1585 1580
1585 2296
1586 203
1586 1428
1586 1429
1586 1430
1587 203
1587 1464
1587 1925
1588 203
1588 2297
1589 203
1589 1646
1589 1700
1590 203
1590 1576
1591 204
1591 341
1591 828
1591 1174
1591 1875
1592 204
1592 329
1593 204
1593 828
1593 866
1594 204
1594 828
1594 866
1594 2298
1595 205
1595 583
1595 588
1596 205
1597 206
1597 526
1597 1597
1598 206
1599 206
1599 1390
1599 1640
1599 2288
1600 207
1601 187
1601 207
1601 1526
1602 207
1602 898
1602 899
1602 900
1602 2300
1603 208
1603 1605
1603 1606
1604 208
1605 208
1605 1366
1605 1367
1605 1603
1606 208
1606 1469
1606 1603
1607 209
1607 1421
1607 1607
1607 2302
1608 209
1608 1649
1608 2294
1608 2303
1609 140
1609 209
1609 312
1609 1753
1610 210
1610 380
1610 401
1610 1076
1611 210
1611 402
1611 835
1612 210
1612 400
1612 653
1613 210
1613 380
1613 400
1613 401
1613 402
1614 210
1614 1615
1615 210
1615 1614
1616 211
1616 891
1616 1450
1617 28
1617 211
1617 1051
1618 24
1618 211
1619 211
1619 1088
1619 1296
1619 2304
1620 211
1620 708
1620 1088
1620 1259
1621 212
1621 338
1621 1474
1622 213
1622 414
1622 1947
1623 213
1623 301
1623 1215
1624 182
1624 213
1624 1215
1625 35
1625 214
1625 2305
1626 35
1626 214
1626 791
1627 215
1627 1243
1628 216
1628 1628
1629 216
1629 416
1629 1325
1630 217
1630 1630
1631 217
1631 1086
1632 29
1632 217
1632 920
1632 2191
1633 23
1633 218
1633 370
1634 218
1634 627
1634 1682
1635 218
1636 63
1636 219
1636 377
1637 219
1637 891
1637 1450
1638 219
1638 2306
1639 219
1639 644
1639 1468
1640 220
1640 282
1640 649
1640 1599
1641 68
1641 220
1641 1017
1642 138
1642 220
1643 220
1643 291
1643 668
1644 220
1644 1229
1644 1754
1645 221
1645 1141
1646 221
1646 236
1646 1385
1646 1389
1646 1589
1647 34
1647 221
1647 236
1648 221
1648 236
1648 1389
1648 1648
1649 221
1649 1463
1649 1608
1649 2307
1650 221
1650 1463
1650 2307
1651 32
1651 221
1651 236
1652 221
1652 236
1652 1141
1652 1389
1653 221
1653 236
1653 727
1654 222
1654 1079
1655 222
1655 1399
1655 2095
1656 34
1656 222
1657 223
1657 537
1658 168
1658 223
1658 288
1659 223
1659 968
1659 1142
1660 138
1660 223
1661 223
1661 537
1661 604
1662 223
1662 1130
1663 224
1663 258
1663 303
1663 1514
1664 23
1664 224
1665 224
1665 378
1666 224
1666 1901
1667 61
1667 224
1667 276
1668 224
1668 303
1668 834
1669 225
1670 224
1670 225
1670 303
1670 960
1671 225
1671 2308
1672 225
1672 1440
1673 100
1673 225
1673 2262
1674 224
1674 225
1674 303
1675 226
1676 226
1676 228
1676 244
1676 579
1677 226
1677 1089
1678 227
1679 227
1679 237
1680 227
1680 237
1680 850
1681 228
1681 244
1681 503
1681 579
1682 228
1682 779
1682 1634
1683 228
1683 244
1683 579
1684 229
1684 302
1684 1426
1684 1686
1685 229
1685 322
1685 1685
1686 229
1686 302
1686 1684
1687 230
1687 347
1687 2065
1688 30
1688 65
1688 230
1689 30
1689 230
1690 231
1690 858
1691 231
1691 422
1691 1692
1691 2310
1692 231
1692 1691
1692 2310
1693 231
1693 422
1693 892
1693 896
1693 2311
1694 211
1694 231
1694 406
1695 44
1695 232
1696 22
1696 233
1697 234
1697 1697
1698 2021
1699 235
1699 1218
1699 1954
1700 236
1700 1385
1700 1589
1701 221
1701 236
1702 32
1702 236
1702 727
1703 236
1703 1464
1704 237
1705 238
1705 1090
1706 92
1706 238
1707 238
1708 238
1708 1438
1708 1455
1709 239
1709 1506
1710 239
1711 34
1711 240
1711 1432
1712 240
1712 770
1713 241
1713 458
1713 471
1714 241
1714 2312
1715 242
1716 242
1716 978
1716 1718
1717 33
1717 242
1718 242
1718 978
1718 1252
1718 1496
1718 1716
1719 242
1719 1252
1719 1787
1720 34
1720 243
1721 243
1722 31
1722 73
1722 244
1722 618
1723 244
1723 579
1724 245
1724 1440
1724 1944
1724 2275
1725 245
1725 538
1725 1333
1726 245
1726 1550
1727 25
1727 246
1727 247
1728 246
1728 411
1728 1730
1729 246
1730 246
1730 1728
1731 247
1731 1731
1732 247
1732 615
1733 248
1733 1082
1734 248
1734 413
1734 1481
1735 249
1736 249
1736 655
1736 2053
1737 249
1737 1755
1738 430
1738 528
1738 1186
1738 2242
1739 250
1739 1510
1740 251
1740 852
1740 1384
1740 1386
1740 2054
1741 251
1741 647
1741 852
1741 1742
1742 251
1742 647
1742 1741
1742 2313
1743 252
1743 256
1743 396
1743 1106
1743 2203
1744 252
1744 1293
1745 36
1745 252
1745 338
1745 468
1746 240
1746 253
1747 36
1747 254
1747 445
1747 1151
1748 254
1748 2240
1749 255
1749 300
1750 255
1750 865
1750 897
1750 1800
1751 31
1751 35
1751 256
1751 270
1752 220
1752 257
1752 259
1752 661
1753 257
1753 283
1753 1353
1753 1558
1753 1609
1754 257
1754 1644
1754 2277
1755 257
1755 382
1755 1737
1755 1913
1756 257
1756 259
1756 1371
1756 1432
1757 259
1757 643
1757 1973
1758 432
1758 1807
1758 2314
1759 266
1759 318
1759 1457
1759 1771
1759 1846
1760 263
1760 1086
1760 1361
1760 1767
1761 339
1761 409
1761 855
1761 1868
1762 264
1762 1768
1762 2315
1763 536
1763 550
1763 844
1763 1063
1763 1868
1763 1872
1764 262
1764 547
1764 811
1765 262
1765 297
1765 547
1765 811
1766 217
1766 263
1766 2265
1767 263
1767 332
1767 923
1767 1760
1768 264
1768 272
1768 1762
1768 2284
1769 264
1769 272
1769 1458
1770 265
1770 861
1770 863
1770 865
1771 266
1771 315
1771 318
1771 1759
1772 36
1772 267
1772 285
1772 403
1773 36
1773 267
1774 36
1774 268
1774 269
1774 831
1775 268
1775 799
1776 269
1776 455
1776 2316
1777 269
1778 269
1778 1976
1779 270
1779 2317
1780 31
1780 35
1780 270
1780 789
1781 159
1781 271
1781 1409
1782 2013
1783 274
1783 1387
1783 1388
1783 1783
1784 149
1784 274
1784 1387
1785 274
1786 275
1786 2318
1787 275
1787 978
1787 1252
1787 1719
1788 275
1789 279
1789 1283
1790 280
1790 320
1790 330
1790 1003
1791 280
1791 1467
1792 281
1792 1092
1793 248
1793 282
1794 282
1794 1795
1794 2041
1795 282
1795 1794
1795 2040
1796 285
1796 307
1796 338
1796 1285
1797 286
1797 544
1797 806
1798 286
1799 287
1800 255
1800 287
1800 294
1800 1750
1801 288
1802 288
1802 601
1802 2038
1803 289
1803 698
1804 36
1804 94
1804 290
1804 329
1805 204
1805 290
1805 809
1806 290
1807 291
1807 395
1807 432
1807 1758
1808 291
1809 176
1809 292
1809 664
1810 292
1810 412
1811 294
1811 298
1811 301
1811 1825
1812 294
1812 298
1812 300
1812 301
1813 294
1813 301
1813 379
1813 895
1813 897
1814 1
1814 295
1814 884
1814 2148
1815 296
1815 2133
1816 296
1816 335
1816 427
1816 2319
1817 297
1817 466
1817 2195
1818 20
1818 36
1818 297
1819 298
1819 1427
1819 1820
1820 298
1820 862
1820 1427
1820 1819
1821 298
1821 300
1821 304
1821 862
1822 298
1822 937
1822 1427
1823 299
1823 2222
1824 300
1824 415
1824 1087
1825 298
1825 301
1825 1811
1826 302
1826 894
1826 1395
1826 1396
1826 1397
1827 304
1827 861
1827 863
1827 2320
1828 305
1828 309
1828 822
1828 1830
1829 305
1829 306
1829 309
1830 305
1830 306
1830 309
1830 1828
1831 306
1832 36
1832 307
1833 69
1833 308
1834 69
1834 308
1834 494
1835 309
1835 1425
1836 36
1836 309
1836 324
1836 1424
1837 310
1837 331
1837 344
1837 1052
1838 311
1838 1025
1838 1437
1838 2149
1839 29
1839 311
1840 52
1840 311
1841 69
1841 312
1842 312
1842 397
1843 250
1843 313
1843 1225
1843 1382
1844 313
1844 336
1844 1870
1844 2321
1845 314
1845 376
1845 568
1845 1014
1846 315
1846 318
1846 1457
1846 1759
1847 315
1847 318
1847 1457
1848 171
1848 296
1848 319
1848 1490
1849 321
1849 839
1849 1231
1849 1426
1849 1555
1850 219
1850 321
1850 365
1851 31
1851 323
1852 324
1852 2238
1853 2181
1854 326
1855 327
1855 874
1855 979
1855 1028
1856 327
1856 535
1856 1436
1857 327
1858 328
1859 36
1859 329
1859 444
1860 330
1860 417
1861 330
1861 2144
1862 330
1862 849
1862 2322
1863 332
1863 915
1863 918
1864 333
1865 23
1865 32
1865 334
1865 578
1866 334
1866 724
1866 1877
1867 45
1867 335
1868 336
1868 340
1868 1761
1868 1763
1869 148
1869 336
1870 336
1870 1844
1871 170
1871 195
1871 337
1872 339
1872 340
1872 1763
1873 339
1873 1000
1874 340
1875 341
1875 1591
1876 91
1876 341
1877 342
1877 428
1877 1866
1878 342
1878 423
1878 428
1879 342
1880 343
1880 365
1880 377
1880 896
1880 1896
1881 343
1882 344
1882 1052
1882 1883
1883 344
1883 1436
1883 1882
1884 344
1884 1436
1885 345
1885 346
1885 1890
1886 345
1887 345
1887 346
1887 349
1887 1887
1887 1890
1888 347
1888 369
1888 370
1888 404
1888 679
1889 36
1889 349
1889 2323
1890 345
1890 346
1890 349
1890 1885
1890 1887
1891 4
1891 2324
1892 1896
1892 2325
1893 35
1893 1992
1894 45
1894 351
1895 354
1895 1902
1895 2326
1896 354
1896 365
1896 754
1896 1880
1896 1892
1897 354
1898 355
1899 262
1899 356
1899 470
1900 356
1900 459
1900 465
1901 362
1901 1666
1902 363
1902 1895
1903 36
1903 364
1904 1996
1905 367
1905 1276
1905 1393
1906 120
1906 367
1907 367
1907 1064
1908 372
1909 373
1910 374
1910 841
1911 379
1911 1073
1912 380
1912 1076
1913 381
1913 1755
1914 381
1914 382
1915 384
1915 774
1916 384
1916 2161
1917 385
1917 469
1917 822
1918 385
1918 1087
1919 20
1919 388
1919 389
1919 450
1920 20
1920 389
1920 449
1920 453
1921 12
1921 392
1921 474
1921 1985
1922 392
1922 478
1922 2174
1922 2327
1923 393
1923 1923
1924 394
1924 1074
1925 394
1925 1463
1925 1587
1926 395
1926 665
1927 35
1927 396
1928 397
1928 1445
1928 1446
1928 1447
1929 397
1930 397
1930 1094
1931 397
1931 664
1931 690
1932 398
1932 1932
1933 398
1934 3
1934 399
1934 2328
1935 210
1935 400
1935 402
1936 400
1937 36
1937 94
1937 403
1938 36
1938 403
1938 827
1939 94
1939 403
1940 405
1940 1066
1941 36
1941 405
1942 139
1942 406
1943 407
1944 408
1944 1724
1944 2275
1945 224
1945 225
1945 303
1945 408
1946 83
1946 410
1947 414
1947 1622
1948 104
1948 2249
1949 153
1949 415
1949 1407
1950 238
1950 417
1950 1952
1951 417
1951 1434
1951 2274
1952 417
1952 1950
1952 1953
1953 417
1953 1952
1954 275
1954 419
1954 1219
1954 1699
1955 419
1956 420
1956 667
1957 23
1957 421
1958 422
1958 770
1959 423
1959 428
1959 572
1960 425
1960 700
1960 1260
1961 427
1961 1491
1962 429
1962 872
1962 1534
1963 431
1963 1188
1964 433
1964 2329
1965 433
1965 611
1965 612
1966 436
1966 1094
1967 436
1967 1969
1968 436
1968 2330
1969 438
1969 1967
1970 440
1970 516
1971 441
1971 922
1971 1502
1972 443
1973 443
1973 813
1973 1757
1974 445
1975 447
1975 510
1976 455
1976 1778
1977 460
1977 2312
1978 461
1979 462
1980 464
1980 1093
1981 464
1981 2166
1982 466
1983 470
1983 798
1983 996
1984 474
1984 478
1985 476
1985 1921
1986 477
1987 12
1987 392
1987 473
1987 475
1987 478
1988 481
1988 620
1989 482
1990 13
1990 35
1990 487
1991 13
1991 35
1991 488
1992 488
1992 630
1992 1893
1993 493
1993 1142
1994 494
1994 2209
1995 499
1996 500
1996 1904
1997 69
1997 199
1997 387
1997 501
1997 1026
1998 13
1998 35
1998 503
1999 506
2000 506
2000 839
2000 1119
2001 244
2001 507
2002 517
2003 518
2003 1032
2004 520
2005 521
2005 527
2006 93
2006 521
2007 522
2008 532
2009 534
2009 1171
2009 2333
2010 108
2010 534
2011 535
2012 19
2012 70
2012 538
2013 539
2013 872
2013 1782
2014 36
2014 545
2015 36
2015 552
2016 36
2016 557
2016 1075
2017 557
2017 1075
2018 21
2018 559
2019 563
2020 23
2020 571
2021 573
2021 1698
2022 575
2022 1331
2023 578
2023 2075
2024 579
2024 1089
2025 581
2025 1246
2025 1470
2026 582
2027 582
2027 860
2027 863
2027 865
2028 583
2028 588
2029 586
2029 945
2030 589
2030 1439
2031 35
2031 591
2032 592
2032 2335
2033 592
2033 2189
2033 2335
2034 593
2035 31
2035 596
2036 599
2036 1116
2036 1456
2037 600
2038 601
2038 1802
2039 248
2039 604
2040 605
2040 1795
2041 605
2041 1415
2041 1794
2042 606
2042 2211
2043 610
2043 1087
2043 2044
2044 610
2044 2043
2044 2207
2045 36
2045 622
2046 36
2046 622
2046 832
2047 636
2047 2047
2048 637
2048 754
2049 34
2049 641
2050 642
2051 643
2052 113
2052 644
2053 645
2053 675
2053 1433
2053 1736
2054 645
2054 1740
2055 654
2056 672
2057 676
2058 682
2058 686
2058 956
2059 687
2060 689
2061 691
2061 842
2062 692
2063 30
2063 693
2064 710
2064 1219
2065 712
2065 1687
2065 2066
2066 712
2066 2065
2067 714
2067 2337
2068 32
2068 715
2069 30
2069 715
2070 716
2070 2070
2071 719
2072 720
2073 723
2074 32
2074 2074
2075 725
2075 2023
2076 729
2077 731
2077 2077
2078 33
2078 738
2079 738
2080 739
2080 2338
2081 739
2082 740
2082 2082
2083 743
2084 222
2084 748
2085 749
2085 2170
2086 751
2086 2339
2087 31
2087 753
2088 755
2089 764
2089 1432
2090 767
2090 776
2090 2094
2091 34
2091 767
2092 771
2093 776
2094 776
2094 1359
2094 2090
2095 778
2095 1399
2095 1655
2096 151
2096 778
2096 1398
2097 781
2098 784
2099 153
2099 785
2099 1073
2100 36
2100 268
2100 269
2100 799
2101 800
2101 1452
2102 802
2103 36
2103 2103
2104 805
2104 1452
2105 2109
2106 810
2107 215
2107 810
2108 811
2109 36
2109 814
2109 2105
2110 814
2111 816
2112 36
2112 817
2112 1066
2113 818
2114 819
2114 2115
2115 819
2115 2114
2115 2341
2116 820
2116 2192
2116 2217
2117 36
2117 820
2118 824
2119 57
2119 826
2120 827
2121 832
2121 1000
2121 1270
2122 834
2122 2342
2123 833
2123 835
2124 2272
2125 836
2126 837
2126 2344
2127 837
2128 838
2128 2345
2129 838
2129 1085
2130 839
2130 2346
2131 840
2131 2347
2132 841
2132 2348
2133 842
2133 1338
2133 1815
2134 842
2134 2349
2135 843
2135 1081
2136 843
2136 2350
2137 843
2138 222
2138 844
2139 844
2139 2351
2140 847
2140 848
2140 2352
2141 847
2142 848
2142 1085
2142 1414
2143 848
2144 849
2144 1861
2145 850
2145 1077
2145 2353
2146 850
2146 2354
2147 846
2147 852
2147 1386
2148 853
2148 884
2148 1814
2149 853
2149 1025
2149 1838
2150 854
2150 1375
2150 1448
2151 854
2152 857
2153 859
2154 46
2154 304
2154 865
2155 868
2155 869
2156 872
2157 1
2157 884
2157 2356
2158 884
2159 888
2159 1168
2159 2357
2160 888
2161 892
2161 1916
2162 894
2162 1343
2163 133
2163 896
2164 898
2164 1009
2165 903
2165 2165
2166 909
2166 1981
2167 929
2167 930
2167 1435
2168 92
2168 935
2169 98
2169 962
2170 982
2170 2085
2171 64
2171 983
2171 985
2172 64
2172 987
2172 2173
2173 64
2173 986
2173 2172
2174 993
2174 1922
2175 1002
2175 1304
2176 1006
2177 132
2177 1009
2178 40
2179 1010
2180 1035
2180 2358
2181 1041
2181 1853
2182 1044
2183 1046
2183 2185
2183 2360
2184 1046
2184 1244
2185 1046
2185 1460
2185 2183
2186 1051
2186 1088
2187 1060
2188 1063
2188 1253
2189 1063
2189 2033
2190 1064
2190 1274
2191 1065
2191 1632
2192 2116
2192 2217
2193 1069
2193 2193
2193 2194
2194 1069
2194 2193
2195 1070
2195 1817
2196 1070
2197 1072
2198 1072
2199 850
2199 1077
2200 1078
2200 1449
2201 1078
2202 1079
2203 1080
2203 1743
2204 2354
2205 1083
2205 1084
2206 1085
2207 1087
2207 2044
2208 0
2208 75
2209 1994
2209 2218
2210 1097
2210 2210
2211 1091
2211 2042
2212 1091
2212 1116
2212 1485
2213 1095
2214 1095
2214 1138
2215 1096
2215 1263
2216 1097
2216 1474
2216 1475
2217 1098
2217 2116
2217 2192
2218 1098
2218 2209
2219 1099
2220 1099
2220 1335
2221 192
2221 1100
2221 1539
2222 1100
2222 1823
2223 1103
2223 1546
2224 1105
2224 1202
2225 1105
2225 1199
2226 1108
2226 1169
2227 1110
2228 1111
2229 1122
2230 1128
2231 1129
2231 1191
2231 1193
2232 152
2232 180
2232 1134
2233 1135
2234 1137
2235 856
2235 1143
2235 2236
2236 88
2236 2235
2237 1149
2238 1152
2238 1852
2239 1157
2239 1182
2240 1163
2240 1748
2241 1167
2241 2242
2242 1169
2242 1738
2242 2241
2243 1181
2243 1201
2244 1187
2245 1194
2245 1537
2246 77
2247 1199
2248 1201
2249 5
2249 1213
2249 1948
2250 1046
2250 1214
2251 1231
2251 1396
2252 177
2252 1231
2252 1504
2253 75
2253 1233
2254 1245
2254 2362
2255 1246
2256 1247
2256 1464
2257 1262
2257 1264
2257 1459
2258 1271
2259 1275
2260 1299
2261 133
2261 1323
2262 1325
2262 1673
2263 1338
2264 1355
2265 1360
2265 1361
2265 1766
2266 1375
2266 1448
2267 1378
2268 1399
2269 202
2269 203
2269 1400
2270 1403
2271 1417
2272 1427
2272 2124
2273 1433
2274 1434
2274 1438
2274 1439
2274 1951
2275 1440
2275 1724
2275 1944
2276 1441
2277 1444
2277 1754
2278 32
2278 334
2278 1445
2279 1451
2280 1452
2281 1453
2281 1454
2282 1454
2283 1456
2284 264
2284 272
2284 1458
2284 1768
2285 1469
2286 42
2287 1480
2288 1481
2288 1599
2289 1485
2290 1067
2290 1519
2291 1531
2292 1549
2293 1558
2294 1564
2294 1608
2295 1564
2296 1568
2296 1585
2297 1588
2298 1594
2299 48
2300 1602
2301 144
2302 1607
2303 1608
2304 1619
2305 1625
2306 1638
2307 1649
2307 1650
2308 1671
2309 41
2310 1691
2310 1692
2311 1693
2312 1714
2312 1977
2313 1742
2314 1758
2315 1762
2316 1776
2317 1779
2317 2363
2318 1786
2318 2364
2319 1816
2320 1827
2321 1844
2322 1862
2323 1889
2324 1891
2325 1892
2326 1895
2327 1922
2328 1934
2329 1964
2330 1968
2331 366
2332 273
2333 2009
2334 235
2335 592
2335 2032
2335 2033
2336 325
2337 2067
2338 2080
2339 183
2339 751
2339 1067
2339 1519
2339 2086
2340 808
2341 2115
2342 2122
2343 38
2344 2126
2345 2128
2346 2130
2347 2131
2348 2132
2349 2134
2350 2136
2351 2139
2352 2140
2353 2145
2354 2146
2354 2204
2355 44
2356 2157
2357 2159
2358 2180
2359 165
2360 2183
2361 1083
2362 2254
2363 2317
2364 2318
