0 0
0 1
0 7
0 9
0 12
0 22
0 23
0 25
0 26
0 52
0 53
0 63
0 70
0 83
0 93
0 98
0 173
0 189
0 204
0 205
0 218
0 238
0 242
0 243
0 269
0 270
0 272
0 273
0 274
1 0
1 1
1 2
1 7
1 8
1 9
1 11
1 12
1 13
1 14
1 15
1 16
1 18
1 20
1 21
1 22
1 23
1 24
1 25
1 26
1 28
1 29
1 30
1 31
1 32
1 35
1 39
1 40
1 42
1 43
1 46
1 48
1 49
1 52
1 53
1 55
1 67
1 70
1 75
1 80
1 83
1 85
1 87
1 88
1 93
1 98
1 99
1 102
1 107
1 110
1 116
1 118
1 123
1 125
1 127
1 128
1 129
1 135
1 141
1 144
1 147
1 150
1 154
1 156
1 158
1 162
1 166
1 169
1 171
1 173
1 174
1 176
1 178
1 179
1 182
1 189
1 195
1 198
1 204
1 205
1 212
1 215
1 216
1 218
1 219
1 220
1 222
1 224
1 229
1 234
1 238
1 241
1 242
1 246
1 253
1 269
1 270
1 271
1 272
1 273
1 274
1 275
2 1
2 2
2 7
2 11
2 12
2 14
2 15
2 18
2 20
2 22
2 23
2 24
2 25
2 26
2 28
2 29
2 30
2 31
2 32
2 35
2 39
2 43
2 46
2 47
2 49
2 53
2 67
2 75
2 83
2 88
2 93
2 98
2 99
2 107
2 110
2 116
2 118
2 123
2 125
2 128
2 129
2 135
2 147
2 150
2 158
2 164
2 173
2 195
2 198
2 204
2 205
2 212
2 215
2 216
2 218
2 219
2 222
2 224
2 234
2 238
2 241
2 242
2 246
2 252
2 270
2 271
2 272
2 273
3 3
4 4
4 23
4 191
4 220
5 5
5 23
6 193
6 225
7 0
7 1
7 2
7 7
7 9
7 10
7 11
7 12
7 13
7 14
7 18
7 20
7 21
7 22
7 23
7 24
7 25
7 26
7 28
7 30
7 31
7 32
7 35
7 39
7 40
7 42
7 43
7 46
7 49
7 52
7 53
7 55
7 61
7 63
7 67
7 75
7 80
7 83
7 85
7 88
7 93
7 98
7 107
7 116
7 125
7 127
7 128
7 147
7 150
7 156
7 157
7 162
7 164
7 171
7 173
7 174
7 186
7 189
7 195
7 204
7 205
7 212
7 215
7 218
7 219
7 224
7 232
7 238
7 241
7 242
7 246
7 253
7 258
7 269
7 270
7 271
7 272
7 273
7 274
7 275
8 1
8 8
8 11
8 23
8 39
8 258
9 0
9 1
9 7
9 11
9 23
9 25
9 40
9 46
9 61
9 83
9 147
9 156
9 158
9 171
9 234
9 274
10 7
10 23
10 40
10 107
10 164
10 229
11 1
11 2
11 7
11 8
11 9
11 11
11 12
11 13
11 14
11 18
11 22
11 23
11 25
11 28
11 30
11 35
11 39
11 46
11 48
11 49
11 53
11 61
11 67
11 85
11 99
11 116
11 123
11 129
11 141
11 147
11 156
11 169
11 171
11 215
11 241
11 242
11 246
11 258
11 270
11 271
11 272
11 273
11 274
11 275
12 0
12 1
12 2
12 7
12 11
12 12
12 13
12 14
12 20
12 22
12 23
12 25
12 26
12 28
12 29
12 30
12 31
12 32
12 35
12 39
12 40
12 43
12 46
12 48
12 49
12 52
12 53
12 54
12 55
12 61
12 67
12 83
12 87
12 88
12 93
12 98
12 116
12 118
12 123
12 125
12 128
12 147
12 150
12 156
12 162
12 173
12 189
12 198
12 204
12 205
12 212
12 216
12 218
12 219
12 224
12 229
12 232
12 234
12 238
12 241
12 242
12 252
12 270
12 271
12 272
12 275
13 1
13 7
13 11
13 12
13 15
13 21
13 22
13 23
13 25
13 26
13 30
13 46
13 48
13 53
13 70
13 83
13 85
13 88
13 93
13 98
13 110
13 171
13 173
13 198
13 204
13 205
13 219
13 238
13 242
13 270
13 272
13 273
13 274
14 1
14 2
14 7
14 11
14 12
14 14
14 15
14 22
14 23
14 26
14 32
14 49
14 67
14 83
14 98
14 99
14 107
14 118
14 119
14 176
14 212
14 238
14 241
14 271
14 274
15 1
15 2
15 13
15 14
15 22
15 23
15 52
15 135
15 204
15 218
15 270
15 271
16 1
16 16
16 18
16 23
16 40
16 52
16 55
16 136
16 216
17 22
17 23
17 26
18 1
18 2
18 7
18 11
18 16
18 22
18 23
18 83
18 87
18 107
18 116
18 118
18 178
18 216
19 270
20 1
20 2
20 7
20 12
20 20
20 23
20 39
20 53
20 107
20 118
20 125
20 129
20 234
21 1
21 7
21 13
21 23
21 25
21 98
21 205
21 238
22 0
22 1
22 2
22 7
22 11
22 12
22 13
22 14
22 15
22 17
22 18
22 22
22 23
22 25
22 26
22 30
22 32
22 35
22 40
22 43
22 46
22 48
22 49
22 52
22 53
22 70
22 75
22 83
22 88
22 90
22 93
22 99
22 107
22 116
22 118
22 122
22 125
22 129
22 147
22 158
22 162
22 164
22 173
22 178
22 186
22 189
22 195
22 202
22 212
22 217
22 219
22 224
22 235
22 241
22 244
22 246
22 261
22 268
22 270
22 272
22 274
22 275
23 0
23 1
23 2
23 4
23 5
23 7
23 8
23 9
23 10
23 11
23 12
23 13
23 14
23 15
23 16
23 17
23 18
23 20
23 21
23 22
23 23
23 24
23 25
23 26
23 30
23 32
23 35
23 37
23 39
23 40
23 41
23 43
23 46
23 48
23 49
23 52
23 53
23 54
23 55
23 57
23 58
23 60
23 61
23 63
23 65
23 66
23 67
23 69
23 70
23 71
23 73
23 75
23 76
23 77
23 81
23 83
23 84
23 85
23 87
23 89
23 92
23 93
23 94
23 98
23 99
23 100
23 101
23 102
23 105
23 107
23 108
23 110
23 112
23 113
23 116
23 118
23 120
23 121
23 125
23 127
23 129
23 130
23 133
23 136
23 137
23 139
23 141
23 144
23 145
23 146
23 147
23 151
23 156
23 157
23 158
23 159
23 160
23 161
23 162
23 163
23 165
23 168
23 169
23 174
23 175
23 178
23 181
23 182
23 183
23 184
23 186
23 187
23 190
23 195
23 196
23 197
23 198
23 201
23 202
23 204
23 205
23 206
23 207
23 210
23 211
23 212
23 213
23 215
23 216
23 217
23 218
23 219
23 220
23 221
23 222
23 223
23 224
23 228
23 229
23 230
23 231
23 232
23 234
23 236
23 237
23 238
23 239
23 240
23 242
23 244
23 246
23 247
23 249
23 252
23 253
23 256
23 257
23 258
23 262
23 263
23 264
23 266
23 267
23 268
23 269
23 270
23 271
23 272
23 273
23 274
23 275
24 1
24 2
24 7
24 23
24 25
24 26
24 43
24 54
24 93
24 99
24 116
24 123
24 125
24 129
24 147
24 164
24 169
24 216
24 218
24 229
24 238
24 242
24 244
24 246
24 272
25 0
25 1
25 2
25 7
25 9
25 11
25 12
25 13
25 21
25 22
25 23
25 24
25 25
25 26
25 40
25 52
25 70
25 83
25 87
25 93
25 110
25 166
25 174
25 176
25 189
25 204
25 205
25 232
25 242
25 253
25 270
25 271
25 272
25 273
26 0
26 1
26 2
26 7
26 12
26 13
26 14
26 17
26 22
26 23
26 24
26 25
26 39
26 59
26 81
26 83
26 89
26 90
26 98
26 101
26 119
26 150
26 165
26 167
26 170
26 175
26 197
26 201
26 204
26 205
26 226
26 227
26 235
26 246
26 252
26 257
26 261
26 265
26 269
26 270
27 275
28 1
28 2
28 7
28 11
28 12
28 30
28 48
28 49
28 85
28 205
28 218
28 242
29 1
29 2
29 12
29 35
29 53
29 75
29 88
29 116
29 118
29 158
30 1
30 2
30 7
30 11
30 12
30 13
30 22
30 23
30 28
30 35
30 39
30 53
30 116
30 118
30 125
30 129
30 173
30 270
30 271
31 1
31 2
31 7
31 12
31 83
31 123
31 125
31 219
31 252
32 1
32 2
32 7
32 12
32 14
32 22
32 23
32 39
32 42
32 93
32 107
32 118
32 129
32 135
32 238
32 270
32 271
33 33
33 43
34 269
34 270
35 1
35 2
35 7
35 11
35 12
35 22
35 23
35 29
35 30
35 46
35 49
35 52
35 53
35 75
35 93
35 98
35 107
35 116
35 150
35 205
35 246
35 270
35 272
35 273
36 36
36 38
36 148
36 259
37 23
37 107
37 116
37 136
37 147
38 36
38 148
38 259
39 1
39 2
39 7
39 8
39 11
39 12
39 20
39 23
39 26
39 30
39 32
39 43
39 46
39 70
39 116
39 118
39 147
39 173
39 204
39 222
39 224
40 1
40 7
40 9
40 10
40 12
40 16
40 22
40 23
40 25
40 40
40 48
40 53
40 67
40 83
40 93
40 147
40 156
40 176
40 270
41 23
41 41
42 1
42 7
42 32
42 184
43 1
43 2
43 7
43 12
43 22
43 23
43 24
43 33
43 39
43 46
43 53
43 72
43 83
43 88
43 93
43 97
43 107
43 112
43 116
43 160
43 179
43 195
43 197
43 224
43 244
43 245
43 271
44 44
44 93
45 180
46 1
46 2
46 7
46 9
46 11
46 12
46 13
46 22
46 23
46 35
46 39
46 43
46 49
46 75
46 83
46 93
46 127
46 205
46 238
46 242
46 273
47 2
47 47
47 53
47 188
48 1
48 11
48 12
48 13
48 22
48 23
48 28
48 40
48 60
48 61
48 83
48 93
48 147
48 158
48 195
48 242
48 272
49 1
49 2
49 7
49 11
49 12
49 14
49 22
49 23
49 28
49 35
49 46
49 53
49 60
49 100
49 118
49 123
49 166
49 173
49 189
49 195
49 205
49 234
49 270
49 272
50 189
51 51
52 0
52 1
52 7
52 12
52 15
52 16
52 22
52 23
52 25
52 35
52 83
52 97
52 127
52 200
52 241
53 0
53 1
53 2
53 7
53 11
53 12
53 13
53 20
53 22
53 23
53 29
53 30
53 35
53 40
53 43
53 47
53 49
53 70
53 83
53 88
53 107
53 116
53 118
53 123
53 127
53 150
53 198
53 205
53 216
53 219
53 232
53 241
53 242
53 246
53 271
53 273
54 12
54 23
54 24
54 54
54 93
54 169
55 1
55 7
55 12
55 16
55 23
55 136
55 195
55 246
56 174
57 23
58 23
58 60
59 26
60 23
60 48
60 49
60 58
61 7
61 9
61 11
61 12
61 23
61 48
61 93
61 205
61 232
61 242
61 272
62 62
62 63
63 0
63 7
63 23
63 62
63 63
63 83
64 64
64 83
64 98
65 23
65 65
66 23
66 83
66 84
67 1
67 2
67 7
67 11
67 12
67 14
67 23
67 40
67 118
67 147
67 238
68 173
69 23
69 69
70 0
70 1
70 13
70 22
70 23
70 25
70 39
70 53
70 205
70 253
70 270
71 23
71 71
72 43
73 23
73 73
74 173
75 1
75 2
75 7
75 22
75 23
75 29
75 35
75 46
75 147
76 23
77 23
78 93
78 218
78 238
79 274
80 1
80 7
80 139
81 23
81 26
81 81
81 235
82 83
83 0
83 1
83 2
83 7
83 9
83 12
83 13
83 14
83 18
83 22
83 23
83 25
83 26
83 31
83 40
83 43
83 46
83 48
83 52
83 53
83 63
83 64
83 66
83 82
83 83
83 84
83 93
83 95
83 102
83 107
83 109
83 119
83 124
83 128
83 132
83 134
83 135
83 141
83 147
83 156
83 171
83 182
83 189
83 203
83 204
83 208
83 214
83 215
83 218
83 219
83 238
83 242
83 270
83 271
84 23
84 66
84 83
84 84
85 1
85 7
85 11
85 13
85 23
85 28
85 99
85 270
86 86
86 93
87 1
87 12
87 18
87 23
87 25
87 107
87 118
87 178
88 1
88 2
88 7
88 12
88 13
88 22
88 29
88 43
88 53
88 116
88 123
88 198
89 23
89 26
89 89
89 274
90 22
90 26
91 91
91 232
92 23
93 0
93 1
93 2
93 7
93 12
93 13
93 22
93 23
93 24
93 25
93 32
93 35
93 40
93 43
93 44
93 46
93 48
93 54
93 61
93 78
93 83
93 86
93 107
93 118
93 147
93 169
93 177
93 199
93 216
93 218
93 232
93 242
93 272
94 23
95 83
96 185
97 43
97 52
98 0
98 1
98 2
98 7
98 12
98 13
98 14
98 21
98 23
98 26
98 35
98 64
98 127
98 140
98 175
98 176
98 189
98 221
99 1
99 2
99 11
99 14
99 22
99 23
99 24
99 85
99 107
99 135
99 241
100 23
100 49
100 205
100 274
101 23
101 26
101 270
102 1
102 23
102 83
102 102
102 182
102 273
103 248
103 270
104 273
104 274
105 23
105 105
105 270
106 106
106 270
107 1
107 2
107 7
107 10
107 14
107 18
107 20
107 22
107 23
107 32
107 35
107 37
107 43
107 53
107 83
107 87
107 93
107 99
107 107
107 116
107 118
107 136
107 147
107 164
107 216
107 229
107 238
107 270
108 23
109 83
109 141
109 273
110 1
110 2
110 13
110 23
110 25
110 118
111 115
112 23
112 43
112 112
113 23
113 113
114 114
115 111
115 115
116 1
116 2
116 7
116 11
116 12
116 18
116 22
116 23
116 24
116 29
116 30
116 35
116 37
116 39
116 43
116 53
116 88
116 107
116 116
116 118
116 123
116 125
116 147
116 164
116 216
116 218
116 244
116 252
117 156
117 157
118 1
118 2
118 12
118 14
118 18
118 20
118 22
118 23
118 29
118 30
118 32
118 39
118 49
118 53
118 67
118 87
118 93
118 107
118 110
118 116
118 118
118 125
118 129
118 166
118 173
118 178
118 195
118 216
118 224
118 229
118 234
118 270
118 271
119 14
119 26
119 83
120 23
121 23
122 22
123 1
123 2
123 11
123 12
123 24
123 31
123 49
123 53
123 88
123 116
123 129
123 252
123 272
124 83
125 1
125 2
125 7
125 12
125 20
125 22
125 23
125 24
125 30
125 31
125 116
125 118
125 127
125 147
125 178
125 195
125 219
125 246
126 173
127 1
127 7
127 23
127 46
127 52
127 53
127 98
127 125
127 189
127 218
127 238
127 242
127 270
127 271
127 273
128 1
128 2
128 7
128 12
128 83
128 129
128 171
128 195
128 270
128 272
129 1
129 2
129 11
129 20
129 22
129 23
129 24
129 30
129 32
129 118
129 123
129 128
129 271
129 272
130 23
130 130
131 173
131 270
132 83
132 147
133 23
133 210
134 83
135 1
135 2
135 15
135 32
135 83
135 99
135 234
136 16
136 23
136 37
136 55
136 107
136 229
137 23
137 137
138 138
138 274
139 23
139 80
140 98
140 274
141 1
141 11
141 23
141 83
141 109
141 141
141 273
142 142
142 149
143 191
144 1
144 23
144 162
144 173
145 23
145 273
146 23
146 146
147 1
147 2
147 7
147 9
147 11
147 12
147 22
147 23
147 24
147 37
147 39
147 40
147 48
147 67
147 75
147 83
147 93
147 107
147 116
147 125
147 132
147 153
147 164
147 214
147 218
147 246
147 273
148 36
148 38
149 142
150 1
150 2
150 7
150 12
150 26
150 35
150 53
151 23
151 151
152 191
152 220
153 147
154 1
154 173
154 265
154 270
155 228
156 1
156 7
156 9
156 11
156 12
156 23
156 40
156 83
156 117
156 157
156 178
156 262
157 7
157 23
157 117
157 156
158 1
158 2
158 9
158 22
158 23
158 29
158 48
158 158
159 23
160 23
160 43
161 23
162 1
162 7
162 12
162 22
162 23
162 144
162 162
162 173
162 187
162 270
163 23
164 2
164 7
164 10
164 22
164 24
164 107
164 116
164 147
164 218
164 238
165 23
165 26
165 186
166 1
166 25
166 49
166 118
167 26
168 23
168 168
169 1
169 11
169 23
169 24
169 54
169 93
169 169
170 26
171 1
171 7
171 9
171 11
171 13
171 83
171 128
172 194
173 0
173 1
173 2
173 7
173 12
173 13
173 22
173 30
173 39
173 49
173 68
173 74
173 118
173 126
173 131
173 144
173 154
173 162
173 186
173 187
173 203
173 209
173 270
173 272
174 1
174 7
174 23
174 25
174 56
175 23
175 26
175 98
176 1
176 14
176 25
176 40
176 98
176 274
177 93
177 260
178 1
178 18
178 22
178 23
178 87
178 118
178 125
178 156
179 1
179 43
180 45
180 271
181 23
182 1
182 23
182 83
182 102
183 23
184 23
184 42
185 96
186 7
186 22
186 23
186 165
186 173
186 186
186 215
186 270
187 23
187 162
187 173
188 47
189 0
189 1
189 7
189 12
189 22
189 25
189 49
189 50
189 83
189 98
189 127
189 204
189 221
189 272
190 23
190 190
191 4
191 143
191 152
191 220
192 224
192 253
193 6
193 225
194 172
194 242
195 1
195 2
195 7
195 22
195 23
195 43
195 48
195 49
195 55
195 118
195 125
195 128
195 234
195 246
196 23
197 23
197 26
197 43
197 258
198 1
198 2
198 12
198 13
198 23
198 53
198 88
199 93
200 52
200 200
201 23
201 26
202 22
202 23
203 83
203 173
203 205
203 270
204 0
204 1
204 2
204 7
204 12
204 13
204 15
204 23
204 25
204 26
204 39
204 83
204 189
204 241
204 270
205 0
205 1
205 2
205 7
205 12
205 13
205 21
205 23
205 25
205 26
205 28
205 35
205 46
205 49
205 53
205 61
205 70
205 100
205 203
205 206
205 219
205 270
205 271
205 272
206 23
206 205
206 206
207 23
207 207
208 83
209 173
209 209
210 23
210 133
210 210
211 23
211 211
212 1
212 2
212 7
212 12
212 14
212 22
212 23
212 222
213 23
213 213
213 275
214 83
214 147
214 214
215 1
215 2
215 7
215 11
215 23
215 83
215 186
215 234
215 270
216 1
216 2
216 12
216 16
216 18
216 23
216 24
216 53
216 93
216 107
216 116
216 118
216 271
217 22
217 23
217 217
218 0
218 1
218 2
218 7
218 12
218 15
218 23
218 24
218 28
218 78
218 83
218 93
218 116
218 127
218 147
218 164
218 223
218 238
218 252
219 1
219 2
219 7
219 12
219 13
219 22
219 23
219 31
219 53
219 83
219 125
219 205
219 270
220 1
220 4
220 23
220 152
220 191
220 220
221 23
221 98
221 189
221 221
222 1
222 2
222 23
222 39
222 212
222 222
223 23
223 218
223 223
224 1
224 2
224 7
224 12
224 22
224 23
224 39
224 43
224 118
224 192
225 6
225 193
225 225
226 26
226 226
226 270
227 26
228 23
228 155
228 228
229 1
229 10
229 12
229 23
229 24
229 107
229 118
229 136
229 234
230 23
231 23
231 231
232 7
232 12
232 23
232 25
232 53
232 61
232 91
232 93
232 232
233 238
234 1
234 2
234 9
234 12
234 20
234 23
234 49
234 118
234 135
234 195
234 215
234 229
234 270
235 22
235 26
235 81
236 23
237 23
237 254
238 0
238 1
238 2
238 7
238 12
238 13
238 14
238 21
238 23
238 24
238 32
238 46
238 67
238 78
238 83
238 107
238 127
238 164
238 218
238 233
239 23
239 272
240 23
240 272
241 1
241 2
241 7
241 11
241 12
241 14
241 22
241 52
241 53
241 99
241 204
242 0
242 1
242 2
242 7
242 11
242 12
242 13
242 23
242 24
242 25
242 28
242 46
242 48
242 53
242 61
242 83
242 93
242 127
242 194
242 250
242 251
243 0
243 270
244 22
244 23
244 24
244 43
244 116
245 43
245 271
246 1
246 2
246 7
246 11
246 22
246 23
246 24
246 26
246 35
246 53
246 55
246 125
246 147
246 195
247 23
248 103
249 23
249 249
250 242
250 250
251 242
251 251
252 2
252 12
252 23
252 26
252 31
252 116
252 123
252 218
253 1
253 7
253 23
253 25
253 70
253 192
254 237
255 273
256 23
257 23
257 26
257 257
258 7
258 8
258 11
258 23
258 197
259 36
259 38
260 177
261 22
261 26
261 261
262 23
262 156
263 23
264 23
265 26
265 154
266 23
266 266
267 23
268 22
268 23
268 268
269 0
269 1
269 7
269 23
269 26
269 34
269 270
270 0
270 1
270 2
270 7
270 11
270 12
270 13
270 15
270 19
270 22
270 23
270 25
270 26
270 30
270 32
270 34
270 35
270 40
270 49
270 70
270 83
270 85
270 101
270 103
270 105
270 106
270 107
270 118
270 127
270 128
270 131
270 154
270 162
270 173
270 186
270 203
270 204
270 205
270 215
270 219
270 226
270 234
270 243
270 269
271 1
271 2
271 7
271 11
271 12
271 14
271 15
271 23
271 25
271 30
271 32
271 43
271 53
271 83
271 118
271 127
271 129
271 180
271 205
271 216
271 245
272 0
272 1
272 2
272 7
272 11
272 12
272 13
272 22
272 23
272 24
272 25
272 35
272 48
272 49
272 61
272 93
272 123
272 128
272 129
272 173
272 189
272 205
272 239
272 240
273 0
273 1
273 2
273 7
273 11
273 13
273 23
273 25
273 35
273 46
273 53
273 102
273 104
273 109
273 127
273 141
273 145
273 147
273 255
274 0
274 1
274 7
274 9
274 11
274 13
274 14
274 22
274 23
274 79
274 89
274 100
274 104
274 138
274 140
274 176
275 1
275 7
275 11
275 12
275 22
275 23
275 27
275 213
