0 0
0 1
0 7
0 9
0 12
0 22
0 44
0 54
0 61
0 185
0 218
0 243
0 244
0 245
0 246
0 247
0 253
0 254
0 255
0 259
0 260
0 261
0 262
0 265
0 266
0 267
0 270
0 271
0 277
0 280
0 291
0 299
0 304
1 0
1 1
1 2
1 7
1 8
1 9
1 11
1 12
1 13
1 14
1 15
1 16
1 19
1 20
1 21
1 22
1 24
1 25
1 26
1 27
1 28
1 31
1 34
1 36
1 39
1 41
1 44
1 46
1 58
1 61
1 66
1 71
1 75
1 77
1 78
1 87
1 90
1 95
1 98
1 104
1 106
1 111
1 114
1 115
1 116
1 122
1 128
1 131
1 136
1 140
1 143
1 147
1 151
1 154
1 156
1 158
1 161
1 162
1 165
1 179
1 185
1 194
1 195
1 197
1 198
1 200
1 206
1 211
1 217
1 221
1 243
1 245
1 246
1 247
1 248
1 249
1 250
1 251
1 252
1 253
1 254
1 255
1 256
1 257
1 258
1 259
1 260
1 261
1 262
1 263
1 264
1 265
1 266
1 267
1 268
1 269
1 270
1 271
1 272
1 273
1 274
1 275
1 276
1 277
1 279
1 280
1 282
1 285
1 286
1 287
1 288
1 290
1 291
1 293
1 295
1 296
1 297
1 298
1 299
1 300
1 301
1 302
1 303
1 305
1 306
1 308
2 1
2 2
2 7
2 11
2 12
2 14
2 15
2 19
2 21
2 22
2 24
2 25
2 26
2 27
2 28
2 31
2 39
2 40
2 44
2 58
2 66
2 78
2 87
2 95
2 98
2 104
2 106
2 111
2 115
2 116
2 122
2 136
2 143
2 149
2 179
2 185
2 194
2 195
2 197
2 200
2 211
2 217
2 221
2 227
2 243
2 245
2 246
2 247
2 248
2 250
2 251
2 252
2 253
2 255
2 256
2 257
2 258
2 259
2 263
2 264
2 265
2 266
2 267
2 268
2 269
2 270
2 271
2 272
2 273
2 280
2 286
2 290
2 295
2 297
2 301
2 302
2 303
2 305
3 3
4 4
4 173
4 198
4 243
5 5
5 243
6 175
6 202
7 0
7 1
7 2
7 7
7 9
7 10
7 11
7 12
7 13
7 14
7 19
7 20
7 21
7 22
7 24
7 26
7 27
7 28
7 31
7 34
7 36
7 39
7 44
7 46
7 52
7 54
7 58
7 66
7 71
7 75
7 78
7 95
7 104
7 114
7 115
7 136
7 142
7 147
7 149
7 156
7 158
7 169
7 185
7 194
7 197
7 209
7 217
7 221
7 232
7 243
7 245
7 246
7 247
7 249
7 250
7 251
7 252
7 253
7 254
7 255
7 256
7 257
7 258
7 259
7 260
7 261
7 262
7 263
7 264
7 265
7 266
7 267
7 268
7 269
7 270
7 271
7 273
7 276
7 277
7 280
7 281
7 282
7 283
7 284
7 285
7 288
7 289
7 290
7 291
7 293
7 294
7 295
7 296
7 297
7 298
7 299
7 300
7 301
7 303
7 305
7 306
7 310
8 1
8 8
8 11
8 232
8 243
8 252
9 0
9 1
9 7
9 11
9 22
9 34
9 39
9 52
9 143
9 156
9 211
9 243
9 254
9 293
9 306
9 309
10 7
10 34
10 95
10 149
10 206
10 243
11 1
11 2
11 7
11 8
11 9
11 11
11 12
11 13
11 14
11 22
11 24
11 26
11 31
11 39
11 41
11 44
11 52
11 58
11 75
11 87
11 104
11 111
11 116
11 128
11 154
11 156
11 194
11 217
11 221
11 232
11 243
11 245
11 246
11 250
11 251
11 252
11 254
11 255
11 257
11 266
11 267
11 268
11 276
11 303
11 306
12 0
12 1
12 2
12 7
12 11
12 12
12 13
12 14
12 19
12 22
12 24
12 25
12 26
12 27
12 28
12 31
12 34
12 39
12 41
12 44
12 45
12 46
12 52
12 58
12 77
12 78
12 104
12 106
12 111
12 115
12 136
12 147
12 179
12 185
12 195
12 197
12 206
12 209
12 211
12 217
12 227
12 243
12 245
12 246
12 247
12 250
12 251
12 253
12 255
12 256
12 259
12 260
12 262
12 263
12 264
12 265
12 268
12 270
12 271
12 272
12 273
12 275
12 276
12 280
12 291
12 296
12 297
12 299
12 301
12 302
12 303
12 305
12 306
13 1
13 7
13 11
13 12
13 15
13 20
13 22
13 26
13 39
13 41
13 44
13 61
13 75
13 78
13 98
13 156
13 179
13 185
13 197
13 243
13 245
13 246
13 247
13 253
13 254
13 255
13 259
13 267
13 270
13 271
13 280
13 282
13 296
13 299
13 310
14 1
14 2
14 7
14 11
14 12
14 14
14 15
14 28
14 58
14 87
14 95
14 106
14 107
14 217
14 243
14 246
14 249
14 254
14 259
14 268
14 271
14 274
14 275
14 280
14 292
14 305
15 1
15 2
15 13
15 14
15 122
15 185
15 243
15 245
15 246
15 249
15 262
15 265
16 1
16 16
16 34
16 46
16 123
16 195
16 243
16 257
16 262
17 243
17 246
17 259
18 245
19 1
19 2
19 7
19 12
19 19
19 44
19 95
19 106
19 116
19 211
19 243
19 252
19 256
20 1
20 7
20 13
20 22
20 243
20 253
20 263
20 280
21 1
21 2
21 7
21 22
21 45
21 87
21 104
21 111
21 116
21 149
21 154
21 195
21 206
21 219
21 221
21 243
21 247
21 255
21 256
21 259
21 264
21 265
21 266
21 270
21 271
21 303
22 0
22 1
22 2
22 7
22 9
22 11
22 12
22 13
22 20
22 21
22 22
22 34
22 61
22 77
22 98
22 151
22 158
22 185
22 209
22 243
22 245
22 246
22 247
22 250
22 255
22 259
22 260
22 262
22 267
22 269
22 270
22 274
22 287
22 298
22 301
22 304
23 276
24 1
24 2
24 7
24 11
24 12
24 26
24 41
24 75
24 265
24 266
24 268
24 269
25 1
25 2
25 12
25 31
25 44
25 66
25 78
25 104
25 106
25 143
26 1
26 2
26 7
26 11
26 12
26 13
26 24
26 31
26 44
26 104
26 106
26 116
26 243
26 245
26 246
26 250
26 252
26 256
26 290
27 1
27 2
27 7
27 12
27 111
27 197
27 227
27 256
27 301
28 1
28 2
28 7
28 12
28 14
28 36
28 95
28 106
28 116
28 122
28 243
28 245
28 246
28 247
28 249
28 251
28 271
29 29
29 264
30 245
30 277
31 1
31 2
31 7
31 11
31 12
31 25
31 26
31 39
31 44
31 66
31 95
31 104
31 136
31 221
31 243
31 245
31 246
31 247
31 255
31 262
31 263
31 267
31 268
31 269
31 280
32 32
32 134
32 233
32 278
33 95
33 104
33 123
33 243
33 295
34 1
34 7
34 9
34 10
34 12
34 16
34 22
34 34
34 41
34 44
34 58
34 243
34 245
34 246
34 247
34 274
34 293
34 306
34 309
35 35
35 243
36 1
36 7
36 28
36 167
37 37
37 247
38 163
39 1
39 2
39 7
39 9
39 11
39 12
39 13
39 31
39 66
39 114
39 243
39 244
39 246
39 247
39 251
39 253
39 264
39 266
39 267
39 268
39 269
39 270
40 2
40 40
40 44
40 171
41 1
41 11
41 12
41 13
41 24
41 34
41 51
41 52
41 143
41 243
41 246
41 247
41 255
41 258
41 266
41 301
41 303
42 260
43 43
44 0
44 1
44 2
44 7
44 11
44 12
44 13
44 19
44 25
44 26
44 31
44 34
44 40
44 61
44 78
44 95
44 104
44 106
44 111
44 114
44 136
44 179
44 195
44 197
44 209
44 217
44 221
44 243
44 246
44 250
44 263
44 264
44 267
44 268
44 270
44 286
44 299
45 12
45 21
45 45
45 154
45 243
45 247
46 1
46 7
46 12
46 16
46 123
46 221
46 243
46 258
47 158
48 243
49 51
49 243
50 259
51 41
51 49
51 243
51 268
52 7
52 9
52 11
52 12
52 41
52 209
52 243
52 247
52 255
52 266
52 269
53 53
53 54
54 0
54 7
54 53
54 54
54 243
54 279
55 55
55 280
55 281
56 56
56 243
57 74
57 243
57 285
58 1
58 2
58 7
58 11
58 12
58 14
58 34
58 106
58 243
58 253
58 271
58 273
59 282
60 60
60 243
61 0
61 1
61 13
61 22
61 44
61 243
61 245
61 246
61 252
61 298
61 299
62 62
62 243
63 264
64 64
64 243
65 283
66 1
66 2
66 7
66 25
66 31
66 39
66 243
66 246
66 272
67 243
68 243
69 247
69 253
69 265
70 254
71 1
71 7
71 126
72 72
72 212
72 243
72 259
73 284
74 57
74 74
74 243
74 285
75 1
75 7
75 11
75 13
75 24
75 87
75 243
75 245
76 76
76 247
77 1
77 12
77 22
77 95
77 106
77 161
77 243
77 257
78 1
78 2
78 7
78 12
78 13
78 25
78 44
78 104
78 111
78 179
78 246
78 264
79 79
79 243
79 254
79 259
80 246
80 259
81 81
81 209
82 243
83 243
84 285
85 168
86 262
86 264
87 1
87 2
87 11
87 14
87 21
87 75
87 95
87 122
87 217
87 243
87 246
88 243
88 254
88 268
88 269
89 243
89 245
89 259
90 1
90 90
90 165
90 243
90 267
90 285
91 223
91 245
92 254
92 267
93 93
93 243
93 245
94 94
94 245
95 1
95 2
95 7
95 10
95 14
95 19
95 28
95 31
95 33
95 44
95 77
95 87
95 95
95 104
95 106
95 123
95 149
95 195
95 206
95 243
95 245
95 246
95 247
95 257
95 264
95 271
95 286
95 295
96 243
97 128
97 267
97 287
98 1
98 2
98 13
98 22
98 106
98 243
99 103
100 100
100 243
100 264
101 101
101 243
102 102
103 99
103 103
104 1
104 2
104 7
104 11
104 12
104 21
104 25
104 26
104 31
104 33
104 44
104 78
104 95
104 104
104 106
104 111
104 149
104 195
104 219
104 227
104 243
104 246
104 251
104 256
104 257
104 264
104 265
104 293
104 295
105 142
105 306
106 1
106 2
106 12
106 14
106 19
106 25
106 26
106 28
106 44
106 58
106 77
106 95
106 98
106 104
106 106
106 116
106 151
106 161
106 195
106 206
106 211
106 243
106 245
106 246
106 247
106 248
106 250
106 251
106 256
106 257
106 258
106 268
106 291
107 14
107 259
107 275
108 243
109 243
110 246
111 1
111 2
111 11
111 12
111 21
111 27
111 44
111 78
111 104
111 116
111 227
111 255
111 268
112 288
112 289
113 290
114 1
114 7
114 39
114 44
114 243
114 245
114 249
114 253
114 256
114 260
114 261
114 262
114 265
114 267
114 270
114 271
115 1
115 2
115 7
115 12
115 116
115 156
115 245
115 255
115 258
115 300
116 1
116 2
116 11
116 19
116 21
116 26
116 28
116 106
116 111
116 115
116 243
116 246
116 250
116 255
117 117
117 243
118 245
118 291
119 285
119 292
119 293
120 190
120 243
121 294
122 1
122 2
122 15
122 28
122 87
122 211
122 288
123 16
123 33
123 46
123 95
123 206
123 243
124 124
124 243
125 125
125 254
126 71
126 243
127 254
127 280
128 1
128 11
128 97
128 128
128 243
128 267
128 287
129 129
129 135
130 173
131 1
131 147
131 243
131 296
132 243
132 267
133 133
133 243
134 32
134 278
135 129
136 1
136 2
136 7
136 12
136 31
136 44
136 259
137 137
137 243
138 173
138 198
139 295
140 1
140 239
140 245
140 296
141 205
142 7
142 105
142 243
142 306
143 1
143 2
143 9
143 25
143 41
143 143
143 243
143 246
144 243
145 243
145 264
146 243
147 1
147 7
147 12
147 131
147 147
147 170
147 243
147 245
147 246
147 296
148 243
149 2
149 7
149 10
149 21
149 95
149 104
149 246
149 265
149 271
149 295
150 169
150 243
150 259
151 1
151 22
151 106
151 268
152 259
153 153
153 243
154 1
154 11
154 21
154 45
154 154
154 243
154 247
155 259
156 1
156 7
156 9
156 11
156 13
156 115
156 300
157 176
158 1
158 7
158 22
158 47
158 243
159 243
159 259
159 280
160 234
160 247
161 1
161 77
161 106
161 243
161 246
161 256
161 257
161 306
162 1
162 264
163 38
163 249
164 243
165 1
165 90
165 243
165 285
166 243
167 36
167 243
168 85
169 7
169 150
169 169
169 194
169 243
169 245
169 246
169 296
170 147
170 243
170 296
171 40
172 172
172 243
173 4
173 130
173 138
173 198
174 297
174 298
175 6
175 202
176 157
176 270
177 243
178 232
178 243
178 259
178 264
179 1
179 2
179 12
179 13
179 44
179 78
179 243
180 247
181 181
181 262
182 243
182 259
183 243
183 246
184 245
184 291
184 299
184 300
185 0
185 1
185 2
185 7
185 12
185 13
185 15
185 22
185 217
185 243
185 245
185 251
185 259
185 260
185 310
186 186
186 243
186 263
187 187
187 243
188 301
189 189
189 302
190 120
190 190
190 243
191 191
191 243
192 192
192 243
192 276
193 193
193 303
193 304
194 1
194 2
194 7
194 11
194 169
194 211
194 243
194 245
194 287
195 1
195 2
195 12
195 16
195 21
195 44
195 95
195 104
195 106
195 243
195 247
195 250
195 257
196 196
196 243
196 246
197 1
197 2
197 7
197 12
197 13
197 27
197 44
197 243
197 245
197 246
197 256
197 263
197 286
198 1
198 4
198 138
198 173
198 198
198 243
199 199
199 243
199 260
199 261
200 1
200 2
200 200
200 243
200 252
200 305
201 201
201 243
201 265
202 6
202 175
202 202
203 203
203 245
203 259
204 259
205 141
205 205
205 243
206 1
206 10
206 12
206 21
206 95
206 106
206 123
206 211
206 243
207 243
208 208
208 243
209 7
209 12
209 22
209 44
209 52
209 81
209 209
209 243
209 247
210 271
211 1
211 2
211 9
211 12
211 19
211 106
211 122
211 194
211 206
211 243
211 245
211 258
211 268
212 72
212 246
212 259
213 243
214 228
214 243
215 243
215 255
216 243
216 255
217 1
217 2
217 7
217 11
217 12
217 14
217 44
217 87
217 185
217 246
217 262
218 0
218 245
219 21
219 104
219 243
219 246
219 264
220 249
220 264
221 1
221 2
221 7
221 11
221 21
221 31
221 44
221 46
221 243
221 246
221 256
221 258
221 259
221 303
222 243
223 91
224 224
224 243
225 225
225 266
226 226
226 270
227 2
227 12
227 27
227 104
227 111
227 243
227 259
227 265
228 214
229 267
230 243
231 231
231 243
231 259
232 7
232 8
232 11
232 178
232 243
233 32
233 278
234 160
235 235
235 246
235 259
236 243
236 306
237 243
238 243
239 140
239 259
240 240
240 243
241 243
242 242
242 243
242 246
243 0
243 1
243 2
243 4
243 5
243 7
243 8
243 9
243 10
243 11
243 12
243 13
243 14
243 15
243 16
243 17
243 19
243 20
243 21
243 22
243 26
243 28
243 31
243 33
243 34
243 35
243 39
243 41
243 44
243 45
243 46
243 48
243 49
243 51
243 52
243 54
243 56
243 57
243 58
243 60
243 61
243 62
243 64
243 66
243 67
243 68
243 72
243 74
243 75
243 77
243 79
243 82
243 83
243 87
243 88
243 89
243 90
243 93
243 95
243 96
243 98
243 100
243 101
243 104
243 106
243 108
243 109
243 114
243 116
243 117
243 120
243 123
243 124
243 126
243 128
243 131
243 132
243 133
243 137
243 142
243 143
243 144
243 145
243 146
243 147
243 148
243 150
243 153
243 154
243 158
243 159
243 161
243 164
243 165
243 166
243 167
243 169
243 170
243 172
243 177
243 178
243 179
243 182
243 183
243 185
243 186
243 187
243 190
243 191
243 192
243 194
243 195
243 196
243 197
243 198
243 199
243 200
243 201
243 205
243 206
243 207
243 208
243 209
243 211
243 213
243 214
243 215
243 216
243 219
243 221
243 222
243 224
243 227
243 230
243 231
243 232
243 236
243 237
243 238
243 240
243 241
243 242
243 243
243 245
243 246
243 247
243 248
243 249
243 251
243 252
243 254
243 255
243 256
243 257
243 258
243 259
243 261
243 262
243 263
243 264
243 265
243 266
243 267
243 268
243 269
243 270
243 271
243 276
243 277
243 279
243 280
243 285
243 286
243 298
243 303
243 304
243 305
243 306
243 307
243 308
243 309
243 310
244 0
244 39
244 253
244 265
245 0
245 1
245 2
245 7
245 11
245 12
245 13
245 15
245 18
245 22
245 26
245 28
245 30
245 31
245 34
245 61
245 75
245 89
245 91
245 93
245 94
245 95
245 106
245 114
245 115
245 118
245 140
245 147
245 169
245 184
245 185
245 194
245 197
245 203
245 211
245 218
245 243
245 246
245 259
245 268
245 277
245 291
245 296
245 299
245 308
246 0
246 1
246 2
246 7
246 11
246 12
246 13
246 14
246 15
246 17
246 22
246 26
246 28
246 31
246 34
246 39
246 41
246 44
246 61
246 66
246 78
246 80
246 87
246 95
246 104
246 106
246 110
246 116
246 143
246 147
246 149
246 161
246 169
246 183
246 196
246 197
246 212
246 217
246 219
246 221
246 235
246 242
246 243
246 245
246 246
246 247
246 248
246 254
246 255
246 256
246 257
246 258
246 259
246 260
246 262
246 264
246 268
246 272
246 276
246 288
246 296
246 305
247 0
247 1
247 2
247 7
247 12
247 13
247 21
247 22
247 28
247 31
247 34
247 37
247 39
247 41
247 45
247 52
247 69
247 76
247 95
247 106
247 154
247 160
247 180
247 195
247 209
247 243
247 246
247 255
247 264
247 265
247 266
247 286
247 301
247 303
248 1
248 2
248 106
248 243
248 246
249 1
249 7
249 14
249 15
249 28
249 114
249 163
249 220
249 243
249 269
249 287
250 1
250 2
250 7
250 11
250 12
250 22
250 26
250 44
250 106
250 116
250 195
250 264
251 1
251 2
251 7
251 11
251 12
251 28
251 39
251 104
251 106
251 185
251 243
251 264
251 295
251 297
252 1
252 2
252 7
252 8
252 11
252 19
252 26
252 61
252 200
252 243
252 259
252 290
253 0
253 1
253 2
253 7
253 12
253 13
253 20
253 39
253 58
253 69
253 114
253 244
253 265
254 0
254 1
254 7
254 9
254 11
254 13
254 14
254 70
254 79
254 88
254 92
254 125
254 127
254 243
254 246
254 274
255 0
255 1
255 2
255 7
255 11
255 12
255 13
255 21
255 22
255 31
255 41
255 52
255 111
255 115
255 116
255 215
255 216
255 243
255 246
255 247
255 260
255 268
255 269
255 296
256 1
256 2
256 7
256 12
256 19
256 21
256 26
256 27
256 104
256 106
256 114
256 161
256 197
256 221
256 243
256 246
256 258
256 293
257 1
257 2
257 7
257 11
257 16
257 77
257 95
257 104
257 106
257 161
257 195
257 243
257 246
257 286
258 1
258 2
258 7
258 41
258 46
258 106
258 115
258 211
258 221
258 243
258 246
258 256
258 264
258 268
259 0
259 1
259 2
259 7
259 12
259 13
259 14
259 17
259 21
259 22
259 50
259 72
259 79
259 80
259 89
259 107
259 136
259 150
259 152
259 155
259 159
259 178
259 182
259 185
259 203
259 204
259 212
259 221
259 227
259 231
259 235
259 239
259 243
259 245
259 246
259 252
259 277
259 280
259 288
259 299
260 0
260 1
260 7
260 12
260 22
260 42
260 114
260 185
260 199
260 246
260 255
260 261
260 268
260 287
261 0
261 1
261 7
261 114
261 199
261 243
261 260
262 0
262 1
262 7
262 12
262 15
262 16
262 22
262 31
262 86
262 114
262 181
262 217
262 243
262 246
262 275
262 304
263 1
263 2
263 7
263 12
263 20
263 31
263 44
263 186
263 197
263 243
264 1
264 2
264 7
264 12
264 21
264 29
264 39
264 44
264 63
264 78
264 86
264 95
264 100
264 104
264 145
264 162
264 178
264 219
264 220
264 243
264 246
264 247
264 250
264 251
264 258
264 286
264 297
265 0
265 1
265 2
265 7
265 12
265 15
265 21
265 24
265 69
265 104
265 114
265 149
265 201
265 227
265 243
265 244
265 247
265 253
265 287
265 303
266 0
266 1
266 2
266 7
266 11
266 21
266 24
266 39
266 41
266 52
266 225
266 243
266 247
267 0
267 1
267 2
267 7
267 11
267 13
267 22
267 31
267 39
267 44
267 90
267 92
267 97
267 114
267 128
267 132
267 229
267 243
267 293
268 1
268 2
268 7
268 11
268 12
268 14
268 24
268 31
268 39
268 44
268 51
268 88
268 106
268 111
268 151
268 211
268 243
268 245
268 246
268 255
268 258
268 260
268 269
268 296
269 1
269 2
269 7
269 22
269 24
269 31
269 39
269 52
269 88
269 243
269 249
269 255
269 268
270 0
270 1
270 2
270 7
270 12
270 13
270 21
270 22
270 39
270 44
270 114
270 176
270 226
270 243
270 292
271 0
271 1
271 2
271 7
271 12
271 13
271 14
271 21
271 28
271 58
271 95
271 114
271 149
271 210
271 243
272 1
272 2
272 12
272 66
272 246
273 1
273 2
273 7
273 12
273 58
274 1
274 14
274 22
274 34
274 254
274 280
275 1
275 12
275 14
275 107
275 262
276 1
276 7
276 11
276 12
276 23
276 192
276 243
276 246
277 0
277 1
277 7
277 30
277 243
277 245
277 259
278 32
278 134
278 233
279 1
279 54
279 243
280 0
280 1
280 2
280 7
280 12
280 13
280 14
280 20
280 31
280 55
280 127
280 159
280 243
280 259
280 274
281 7
281 55
282 1
282 7
282 13
282 59
283 7
283 65
284 7
284 73
285 1
285 7
285 57
285 74
285 84
285 90
285 119
285 165
285 243
286 1
286 2
286 44
286 95
286 197
286 243
286 247
286 257
286 264
287 1
287 22
287 97
287 128
287 194
287 249
287 260
287 265
288 1
288 7
288 112
288 122
288 246
288 259
288 289
289 7
289 112
289 288
290 1
290 2
290 7
290 26
290 113
290 252
291 0
291 1
291 7
291 12
291 106
291 118
291 184
291 245
292 14
292 119
292 270
293 1
293 7
293 9
293 34
293 104
293 119
293 256
293 267
294 7
294 121
295 1
295 2
295 7
295 33
295 95
295 104
295 139
295 149
295 251
296 1
296 7
296 12
296 13
296 131
296 140
296 147
296 169
296 170
296 245
296 246
296 255
296 268
297 1
297 2
297 7
297 12
297 174
297 251
297 264
298 1
298 7
298 22
298 61
298 174
298 243
299 0
299 1
299 7
299 12
299 13
299 44
299 61
299 184
299 245
299 259
300 1
300 7
300 115
300 156
300 184
301 1
301 2
301 7
301 12
301 22
301 27
301 41
301 188
301 247
302 1
302 2
302 12
302 189
303 1
303 2
303 7
303 11
303 12
303 21
303 41
303 193
303 221
303 243
303 247
303 265
303 304
304 0
304 22
304 193
304 243
304 262
304 303
305 1
305 2
305 7
305 12
305 14
305 200
305 243
305 246
306 1
306 7
306 9
306 11
306 12
306 34
306 105
306 142
306 161
306 236
306 243
306 309
307 243
308 1
308 243
308 245
309 9
309 34
309 243
309 306
310 7
310 13
310 185
310 243
