0 0
0 1
0 7
0 9
0 12
0 22
0 23
0 25
0 26
0 51
0 52
0 62
0 69
0 91
0 184
0 199
0 212
0 234
0 260
0 261
0 262
0 263
0 268
0 270
0 271
0 273
0 274
0 275
0 276
0 277
0 282
1 0
1 1
1 2
1 7
1 8
1 9
1 11
1 12
1 13
1 14
1 15
1 16
1 18
1 20
1 21
1 22
1 23
1 24
1 25
1 26
1 28
1 29
1 30
1 31
1 32
1 35
1 39
1 41
1 42
1 45
1 47
1 48
1 51
1 52
1 54
1 66
1 69
1 74
1 79
1 83
1 85
1 86
1 91
1 96
1 99
1 104
1 107
1 113
1 115
1 120
1 122
1 124
1 125
1 126
1 132
1 138
1 141
1 146
1 150
1 152
1 154
1 158
1 162
1 165
1 167
1 169
1 171
1 173
1 174
1 177
1 184
1 190
1 193
1 199
1 206
1 209
1 210
1 212
1 213
1 214
1 216
1 222
1 227
1 233
1 237
1 244
1 260
1 261
1 262
1 263
1 264
1 265
1 266
1 267
1 268
1 269
1 270
1 271
1 272
1 273
1 274
1 275
1 276
1 277
1 278
1 279
1 281
1 282
1 283
1 284
2 1
2 2
2 7
2 11
2 12
2 14
2 15
2 18
2 20
2 22
2 23
2 24
2 25
2 26
2 28
2 29
2 30
2 31
2 32
2 35
2 42
2 45
2 46
2 48
2 52
2 66
2 74
2 86
2 91
2 96
2 104
2 107
2 113
2 115
2 120
2 122
2 125
2 126
2 132
2 146
2 154
2 160
2 190
2 193
2 199
2 206
2 209
2 210
2 212
2 213
2 216
2 227
2 233
2 237
2 243
2 260
2 261
2 263
2 264
2 265
2 266
2 267
2 268
2 270
2 271
2 273
2 274
2 275
2 277
2 281
2 283
2 284
3 3
4 4
4 23
4 186
4 214
5 5
5 23
6 188
6 218
7 0
7 1
7 2
7 7
7 9
7 10
7 11
7 12
7 13
7 14
7 18
7 20
7 21
7 22
7 23
7 24
7 25
7 26
7 28
7 30
7 31
7 32
7 35
7 39
7 41
7 42
7 45
7 48
7 51
7 52
7 54
7 60
7 62
7 66
7 74
7 79
7 83
7 86
7 91
7 104
7 113
7 122
7 124
7 125
7 146
7 152
7 153
7 158
7 160
7 167
7 169
7 181
7 184
7 190
7 199
7 206
7 209
7 212
7 213
7 225
7 233
7 237
7 244
7 249
7 260
7 261
7 262
7 263
7 264
7 266
7 267
7 268
7 269
7 270
7 271
7 272
7 273
7 274
7 275
7 276
7 277
7 278
7 279
7 280
7 281
7 282
7 283
8 1
8 8
8 11
8 23
8 249
8 267
9 0
9 1
9 7
9 11
9 23
9 25
9 39
9 45
9 60
9 152
9 154
9 167
9 227
9 260
9 262
9 264
10 7
10 23
10 39
10 104
10 160
10 222
11 1
11 2
11 7
11 8
11 9
11 11
11 12
11 13
11 14
11 18
11 22
11 23
11 25
11 28
11 30
11 35
11 45
11 47
11 48
11 52
11 60
11 66
11 83
11 96
11 113
11 120
11 126
11 138
11 152
11 165
11 167
11 209
11 233
11 237
11 249
11 262
11 263
11 264
11 266
11 267
11 268
11 270
11 271
11 278
12 0
12 1
12 2
12 7
12 11
12 12
12 13
12 14
12 20
12 22
12 23
12 25
12 26
12 28
12 29
12 30
12 31
12 32
12 35
12 39
12 42
12 45
12 47
12 48
12 51
12 52
12 53
12 54
12 60
12 66
12 85
12 86
12 91
12 113
12 115
12 120
12 122
12 125
12 146
12 152
12 158
12 184
12 193
12 199
12 206
12 210
12 212
12 213
12 222
12 225
12 227
12 233
12 243
12 260
12 261
12 263
12 264
12 266
12 267
12 268
12 272
12 273
12 274
12 275
12 277
12 278
12 282
12 283
12 284
13 1
13 7
13 11
13 12
13 15
13 21
13 22
13 23
13 25
13 26
13 30
13 45
13 47
13 52
13 69
13 83
13 86
13 91
13 107
13 167
13 193
13 199
13 213
13 260
13 261
13 262
13 263
13 268
13 271
13 272
13 273
13 274
13 275
13 277
13 279
14 1
14 2
14 7
14 11
14 12
14 14
14 15
14 22
14 23
14 26
14 32
14 48
14 66
14 96
14 104
14 115
14 116
14 171
14 206
14 233
14 260
14 262
14 269
14 273
14 277
15 1
15 2
15 13
15 14
15 22
15 23
15 51
15 132
15 199
15 212
15 263
15 269
16 1
16 16
16 18
16 23
16 39
16 51
16 54
16 133
16 210
17 22
17 23
17 26
18 1
18 2
18 7
18 11
18 16
18 22
18 23
18 85
18 104
18 113
18 115
18 173
18 210
18 260
19 263
20 1
20 2
20 7
20 12
20 20
20 23
20 52
20 104
20 115
20 122
20 126
20 227
20 267
21 1
21 7
21 13
21 23
21 25
21 261
21 273
21 274
22 0
22 1
22 2
22 7
22 11
22 12
22 13
22 14
22 15
22 17
22 18
22 22
22 23
22 25
22 26
22 30
22 32
22 35
22 39
22 42
22 45
22 47
22 48
22 51
22 52
22 69
22 74
22 86
22 88
22 91
22 96
22 104
22 113
22 115
22 119
22 122
22 126
22 154
22 158
22 160
22 173
22 181
22 184
22 190
22 197
22 206
22 211
22 213
22 228
22 233
22 235
22 237
22 252
22 259
22 260
22 262
22 263
22 264
22 265
22 268
22 272
22 278
23 0
23 1
23 2
23 4
23 5
23 7
23 8
23 9
23 10
23 11
23 12
23 13
23 14
23 15
23 16
23 17
23 18
23 20
23 21
23 22
23 23
23 24
23 25
23 26
23 30
23 32
23 35
23 37
23 39
23 40
23 42
23 45
23 47
23 48
23 51
23 52
23 53
23 54
23 56
23 57
23 59
23 60
23 62
23 64
23 65
23 66
23 68
23 69
23 70
23 72
23 74
23 75
23 76
23 80
23 82
23 83
23 85
23 87
23 90
23 91
23 92
23 96
23 97
23 98
23 99
23 102
23 104
23 105
23 107
23 109
23 110
23 113
23 115
23 117
23 118
23 122
23 124
23 126
23 127
23 130
23 133
23 134
23 136
23 138
23 141
23 142
23 143
23 147
23 152
23 153
23 154
23 155
23 156
23 157
23 158
23 159
23 161
23 164
23 165
23 169
23 170
23 173
23 176
23 177
23 178
23 179
23 181
23 182
23 185
23 190
23 191
23 192
23 193
23 196
23 197
23 199
23 200
23 201
23 204
23 205
23 206
23 207
23 209
23 210
23 211
23 212
23 213
23 214
23 215
23 216
23 217
23 221
23 222
23 223
23 224
23 225
23 227
23 229
23 230
23 231
23 232
23 235
23 237
23 238
23 240
23 243
23 244
23 247
23 248
23 249
23 253
23 254
23 255
23 257
23 258
23 259
23 260
23 262
23 263
23 264
23 265
23 267
23 268
23 269
23 270
23 271
23 273
23 274
23 275
23 276
23 277
23 278
24 1
24 2
24 7
24 23
24 25
24 26
24 42
24 53
24 91
24 96
24 113
24 120
24 122
24 126
24 160
24 165
24 210
24 212
24 222
24 235
24 237
24 264
24 268
24 270
24 275
24 277
25 0
25 1
25 2
25 7
25 9
25 11
25 12
25 13
25 21
25 22
25 23
25 24
25 25
25 26
25 39
25 51
25 69
25 85
25 91
25 107
25 162
25 169
25 171
25 184
25 199
25 225
25 244
25 260
25 263
25 266
25 268
25 271
25 274
25 275
26 0
26 1
26 2
26 7
26 12
26 13
26 14
26 17
26 22
26 23
26 24
26 25
26 58
26 80
26 87
26 88
26 98
26 116
26 146
26 161
26 163
26 166
26 170
26 192
26 196
26 199
26 219
26 220
26 228
26 237
26 243
26 248
26 252
26 256
26 260
26 263
26 267
26 273
26 274
26 276
27 278
28 1
28 2
28 7
28 11
28 12
28 30
28 47
28 48
28 83
28 212
28 270
28 274
29 1
29 2
29 12
29 35
29 52
29 74
29 86
29 113
29 115
29 154
30 1
30 2
30 7
30 11
30 12
30 13
30 22
30 23
30 28
30 35
30 52
30 113
30 115
30 122
30 126
30 263
30 266
30 267
30 281
31 1
31 2
31 7
31 12
31 120
31 122
31 213
31 243
31 260
32 1
32 2
32 7
32 12
32 14
32 22
32 23
32 41
32 91
32 104
32 115
32 126
32 132
32 263
32 267
32 269
32 277
33 33
33 42
34 263
34 276
35 1
35 2
35 7
35 11
35 12
35 22
35 23
35 29
35 30
35 45
35 48
35 51
35 52
35 74
35 91
35 104
35 113
35 146
35 237
35 263
35 268
35 271
35 273
35 274
36 36
36 38
36 144
36 250
37 23
37 104
37 113
37 133
37 264
38 36
38 144
38 250
39 1
39 7
39 9
39 10
39 12
39 16
39 22
39 23
39 25
39 39
39 47
39 52
39 66
39 91
39 152
39 171
39 260
39 263
39 264
40 23
40 40
41 1
41 7
41 32
41 179
42 1
42 2
42 7
42 12
42 22
42 23
42 24
42 33
42 45
42 52
42 71
42 86
42 91
42 95
42 104
42 109
42 113
42 156
42 174
42 190
42 192
42 235
42 236
42 260
42 266
42 267
42 283
43 43
43 91
44 175
45 1
45 2
45 7
45 9
45 11
45 12
45 13
45 22
45 23
45 35
45 42
45 48
45 74
45 91
45 124
45 260
45 261
45 267
45 270
45 271
45 274
45 275
46 2
46 46
46 52
46 183
47 1
47 11
47 12
47 13
47 22
47 23
47 28
47 39
47 59
47 60
47 91
47 154
47 190
47 260
47 264
47 268
47 270
48 1
48 2
48 7
48 11
48 12
48 14
48 22
48 23
48 28
48 35
48 45
48 52
48 59
48 97
48 115
48 120
48 162
48 184
48 190
48 227
48 263
48 268
48 272
48 274
49 184
50 50
51 0
51 1
51 7
51 12
51 15
51 16
51 22
51 23
51 25
51 35
51 95
51 124
51 195
51 233
51 260
52 0
52 1
52 2
52 7
52 11
52 12
52 13
52 20
52 22
52 23
52 29
52 30
52 35
52 39
52 42
52 46
52 48
52 69
52 86
52 104
52 113
52 115
52 120
52 124
52 146
52 193
52 210
52 213
52 225
52 233
52 237
52 260
52 266
52 271
52 274
52 275
53 12
53 23
53 24
53 53
53 91
53 165
54 1
54 7
54 12
54 16
54 23
54 133
54 190
54 237
55 169
56 23
57 23
57 59
58 26
59 23
59 47
59 48
59 57
60 7
60 9
60 11
60 12
60 23
60 47
60 91
60 225
60 268
60 270
60 274
61 61
61 62
62 0
62 7
62 23
62 61
62 62
62 260
63 63
63 260
63 273
64 23
64 64
65 23
65 82
65 260
66 1
66 2
66 7
66 11
66 12
66 14
66 23
66 39
66 115
66 261
66 264
66 277
67 279
68 23
68 68
69 0
69 1
69 13
69 22
69 23
69 25
69 52
69 244
69 263
69 267
69 274
70 23
70 70
71 42
72 23
72 72
73 280
74 1
74 2
74 7
74 22
74 23
74 29
74 35
74 45
74 264
75 23
76 23
77 91
77 212
77 261
78 262
79 1
79 7
79 136
80 23
80 26
80 80
80 228
81 260
82 23
82 65
82 82
82 260
83 1
83 7
83 11
83 13
83 23
83 28
83 96
83 263
84 84
84 91
85 1
85 12
85 18
85 23
85 25
85 104
85 115
85 173
86 1
86 2
86 7
86 12
86 13
86 22
86 29
86 42
86 52
86 113
86 120
86 193
87 23
87 26
87 87
87 262
88 22
88 26
89 89
89 225
90 23
91 0
91 1
91 2
91 7
91 12
91 13
91 22
91 23
91 24
91 25
91 32
91 35
91 39
91 42
91 43
91 45
91 47
91 53
91 60
91 77
91 84
91 104
91 115
91 165
91 172
91 194
91 210
91 212
91 225
91 260
91 264
91 268
91 270
92 23
93 260
94 180
95 42
95 51
96 1
96 2
96 11
96 14
96 22
96 23
96 24
96 83
96 104
96 132
96 233
97 23
97 48
97 262
97 274
98 23
98 26
98 263
99 1
99 23
99 99
99 177
99 260
99 271
100 239
100 263
101 262
101 271
102 23
102 102
102 263
103 103
103 263
104 1
104 2
104 7
104 10
104 14
104 18
104 20
104 22
104 23
104 32
104 35
104 37
104 42
104 52
104 85
104 91
104 96
104 104
104 113
104 115
104 133
104 160
104 210
104 222
104 260
104 263
104 264
104 277
105 23
106 138
106 260
106 271
107 1
107 2
107 13
107 23
107 25
107 115
108 112
109 23
109 42
109 109
110 23
110 110
111 111
112 108
112 112
113 1
113 2
113 7
113 11
113 12
113 18
113 22
113 23
113 24
113 29
113 30
113 35
113 37
113 42
113 52
113 86
113 104
113 113
113 115
113 120
113 122
113 160
113 210
113 212
113 235
113 243
113 264
113 267
114 152
114 153
115 1
115 2
115 12
115 14
115 18
115 20
115 22
115 23
115 29
115 30
115 32
115 48
115 52
115 66
115 85
115 91
115 104
115 107
115 113
115 115
115 122
115 126
115 162
115 173
115 190
115 210
115 222
115 227
115 263
115 265
115 266
115 267
115 282
116 14
116 26
116 260
117 23
118 23
119 22
120 1
120 2
120 11
120 12
120 24
120 31
120 48
120 52
120 86
120 113
120 126
120 243
120 268
121 260
122 1
122 2
122 7
122 12
122 20
122 22
122 23
122 24
122 30
122 31
122 113
122 115
122 124
122 173
122 190
122 213
122 237
122 264
123 281
124 1
124 7
124 23
124 45
124 51
124 52
124 122
124 184
124 212
124 261
124 263
124 269
124 271
124 273
124 275
124 277
125 1
125 2
125 7
125 12
125 126
125 167
125 190
125 260
125 263
125 268
126 1
126 2
126 11
126 20
126 22
126 23
126 24
126 30
126 32
126 115
126 120
126 125
126 266
126 268
127 23
127 127
128 263
128 282
129 260
129 264
130 23
130 204
131 260
132 1
132 2
132 15
132 32
132 96
132 227
132 260
133 16
133 23
133 37
133 54
133 104
133 222
134 23
134 134
135 135
135 262
136 23
136 79
137 262
137 273
138 1
138 11
138 23
138 106
138 138
138 260
138 271
139 139
139 145
140 186
141 1
141 23
141 158
141 272
142 23
142 271
143 23
143 143
144 36
144 38
145 139
146 1
146 2
146 7
146 12
146 26
146 35
146 52
147 23
147 147
148 186
148 214
149 264
150 1
150 256
150 263
150 272
151 221
152 1
152 7
152 9
152 11
152 12
152 23
152 39
152 114
152 153
152 173
152 253
152 260
153 7
153 23
153 114
153 152
154 1
154 2
154 9
154 22
154 23
154 29
154 47
154 154
155 23
156 23
156 42
157 23
158 1
158 7
158 12
158 22
158 23
158 141
158 158
158 182
158 263
158 272
159 23
160 2
160 7
160 10
160 22
160 24
160 104
160 113
160 212
160 264
160 277
161 23
161 26
161 181
162 1
162 25
162 48
162 115
163 26
164 23
164 164
165 1
165 11
165 23
165 24
165 53
165 91
165 165
166 26
167 1
167 7
167 9
167 11
167 13
167 125
167 260
168 189
169 1
169 7
169 23
169 25
169 55
170 23
170 26
170 273
171 1
171 14
171 25
171 39
171 262
171 273
172 91
172 251
173 1
173 18
173 22
173 23
173 85
173 115
173 122
173 152
174 1
174 42
175 44
175 269
176 23
177 1
177 23
177 99
177 260
178 23
179 23
179 41
180 94
181 7
181 22
181 23
181 161
181 181
181 209
181 263
181 272
182 23
182 158
182 272
183 46
184 0
184 1
184 7
184 12
184 22
184 25
184 48
184 49
184 124
184 199
184 215
184 260
184 268
184 273
185 23
185 185
186 4
186 140
186 148
186 214
187 244
187 283
188 6
188 218
189 168
189 275
190 1
190 2
190 7
190 22
190 23
190 42
190 47
190 48
190 54
190 115
190 122
190 125
190 227
190 237
191 23
192 23
192 26
192 42
192 249
193 1
193 2
193 12
193 13
193 23
193 52
193 86
194 91
195 51
195 195
196 23
196 26
197 22
197 23
198 260
198 263
198 274
198 282
199 0
199 1
199 2
199 7
199 12
199 13
199 15
199 23
199 25
199 26
199 184
199 233
199 260
199 263
199 267
200 23
200 200
200 274
201 23
201 201
202 260
203 203
203 284
204 23
204 130
204 204
205 23
205 205
206 1
206 2
206 7
206 12
206 14
206 22
206 23
206 216
207 23
207 207
207 278
208 208
208 260
208 264
209 1
209 2
209 7
209 11
209 23
209 181
209 227
209 260
209 263
210 1
210 2
210 12
210 16
210 18
210 23
210 24
210 52
210 91
210 104
210 113
210 115
210 266
211 22
211 23
211 211
212 0
212 1
212 2
212 7
212 12
212 15
212 23
212 24
212 28
212 77
212 91
212 113
212 124
212 160
212 217
212 243
212 260
212 261
212 264
213 1
213 2
213 7
213 12
213 13
213 22
213 23
213 31
213 52
213 122
213 260
213 263
213 274
214 1
214 4
214 23
214 148
214 186
214 214
215 23
215 184
215 215
215 273
216 1
216 2
216 23
216 206
216 216
216 267
217 23
217 212
217 217
218 6
218 188
218 218
219 26
219 219
219 263
220 26
221 23
221 151
221 221
222 1
222 10
222 12
222 23
222 24
222 104
222 115
222 133
222 227
223 23
224 23
224 224
225 7
225 12
225 23
225 25
225 52
225 60
225 89
225 91
225 225
226 277
227 1
227 2
227 9
227 12
227 20
227 23
227 48
227 115
227 132
227 190
227 209
227 222
227 263
228 22
228 26
228 80
229 23
230 23
230 245
231 23
231 268
232 23
232 268
233 1
233 2
233 7
233 11
233 12
233 14
233 22
233 51
233 52
233 96
233 199
234 0
234 263
235 22
235 23
235 24
235 42
235 113
236 42
236 269
237 1
237 2
237 7
237 11
237 22
237 23
237 24
237 26
237 35
237 52
237 54
237 122
237 190
237 264
238 23
239 100
240 23
240 240
241 241
241 270
242 242
242 275
243 2
243 12
243 23
243 26
243 31
243 113
243 120
243 212
244 1
244 7
244 23
244 25
244 69
244 187
245 230
246 271
247 23
248 23
248 26
248 248
249 7
249 8
249 11
249 23
249 192
250 36
250 38
251 172
252 22
252 26
252 252
253 23
253 152
254 23
255 23
256 26
256 150
257 23
257 257
258 23
259 22
259 23
259 259
260 0
260 1
260 2
260 7
260 9
260 12
260 13
260 14
260 18
260 22
260 23
260 25
260 26
260 31
260 39
260 42
260 45
260 47
260 51
260 52
260 62
260 63
260 65
260 81
260 82
260 91
260 93
260 99
260 104
260 106
260 116
260 121
260 125
260 129
260 131
260 132
260 138
260 152
260 167
260 177
260 184
260 198
260 199
260 202
260 208
260 209
260 212
260 213
260 260
260 261
260 263
260 264
260 269
260 275
261 0
261 1
261 2
261 7
261 12
261 13
261 21
261 45
261 66
261 77
261 124
261 212
261 260
262 0
262 1
262 7
262 9
262 11
262 13
262 14
262 22
262 23
262 78
262 87
262 97
262 101
262 135
262 137
262 171
263 0
263 1
263 2
263 7
263 11
263 12
263 13
263 15
263 19
263 22
263 23
263 25
263 26
263 30
263 32
263 34
263 35
263 39
263 48
263 69
263 83
263 98
263 100
263 102
263 103
263 104
263 115
263 124
263 125
263 128
263 150
263 158
263 181
263 198
263 199
263 209
263 213
263 219
263 227
263 234
263 260
263 272
263 274
263 276
263 282
264 1
264 2
264 7
264 9
264 11
264 12
264 22
264 23
264 24
264 37
264 39
264 47
264 66
264 74
264 91
264 104
264 113
264 122
264 129
264 149
264 160
264 208
264 212
264 237
264 260
264 267
264 271
265 1
265 2
265 22
265 23
265 115
266 1
266 2
266 7
266 11
266 12
266 25
266 30
266 42
266 52
266 115
266 126
266 210
267 1
267 2
267 7
267 8
267 11
267 12
267 20
267 23
267 26
267 30
267 32
267 42
267 45
267 69
267 113
267 115
267 199
267 216
267 264
267 281
267 283
268 0
268 1
268 2
268 7
268 11
268 12
268 13
268 22
268 23
268 24
268 25
268 35
268 47
268 48
268 60
268 91
268 120
268 125
268 126
268 184
268 231
268 232
268 272
268 274
269 1
269 7
269 14
269 15
269 23
269 32
269 124
269 175
269 236
269 260
269 274
270 0
270 1
270 2
270 7
270 11
270 23
270 24
270 28
270 45
270 47
270 60
270 91
270 241
271 0
271 1
271 2
271 7
271 11
271 13
271 23
271 25
271 35
271 45
271 52
271 99
271 101
271 106
271 124
271 138
271 142
271 246
271 264
272 1
272 7
272 12
272 13
272 22
272 48
272 141
272 150
272 158
272 181
272 182
272 263
272 268
273 0
273 1
273 2
273 7
273 12
273 13
273 14
273 21
273 23
273 26
273 35
273 63
273 124
273 137
273 170
273 171
273 184
273 215
274 0
274 1
274 2
274 7
274 12
274 13
274 21
274 23
274 25
274 26
274 28
274 35
274 45
274 48
274 52
274 60
274 69
274 97
274 198
274 200
274 213
274 263
274 268
274 269
275 0
275 1
275 2
275 7
275 12
275 13
275 23
275 24
275 25
275 45
275 52
275 124
275 189
275 242
275 260
276 0
276 1
276 7
276 23
276 26
276 34
276 263
277 0
277 1
277 2
277 7
277 12
277 13
277 14
277 23
277 24
277 32
277 66
277 104
277 124
277 160
277 226
278 1
278 7
278 11
278 12
278 22
278 23
278 27
278 207
279 1
279 7
279 13
279 67
280 7
280 73
281 1
281 2
281 7
281 30
281 123
281 267
282 0
282 1
282 7
282 12
282 115
282 128
282 198
282 263
283 1
283 2
283 7
283 12
283 42
283 187
283 267
284 1
284 2
284 12
284 203
