0 0
0 1
0 2
0 3
0 4
0 5
0 6
0 7
0 8
0 9
0 10
0 11
0 12
0 13
0 14
0 15
0 16
0 17
0 18
0 19
0 20
0 21
0 22
0 23
0 24
0 25
0 26
0 27
0 28
0 29
0 30
0 31
0 32
0 33
0 34
0 35
0 36
0 37
0 38
0 39
0 40
1 0
1 1
1 2
1 3
1 4
1 5
1 6
1 7
1 8
1 9
1 10
1 11
1 12
1 13
1 14
1 16
1 17
1 18
1 19
1 20
1 21
1 22
1 23
1 24
1 25
1 26
1 27
1 28
1 29
1 30
1 31
1 32
1 33
1 34
1 35
1 36
1 37
1 38
1 39
1 40
2 0
2 1
2 2
2 3
2 4
2 5
2 6
2 7
2 8
2 9
2 10
2 11
2 12
2 13
2 14
2 17
2 18
2 19
2 20
2 21
2 22
2 26
2 27
2 32
2 34
2 35
3 0
3 1
3 2
3 4
3 7
3 14
3 18
3 20
3 23
4 0
4 1
4 2
4 3
4 5
4 6
4 7
4 13
4 16
4 17
4 18
4 20
4 28
4 32
5 0
5 1
5 2
5 4
5 6
5 7
5 13
5 14
5 18
5 20
5 29
5 30
5 34
5 39
6 0
6 1
6 2
6 4
6 5
6 18
6 26
7 0
7 1
7 2
7 3
7 4
7 5
7 8
7 13
7 14
7 18
7 20
7 23
7 35
8 0
8 1
8 2
8 7
8 18
8 20
8 29
8 39
9 0
9 1
9 2
9 18
9 20
9 32
10 0
10 1
10 2
10 18
11 0
11 1
11 2
11 18
11 23
11 26
12 0
12 1
12 2
12 20
13 0
13 1
13 2
13 4
13 5
13 7
13 18
13 20
13 29
13 32
13 35
13 39
14 0
14 1
14 2
14 3
14 5
14 7
14 16
14 18
14 19
14 20
14 21
14 23
14 26
14 27
14 29
14 34
14 38
15 0
16 0
16 1
16 4
16 14
16 18
16 20
16 32
16 33
16 36
17 0
17 1
17 2
17 4
17 18
17 20
18 0
18 1
18 2
18 3
18 4
18 5
18 6
18 7
18 8
18 9
18 10
18 11
18 13
18 14
18 16
18 17
18 18
18 20
18 22
18 23
18 24
18 26
18 27
18 28
18 29
18 32
18 33
18 35
18 36
18 37
18 38
18 39
19 0
19 1
19 2
19 14
19 20
19 23
20 0
20 1
20 2
20 3
20 4
20 5
20 7
20 8
20 9
20 12
20 13
20 14
20 16
20 17
20 18
20 19
20 20
20 21
20 22
20 23
20 24
20 25
20 26
20 29
20 33
20 34
20 37
21 0
21 1
21 2
21 14
21 20
21 24
21 34
22 0
22 1
22 2
22 18
22 20
22 26
22 30
22 39
23 0
23 1
23 3
23 7
23 11
23 14
23 18
23 19
23 20
23 24
23 26
23 27
23 32
23 33
23 34
24 0
24 1
24 18
24 20
24 21
24 23
24 26
25 0
25 1
25 20
25 34
25 39
26 0
26 1
26 2
26 6
26 11
26 14
26 18
26 20
26 22
26 23
26 24
26 26
26 28
26 29
26 30
26 33
26 34
26 36
26 39
27 0
27 1
27 2
27 14
27 18
27 23
27 30
27 35
28 0
28 1
28 4
28 18
28 26
29 0
29 1
29 5
29 8
29 13
29 14
29 18
29 20
29 26
29 29
29 34
29 39
30 0
30 1
30 5
30 22
30 26
30 27
30 38
31 0
31 1
32 0
32 1
32 2
32 4
32 9
32 13
32 16
32 18
32 23
32 33
32 39
33 0
33 1
33 16
33 18
33 20
33 23
33 26
33 32
33 36
34 0
34 1
34 2
34 5
34 14
34 20
34 21
34 23
34 25
34 26
34 29
34 39
35 0
35 1
35 2
35 7
35 13
35 18
35 27
35 39
36 0
36 1
36 16
36 18
36 26
36 33
37 0
37 1
37 18
37 20
38 0
38 1
38 14
38 18
38 30
39 0
39 1
39 5
39 8
39 13
39 18
39 22
39 25
39 26
39 29
39 32
39 34
39 35
40 0
40 1
