0 0
0 1
0 2
0 3
0 4
0 5
0 6
0 7
0 8
0 9
0 10
0 11
0 12
0 13
0 14
0 15
0 16
0 17
0 18
0 19
0 20
0 21
0 22
0 23
0 24
0 25
0 26
0 27
0 28
0 29
0 30
0 31
0 32
0 33
0 34
0 35
0 36
0 37
0 38
0 40
0 41
0 42
0 43
0 44
0 45
0 46
0 47
0 48
0 49
0 50
0 51
0 52
0 53
0 54
0 56
0 58
0 60
0 61
0 62
0 63
0 64
0 66
0 67
0 68
0 69
0 70
0 71
0 72
0 73
0 74
0 76
0 77
0 78
0 79
0 80
0 81
0 82
0 84
0 85
1 0
1 1
1 2
1 3
1 4
1 5
1 6
1 7
1 8
1 9
1 10
1 11
1 12
1 13
1 14
1 15
1 16
1 17
1 19
1 20
1 21
1 22
1 23
1 24
1 25
1 26
1 27
1 28
1 29
1 30
1 31
1 32
1 33
1 34
1 35
1 36
1 37
1 38
1 39
1 40
1 41
1 42
1 43
1 44
1 45
1 46
1 47
1 48
1 49
1 50
1 51
1 52
1 53
1 54
1 55
1 59
1 60
1 61
1 62
1 63
1 64
1 65
1 66
1 67
1 68
1 69
1 70
1 71
1 72
1 73
1 74
1 76
1 77
1 78
1 79
1 80
1 81
1 83
1 84
2 0
2 1
2 2
2 3
2 5
2 6
2 7
2 10
2 11
2 12
2 14
2 15
2 16
2 17
2 19
2 20
2 21
2 22
2 23
2 24
2 26
2 27
2 29
2 30
2 31
2 32
2 33
2 36
2 40
2 41
2 43
2 44
2 47
2 60
2 63
2 64
2 66
2 68
2 71
2 72
2 76
2 77
3 0
3 1
3 2
3 5
3 6
3 8
3 16
3 17
3 19
3 22
3 24
3 31
3 36
3 47
3 48
3 63
3 67
3 72
3 76
4 0
4 1
4 5
4 9
4 17
4 19
4 24
4 28
4 38
4 43
4 47
4 64
4 69
4 72
5 0
5 1
5 2
5 3
5 4
5 6
5 9
5 17
5 19
5 20
5 24
5 32
5 36
5 47
5 76
6 0
6 1
6 2
6 3
6 5
6 19
6 38
6 40
6 47
6 69
6 72
7 0
7 1
7 2
7 9
7 16
7 17
7 27
7 36
7 59
8 0
8 1
8 3
8 19
8 22
8 36
8 50
9 0
9 1
9 4
9 5
9 7
9 16
9 17
9 19
9 22
9 24
9 36
9 63
9 67
10 0
10 1
10 2
10 16
10 24
10 27
10 29
10 36
10 43
10 44
10 67
10 72
11 0
11 1
11 2
11 22
11 24
11 26
11 38
11 63
11 72
12 0
12 1
12 2
12 36
12 44
12 63
12 64
12 66
12 72
13 0
13 1
13 19
13 27
13 44
13 63
13 72
14 0
14 1
14 2
14 19
14 23
14 24
14 27
14 36
14 59
14 72
15 0
15 1
15 2
15 19
15 24
15 27
15 36
16 0
16 1
16 2
16 3
16 7
16 9
16 10
16 19
16 22
16 24
16 27
16 29
16 36
16 62
16 66
16 67
17 0
17 1
17 2
17 3
17 4
17 5
17 7
17 9
17 19
17 23
17 24
17 27
17 28
17 32
17 36
17 38
17 41
17 42
17 43
17 44
17 47
17 52
17 54
17 63
17 64
17 72
18 0
18 18
19 0
19 1
19 2
19 3
19 4
19 5
19 6
19 8
19 9
19 13
19 14
19 15
19 16
19 17
19 19
19 20
19 21
19 22
19 23
19 24
19 25
19 27
19 28
19 30
19 32
19 36
19 38
19 43
19 44
19 46
19 47
19 48
19 52
19 54
19 57
19 58
19 63
19 64
19 67
19 70
19 71
19 72
19 73
19 81
20 0
20 1
20 2
20 5
20 19
20 38
20 72
21 0
21 1
21 2
21 19
21 24
21 27
21 78
22 0
22 1
22 2
22 3
22 8
22 9
22 11
22 16
22 19
22 24
22 26
22 27
22 36
22 38
22 47
22 50
22 67
22 72
23 0
23 1
23 2
23 14
23 17
23 19
23 24
23 27
23 38
23 43
23 50
23 72
24 0
24 1
24 2
24 3
24 4
24 5
24 9
24 10
24 11
24 14
24 15
24 16
24 17
24 19
24 21
24 22
24 23
24 24
24 26
24 27
24 28
24 32
24 35
24 36
24 38
24 40
24 41
24 42
24 43
24 44
24 47
24 50
24 52
24 60
24 62
24 63
24 69
24 72
24 73
24 78
24 80
25 0
25 1
25 19
25 36
25 66
26 0
26 1
26 2
26 11
26 22
26 24
26 33
26 38
26 69
26 72
26 76
27 0
27 1
27 2
27 7
27 10
27 13
27 14
27 15
27 16
27 17
27 19
27 21
27 22
27 23
27 24
27 29
27 30
27 36
27 38
27 44
27 48
27 52
27 53
27 54
27 64
28 0
28 1
28 4
28 17
28 19
28 24
28 34
28 35
28 36
28 47
28 64
28 83
29 0
29 1
29 2
29 10
29 16
29 27
29 31
29 36
29 44
29 64
29 67
29 72
30 0
30 1
30 2
30 19
30 27
30 36
30 38
30 44
30 47
30 84
31 0
31 1
31 2
31 3
31 29
31 36
31 62
31 80
32 0
32 1
32 2
32 5
32 17
32 19
32 24
32 36
32 38
32 62
32 63
32 64
33 0
33 1
33 2
33 26
33 38
33 72
34 0
34 1
34 28
34 38
34 44
34 47
34 63
34 64
35 0
35 1
35 24
35 28
35 36
35 38
35 66
35 72
36 0
36 1
36 2
36 3
36 5
36 7
36 8
36 9
36 10
36 12
36 14
36 15
36 16
36 17
36 19
36 22
36 24
36 25
36 27
36 28
36 29
36 30
36 31
36 32
36 35
36 36
36 38
36 42
36 43
36 44
36 47
36 48
36 50
36 53
36 59
36 60
36 61
36 62
36 63
36 64
36 71
36 72
36 81
36 83
37 0
37 1
37 38
37 63
37 72
38 0
38 1
38 4
38 6
38 11
38 17
38 19
38 20
38 22
38 23
38 24
38 26
38 27
38 30
38 32
38 33
38 34
38 35
38 36
38 37
38 38
38 39
38 40
38 41
38 43
38 44
38 45
38 47
38 48
38 49
38 50
38 52
38 53
38 55
38 63
38 64
38 69
38 72
38 74
38 76
38 77
38 78
38 79
38 81
39 1
39 38
40 0
40 1
40 2
40 6
40 24
40 38
40 40
40 74
40 77
40 81
41 0
41 1
41 2
41 17
41 24
41 38
41 44
41 63
42 0
42 1
42 17
42 24
42 36
42 47
42 81
43 0
43 1
43 2
43 4
43 10
43 17
43 19
43 23
43 24
43 36
43 38
44 0
44 1
44 2
44 10
44 12
44 13
44 17
44 19
44 24
44 27
44 29
44 30
44 34
44 36
44 38
44 41
44 47
44 63
45 0
45 1
45 38
46 0
46 1
46 19
47 0
47 1
47 2
47 3
47 4
47 5
47 6
47 17
47 19
47 22
47 24
47 28
47 30
47 34
47 36
47 38
47 42
47 44
47 63
47 67
47 68
47 72
47 74
48 0
48 1
48 3
48 19
48 27
48 36
48 38
48 59
48 63
49 0
49 1
49 38
50 0
50 1
50 8
50 22
50 23
50 24
50 36
50 38
50 63
50 67
50 72
51 0
51 1
51 63
51 70
52 0
52 1
52 17
52 19
52 24
52 27
52 38
53 0
53 1
53 27
53 36
53 38
53 62
53 72
54 0
54 1
54 17
54 19
54 27
54 63
54 64
55 1
55 38
55 63
56 0
57 19
58 0
58 19
59 1
59 7
59 14
59 36
59 48
59 60
59 61
59 72
60 0
60 1
60 2
60 24
60 36
60 59
61 0
61 1
61 36
61 59
62 0
62 1
62 16
62 24
62 31
62 32
62 36
62 53
62 63
62 64
62 71
62 72
63 0
63 1
63 2
63 3
63 9
63 11
63 12
63 13
63 17
63 19
63 24
63 32
63 34
63 36
63 37
63 38
63 41
63 44
63 47
63 48
63 50
63 51
63 54
63 55
63 62
63 63
63 67
63 73
63 78
63 81
64 0
64 1
64 2
64 4
64 12
64 17
64 19
64 27
64 28
64 29
64 32
64 34
64 36
64 38
64 54
64 62
64 72
65 1
66 0
66 1
66 2
66 12
66 16
66 25
66 35
66 67
67 0
67 1
67 3
67 9
67 10
67 16
67 19
67 22
67 29
67 47
67 50
67 63
67 66
67 80
68 0
68 1
68 2
68 47
68 72
69 0
69 1
69 4
69 6
69 24
69 26
69 38
69 76
70 0
70 1
70 19
70 51
71 0
71 1
71 2
71 19
71 36
71 62
72 0
72 1
72 2
72 3
72 4
72 6
72 10
72 11
72 12
72 13
72 14
72 17
72 19
72 20
72 22
72 23
72 24
72 26
72 29
72 33
72 35
72 36
72 37
72 38
72 47
72 50
72 53
72 59
72 62
72 64
72 68
72 72
72 76
72 80
73 0
73 1
73 19
73 24
73 63
74 0
74 1
74 38
74 40
74 47
74 74
74 75
74 77
74 78
74 82
74 84
75 74
75 82
75 85
76 0
76 1
76 2
76 3
76 5
76 26
76 38
76 69
76 72
76 81
77 0
77 1
77 2
77 38
77 40
77 74
78 0
78 1
78 21
78 24
78 38
78 63
78 74
78 84
79 0
79 1
79 38
80 0
80 1
80 24
80 31
80 67
80 72
81 0
81 1
81 19
81 36
81 38
81 40
81 42
81 63
81 76
82 0
82 74
82 75
82 82
82 85
83 1
83 28
83 36
83 84
84 0
84 1
84 30
84 74
84 78
84 83
84 84
85 0
85 75
85 82
