0 0
0 1
0 2
0 3
0 4
0 5
0 6
0 7
0 8
0 9
0 10
0 11
0 12
0 13
0 14
0 15
0 16
0 17
1 0
1 1
1 2
1 3
1 4
1 5
1 6
1 7
1 8
1 9
1 11
1 12
1 13
1 14
1 15
1 16
1 17
2 0
2 1
2 2
2 3
2 4
2 5
2 6
2 7
2 8
2 9
2 11
2 12
2 13
2 16
3 0
3 1
3 2
3 3
3 4
3 8
3 9
3 12
3 13
3 16
3 17
4 0
4 1
4 2
4 3
4 8
4 9
4 13
5 0
5 1
5 2
5 5
5 8
5 13
6 0
6 1
6 2
6 13
7 0
7 1
7 2
7 13
8 0
8 1
8 2
8 3
8 4
8 5
8 13
9 0
9 1
9 2
9 3
9 4
9 11
9 12
9 13
10 0
10 10
11 0
11 1
11 2
11 9
11 13
12 0
12 1
12 2
12 3
12 9
12 12
12 13
12 16
13 0
13 1
13 2
13 3
13 4
13 5
13 6
13 7
13 8
13 9
13 11
13 12
13 13
13 14
13 15
13 16
13 17
14 0
14 1
14 13
15 0
15 1
15 13
16 0
16 1
16 2
16 3
16 12
16 13
17 0
17 1
17 3
17 13
