0 0
0 1
0 7
0 9
0 12
0 22
0 23
0 25
0 26
0 52
0 53
0 63
0 70
0 83
0 93
0 98
0 99
0 175
0 191
0 206
0 207
0 213
0 221
0 241
0 245
0 246
0 252
1 0
1 1
1 2
1 7
1 8
1 9
1 11
1 12
1 13
1 14
1 15
1 16
1 18
1 20
1 21
1 22
1 23
1 24
1 25
1 26
1 28
1 29
1 30
1 31
1 32
1 35
1 39
1 40
1 42
1 43
1 46
1 48
1 49
1 52
1 53
1 55
1 67
1 70
1 75
1 80
1 83
1 85
1 87
1 88
1 93
1 98
1 99
1 100
1 103
1 108
1 111
1 117
1 119
1 124
1 126
1 128
1 129
1 130
1 136
1 142
1 145
1 148
1 151
1 155
1 157
1 159
1 163
1 166
1 168
1 171
1 173
1 175
1 176
1 178
1 180
1 181
1 184
1 191
1 197
1 200
1 206
1 207
1 213
1 215
1 218
1 219
1 221
1 222
1 223
1 225
1 227
1 232
1 237
1 241
1 244
1 245
1 249
1 252
1 257
2 1
2 2
2 7
2 11
2 12
2 14
2 15
2 18
2 20
2 22
2 23
2 24
2 25
2 26
2 28
2 29
2 30
2 31
2 32
2 35
2 39
2 43
2 46
2 47
2 49
2 53
2 67
2 75
2 83
2 88
2 93
2 98
2 99
2 100
2 108
2 111
2 117
2 119
2 124
2 126
2 129
2 130
2 136
2 148
2 151
2 159
2 165
2 166
2 175
2 197
2 200
2 206
2 207
2 215
2 218
2 219
2 221
2 222
2 225
2 227
2 237
2 241
2 244
2 245
2 249
2 252
2 256
3 3
4 4
4 23
4 193
4 223
5 5
5 23
6 195
6 228
7 0
7 1
7 2
7 7
7 9
7 10
7 11
7 12
7 13
7 14
7 18
7 20
7 21
7 22
7 23
7 24
7 25
7 26
7 28
7 30
7 31
7 32
7 35
7 39
7 40
7 42
7 43
7 46
7 49
7 52
7 53
7 55
7 61
7 63
7 67
7 75
7 80
7 83
7 85
7 88
7 93
7 98
7 99
7 108
7 117
7 126
7 128
7 129
7 148
7 151
7 157
7 158
7 163
7 165
7 166
7 173
7 175
7 176
7 188
7 191
7 197
7 206
7 207
7 213
7 215
7 218
7 221
7 222
7 227
7 235
7 241
7 244
7 245
7 249
7 252
7 257
7 262
8 1
8 8
8 11
8 23
8 39
8 262
9 0
9 1
9 7
9 11
9 23
9 25
9 40
9 46
9 61
9 83
9 148
9 157
9 159
9 173
9 237
9 252
10 7
10 23
10 40
10 108
10 165
10 232
11 1
11 2
11 7
11 8
11 9
11 11
11 12
11 13
11 14
11 18
11 22
11 23
11 25
11 28
11 30
11 35
11 39
11 46
11 48
11 49
11 53
11 61
11 67
11 85
11 98
11 100
11 117
11 124
11 130
11 142
11 148
11 157
11 166
11 171
11 173
11 213
11 218
11 244
11 245
11 249
11 252
11 262
12 0
12 1
12 2
12 7
12 11
12 12
12 13
12 14
12 20
12 22
12 23
12 25
12 26
12 28
12 29
12 30
12 31
12 32
12 35
12 39
12 40
12 43
12 46
12 48
12 49
12 52
12 53
12 54
12 55
12 61
12 67
12 83
12 87
12 88
12 93
12 98
12 99
12 117
12 119
12 124
12 126
12 129
12 148
12 151
12 157
12 163
12 166
12 175
12 191
12 200
12 206
12 207
12 213
12 215
12 219
12 221
12 222
12 227
12 232
12 235
12 237
12 241
12 244
12 245
12 256
13 1
13 7
13 11
13 12
13 15
13 21
13 22
13 23
13 25
13 26
13 30
13 46
13 48
13 53
13 70
13 83
13 85
13 88
13 93
13 98
13 99
13 111
13 173
13 175
13 200
13 206
13 207
13 222
13 241
13 245
13 252
14 1
14 2
14 7
14 11
14 12
14 14
14 15
14 22
14 23
14 26
14 32
14 49
14 67
14 83
14 99
14 100
14 108
14 119
14 120
14 166
14 178
14 215
14 241
14 244
14 252
15 1
15 2
15 13
15 14
15 22
15 23
15 52
15 98
15 136
15 166
15 206
15 221
16 1
16 16
16 18
16 23
16 40
16 52
16 55
16 137
16 219
17 22
17 23
17 26
18 1
18 2
18 7
18 11
18 16
18 22
18 23
18 83
18 87
18 108
18 117
18 119
18 180
18 219
19 98
20 1
20 2
20 7
20 12
20 20
20 23
20 39
20 53
20 108
20 119
20 126
20 130
20 237
21 1
21 7
21 13
21 23
21 25
21 99
21 207
21 241
22 0
22 1
22 2
22 7
22 11
22 12
22 13
22 14
22 15
22 17
22 18
22 22
22 23
22 25
22 26
22 30
22 32
22 35
22 40
22 43
22 46
22 48
22 49
22 52
22 53
22 70
22 75
22 83
22 88
22 90
22 93
22 98
22 100
22 108
22 117
22 119
22 123
22 126
22 130
22 148
22 159
22 163
22 165
22 175
22 180
22 188
22 191
22 197
22 204
22 213
22 215
22 220
22 222
22 227
22 238
22 244
22 247
22 249
22 252
22 265
22 272
23 0
23 1
23 2
23 4
23 5
23 7
23 8
23 9
23 10
23 11
23 12
23 13
23 14
23 15
23 16
23 17
23 18
23 20
23 21
23 22
23 23
23 24
23 25
23 26
23 30
23 32
23 35
23 37
23 39
23 40
23 41
23 43
23 46
23 48
23 49
23 52
23 53
23 54
23 55
23 57
23 58
23 60
23 61
23 63
23 65
23 66
23 67
23 69
23 70
23 71
23 73
23 75
23 76
23 77
23 81
23 83
23 84
23 85
23 87
23 89
23 92
23 93
23 94
23 98
23 99
23 100
23 101
23 102
23 103
23 106
23 108
23 109
23 111
23 113
23 114
23 117
23 119
23 121
23 122
23 126
23 128
23 130
23 131
23 134
23 137
23 138
23 140
23 142
23 145
23 146
23 147
23 148
23 152
23 157
23 158
23 159
23 160
23 161
23 162
23 163
23 164
23 166
23 167
23 170
23 171
23 176
23 177
23 180
23 183
23 184
23 185
23 186
23 188
23 189
23 192
23 197
23 198
23 199
23 200
23 203
23 204
23 206
23 207
23 208
23 209
23 212
23 213
23 214
23 215
23 216
23 218
23 219
23 220
23 221
23 222
23 223
23 224
23 225
23 226
23 227
23 231
23 232
23 233
23 234
23 235
23 237
23 239
23 240
23 241
23 242
23 243
23 245
23 247
23 249
23 250
23 252
23 253
23 256
23 257
23 260
23 261
23 262
23 266
23 267
23 268
23 270
23 271
23 272
24 1
24 2
24 7
24 23
24 25
24 26
24 43
24 54
24 93
24 98
24 100
24 117
24 124
24 126
24 130
24 148
24 165
24 171
24 219
24 221
24 232
24 241
24 245
24 247
24 249
25 0
25 1
25 2
25 7
25 9
25 11
25 12
25 13
25 21
25 22
25 23
25 24
25 25
25 26
25 40
25 52
25 70
25 83
25 87
25 93
25 98
25 111
25 166
25 168
25 176
25 178
25 191
25 206
25 207
25 235
25 245
25 252
25 257
26 0
26 1
26 2
26 7
26 12
26 13
26 14
26 17
26 22
26 23
26 24
26 25
26 39
26 59
26 81
26 83
26 89
26 90
26 98
26 99
26 102
26 120
26 151
26 167
26 169
26 172
26 177
26 199
26 203
26 206
26 207
26 213
26 229
26 230
26 238
26 249
26 256
26 261
26 265
26 269
27 213
28 1
28 2
28 7
28 11
28 12
28 30
28 48
28 49
28 85
28 207
28 221
28 245
29 1
29 2
29 12
29 35
29 53
29 75
29 88
29 117
29 119
29 159
30 1
30 2
30 7
30 11
30 12
30 13
30 22
30 23
30 28
30 35
30 39
30 53
30 98
30 117
30 119
30 126
30 130
30 166
30 175
31 1
31 2
31 7
31 12
31 83
31 124
31 126
31 222
31 256
32 1
32 2
32 7
32 12
32 14
32 22
32 23
32 39
32 42
32 93
32 98
32 108
32 119
32 130
32 136
32 166
32 241
33 33
33 43
34 98
34 213
35 1
35 2
35 7
35 11
35 12
35 22
35 23
35 29
35 30
35 46
35 49
35 52
35 53
35 75
35 93
35 98
35 99
35 108
35 117
35 151
35 207
35 249
35 252
36 36
36 38
36 149
36 263
37 23
37 108
37 117
37 137
37 148
38 36
38 149
38 263
39 1
39 2
39 7
39 8
39 11
39 12
39 20
39 23
39 26
39 30
39 32
39 43
39 46
39 70
39 117
39 119
39 148
39 175
39 206
39 225
39 227
40 1
40 7
40 9
40 10
40 12
40 16
40 22
40 23
40 25
40 40
40 48
40 53
40 67
40 83
40 93
40 98
40 148
40 157
40 178
41 23
41 41
42 1
42 7
42 32
42 186
43 1
43 2
43 7
43 12
43 22
43 23
43 24
43 33
43 39
43 46
43 53
43 72
43 83
43 88
43 93
43 97
43 108
43 113
43 117
43 161
43 166
43 181
43 197
43 199
43 227
43 247
43 248
44 44
44 93
45 182
46 1
46 2
46 7
46 9
46 11
46 12
46 13
46 22
46 23
46 35
46 39
46 43
46 49
46 75
46 83
46 93
46 128
46 207
46 241
46 245
46 252
47 2
47 47
47 53
47 190
48 1
48 11
48 12
48 13
48 22
48 23
48 28
48 40
48 60
48 61
48 83
48 93
48 98
48 148
48 159
48 197
48 245
49 1
49 2
49 7
49 11
49 12
49 14
49 22
49 23
49 28
49 35
49 46
49 53
49 60
49 98
49 101
49 119
49 124
49 168
49 175
49 191
49 197
49 207
49 237
50 191
51 51
52 0
52 1
52 7
52 12
52 15
52 16
52 22
52 23
52 25
52 35
52 83
52 97
52 128
52 202
52 244
53 0
53 1
53 2
53 7
53 11
53 12
53 13
53 20
53 22
53 23
53 29
53 30
53 35
53 40
53 43
53 47
53 49
53 70
53 83
53 88
53 108
53 117
53 119
53 124
53 128
53 151
53 166
53 200
53 207
53 219
53 222
53 235
53 244
53 245
53 249
53 252
54 12
54 23
54 24
54 54
54 93
54 171
55 1
55 7
55 12
55 16
55 23
55 137
55 197
55 249
56 176
57 23
58 23
58 60
59 26
60 23
60 48
60 49
60 58
61 7
61 9
61 11
61 12
61 23
61 48
61 93
61 98
61 207
61 235
61 245
62 62
62 63
63 0
63 7
63 23
63 62
63 63
63 83
64 64
64 83
64 99
65 23
65 65
66 23
66 83
66 84
67 1
67 2
67 7
67 11
67 12
67 14
67 23
67 40
67 119
67 148
67 241
68 175
69 23
69 69
70 0
70 1
70 13
70 22
70 23
70 25
70 39
70 53
70 98
70 207
70 257
71 23
71 71
72 43
73 23
73 73
74 175
75 1
75 2
75 7
75 22
75 23
75 29
75 35
75 46
75 148
76 23
77 23
78 93
78 221
78 241
79 252
80 1
80 7
80 140
81 23
81 26
81 81
81 238
82 83
83 0
83 1
83 2
83 7
83 9
83 12
83 13
83 14
83 18
83 22
83 23
83 25
83 26
83 31
83 40
83 43
83 46
83 48
83 52
83 53
83 63
83 64
83 66
83 82
83 83
83 84
83 93
83 95
83 98
83 103
83 108
83 110
83 120
83 125
83 129
83 133
83 135
83 136
83 142
83 148
83 157
83 166
83 173
83 184
83 191
83 205
83 206
83 210
83 217
83 218
83 221
83 222
83 241
83 245
84 23
84 66
84 83
84 84
85 1
85 7
85 11
85 13
85 23
85 28
85 98
85 100
86 86
86 93
87 1
87 12
87 18
87 23
87 25
87 108
87 119
87 180
88 1
88 2
88 7
88 12
88 13
88 22
88 29
88 43
88 53
88 117
88 124
88 200
89 23
89 26
89 89
89 252
90 22
90 26
91 91
91 235
92 23
93 0
93 1
93 2
93 7
93 12
93 13
93 22
93 23
93 24
93 25
93 32
93 35
93 40
93 43
93 44
93 46
93 48
93 54
93 61
93 78
93 83
93 86
93 98
93 108
93 119
93 148
93 171
93 179
93 201
93 219
93 221
93 235
93 245
94 23
95 83
96 187
97 43
97 52
98 0
98 1
98 2
98 7
98 11
98 12
98 13
98 15
98 19
98 22
98 23
98 24
98 25
98 26
98 30
98 32
98 34
98 35
98 40
98 48
98 49
98 61
98 70
98 83
98 85
98 93
98 102
98 104
98 106
98 107
98 108
98 119
98 124
98 128
98 129
98 130
98 132
98 155
98 163
98 175
98 188
98 191
98 205
98 206
98 207
98 213
98 218
98 222
98 229
98 237
98 242
98 243
98 246
99 0
99 1
99 2
99 7
99 12
99 13
99 14
99 21
99 23
99 26
99 35
99 64
99 128
99 141
99 177
99 178
99 191
99 224
100 1
100 2
100 11
100 14
100 22
100 23
100 24
100 85
100 108
100 136
100 244
101 23
101 49
101 207
101 252
102 23
102 26
102 98
103 1
103 23
103 83
103 103
103 184
103 252
104 98
104 251
105 252
106 23
106 98
106 106
107 98
107 107
108 1
108 2
108 7
108 10
108 14
108 18
108 20
108 22
108 23
108 32
108 35
108 37
108 43
108 53
108 83
108 87
108 93
108 98
108 100
108 108
108 117
108 119
108 137
108 148
108 165
108 219
108 232
108 241
109 23
110 83
110 142
110 252
111 1
111 2
111 13
111 23
111 25
111 119
112 116
113 23
113 43
113 113
114 23
114 114
115 115
116 112
116 116
117 1
117 2
117 7
117 11
117 12
117 18
117 22
117 23
117 24
117 29
117 30
117 35
117 37
117 39
117 43
117 53
117 88
117 108
117 117
117 119
117 124
117 126
117 148
117 165
117 219
117 221
117 247
117 256
118 157
118 158
119 1
119 2
119 12
119 14
119 18
119 20
119 22
119 23
119 29
119 30
119 32
119 39
119 49
119 53
119 67
119 87
119 93
119 98
119 108
119 111
119 117
119 119
119 126
119 130
119 166
119 168
119 175
119 180
119 197
119 219
119 227
119 232
119 237
120 14
120 26
120 83
121 23
122 23
123 22
124 1
124 2
124 11
124 12
124 24
124 31
124 49
124 53
124 88
124 98
124 117
124 130
124 256
125 83
126 1
126 2
126 7
126 12
126 20
126 22
126 23
126 24
126 30
126 31
126 117
126 119
126 128
126 148
126 180
126 197
126 222
126 249
127 175
128 1
128 7
128 23
128 46
128 52
128 53
128 98
128 99
128 126
128 166
128 191
128 221
128 241
128 245
128 252
129 1
129 2
129 7
129 12
129 83
129 98
129 130
129 173
129 197
130 1
130 2
130 11
130 20
130 22
130 23
130 24
130 30
130 32
130 98
130 119
130 124
130 129
130 166
131 23
131 131
132 98
132 175
133 83
133 148
134 23
134 212
135 83
136 1
136 2
136 15
136 32
136 83
136 100
136 237
137 16
137 23
137 37
137 55
137 108
137 232
138 23
138 138
139 139
139 252
140 23
140 80
141 99
141 252
142 1
142 11
142 23
142 83
142 110
142 142
142 252
143 143
143 150
144 193
145 1
145 23
145 163
145 175
146 23
146 252
147 23
147 147
148 1
148 2
148 7
148 9
148 11
148 12
148 22
148 23
148 24
148 37
148 39
148 40
148 48
148 67
148 75
148 83
148 93
148 108
148 117
148 126
148 133
148 154
148 165
148 217
148 221
148 249
148 252
149 36
149 38
150 143
151 1
151 2
151 7
151 12
151 26
151 35
151 53
152 23
152 152
153 193
153 223
154 148
155 1
155 98
155 175
155 269
156 231
157 1
157 7
157 9
157 11
157 12
157 23
157 40
157 83
157 118
157 158
157 180
157 266
158 7
158 23
158 118
158 157
159 1
159 2
159 9
159 22
159 23
159 29
159 48
159 159
160 23
161 23
161 43
162 23
163 1
163 7
163 12
163 22
163 23
163 98
163 145
163 163
163 175
163 189
164 23
165 2
165 7
165 10
165 22
165 24
165 108
165 117
165 148
165 221
165 241
166 1
166 2
166 7
166 11
166 12
166 14
166 15
166 23
166 25
166 30
166 32
166 43
166 53
166 83
166 119
166 128
166 130
166 182
166 207
166 219
166 248
167 23
167 26
167 188
168 1
168 25
168 49
168 119
169 26
170 23
170 170
171 1
171 11
171 23
171 24
171 54
171 93
171 171
172 26
173 1
173 7
173 9
173 11
173 13
173 83
173 129
174 196
175 0
175 1
175 2
175 7
175 12
175 13
175 22
175 30
175 39
175 49
175 68
175 74
175 98
175 119
175 127
175 132
175 145
175 155
175 163
175 188
175 189
175 205
175 211
176 1
176 7
176 23
176 25
176 56
177 23
177 26
177 99
178 1
178 14
178 25
178 40
178 99
178 252
179 93
179 264
180 1
180 18
180 22
180 23
180 87
180 119
180 126
180 157
181 1
181 43
182 45
182 166
183 23
184 1
184 23
184 83
184 103
185 23
186 23
186 42
187 96
188 7
188 22
188 23
188 98
188 167
188 175
188 188
188 218
189 23
189 163
189 175
190 47
191 0
191 1
191 7
191 12
191 22
191 25
191 49
191 50
191 83
191 98
191 99
191 128
191 206
191 224
192 23
192 192
193 4
193 144
193 153
193 223
194 227
194 257
195 6
195 228
196 174
196 245
197 1
197 2
197 7
197 22
197 23
197 43
197 48
197 49
197 55
197 119
197 126
197 129
197 237
197 249
198 23
199 23
199 26
199 43
199 262
200 1
200 2
200 12
200 13
200 23
200 53
200 88
201 93
202 52
202 202
203 23
203 26
204 22
204 23
205 83
205 98
205 175
205 207
206 0
206 1
206 2
206 7
206 12
206 13
206 15
206 23
206 25
206 26
206 39
206 83
206 98
206 191
206 244
207 0
207 1
207 2
207 7
207 12
207 13
207 21
207 23
207 25
207 26
207 28
207 35
207 46
207 49
207 53
207 61
207 70
207 98
207 101
207 166
207 205
207 208
207 222
208 23
208 207
208 208
209 23
209 209
210 83
211 175
211 211
212 23
212 134
212 212
213 0
213 1
213 7
213 11
213 12
213 22
213 23
213 26
213 27
213 34
213 98
213 216
214 23
214 214
215 1
215 2
215 7
215 12
215 14
215 22
215 23
215 225
216 23
216 213
216 216
217 83
217 148
217 217
218 1
218 2
218 7
218 11
218 23
218 83
218 98
218 188
218 237
219 1
219 2
219 12
219 16
219 18
219 23
219 24
219 53
219 93
219 108
219 117
219 119
219 166
220 22
220 23
220 220
221 0
221 1
221 2
221 7
221 12
221 15
221 23
221 24
221 28
221 78
221 83
221 93
221 117
221 128
221 148
221 165
221 226
221 241
221 256
222 1
222 2
222 7
222 12
222 13
222 22
222 23
222 31
222 53
222 83
222 98
222 126
222 207
223 1
223 4
223 23
223 153
223 193
223 223
224 23
224 99
224 191
224 224
225 1
225 2
225 23
225 39
225 215
225 225
226 23
226 221
226 226
227 1
227 2
227 7
227 12
227 22
227 23
227 39
227 43
227 119
227 194
228 6
228 195
228 228
229 26
229 98
229 229
230 26
231 23
231 156
231 231
232 1
232 10
232 12
232 23
232 24
232 108
232 119
232 137
232 237
233 23
234 23
234 234
235 7
235 12
235 23
235 25
235 53
235 61
235 91
235 93
235 235
236 241
237 1
237 2
237 9
237 12
237 20
237 23
237 49
237 98
237 119
237 136
237 197
237 218
237 232
238 22
238 26
238 81
239 23
240 23
240 258
241 0
241 1
241 2
241 7
241 12
241 13
241 14
241 21
241 23
241 24
241 32
241 46
241 67
241 78
241 83
241 108
241 128
241 165
241 221
241 236
242 23
242 98
243 23
243 98
244 1
244 2
244 7
244 11
244 12
244 14
244 22
244 52
244 53
244 100
244 206
245 0
245 1
245 2
245 7
245 11
245 12
245 13
245 23
245 24
245 25
245 28
245 46
245 48
245 53
245 61
245 83
245 93
245 128
245 196
245 254
245 255
246 0
246 98
247 22
247 23
247 24
247 43
247 117
248 43
248 166
249 1
249 2
249 7
249 11
249 22
249 23
249 24
249 26
249 35
249 53
249 55
249 126
249 148
249 197
250 23
251 104
252 0
252 1
252 2
252 7
252 9
252 11
252 13
252 14
252 22
252 23
252 25
252 35
252 46
252 53
252 79
252 89
252 101
252 103
252 105
252 110
252 128
252 139
252 141
252 142
252 146
252 148
252 178
252 259
253 23
253 253
254 245
254 254
255 245
255 255
256 2
256 12
256 23
256 26
256 31
256 117
256 124
256 221
257 1
257 7
257 23
257 25
257 70
257 194
258 240
259 252
260 23
261 23
261 26
261 261
262 7
262 8
262 11
262 23
262 199
263 36
263 38
264 179
265 22
265 26
265 265
266 23
266 157
267 23
268 23
269 26
269 155
270 23
270 270
271 23
272 22
272 23
272 272
