0 0
0 1
0 2
0 3
0 4
0 5
0 6
0 7
0 8
0 9
0 10
0 11
0 12
0 13
0 14
0 16
0 22
0 24
0 25
0 26
0 28
1 0
1 1
1 3
1 4
1 5
1 6
1 7
1 9
1 12
1 14
1 15
1 17
1 18
1 19
1 24
1 25
1 26
1 27
1 28
1 29
2 0
2 3
2 4
2 5
2 6
2 18
2 24
3 0
3 1
3 2
3 3
3 16
3 22
3 23
3 29
4 0
4 1
4 2
5 0
5 1
5 2
5 7
5 18
5 27
6 0
6 1
6 2
6 7
6 9
6 10
6 12
6 13
6 14
6 19
6 22
6 25
6 26
7 0
7 1
7 5
7 6
7 18
7 24
7 29
8 0
9 0
9 1
9 6
9 11
9 19
9 26
10 0
10 6
11 0
11 9
11 15
11 19
12 0
12 1
12 6
12 15
13 0
13 6
13 14
13 26
14 0
14 1
14 6
14 13
14 14
14 16
15 1
15 11
15 12
15 25
16 0
16 3
16 14
16 23
17 1
18 1
18 2
18 5
18 7
18 27
19 1
19 6
19 9
19 11
19 19
19 20
19 21
20 19
21 19
21 28
22 0
22 3
22 6
23 3
23 16
23 29
24 0
24 1
24 2
24 7
25 0
25 1
25 6
25 15
26 0
26 1
26 6
26 9
26 13
27 1
27 5
27 18
28 0
28 1
28 21
29 1
29 3
29 7
29 23
