0 79
1 53
1 54
2 26
2 39
2 40
3 11
3 21
3 27
3 48
4 6
4 7
4 10
4 11
4 16
5 11
5 19
5 20
5 39
5 45
5 49
6 4
6 14
6 17
6 34
6 50
6 51
7 4
7 10
7 22
7 52
7 53
7 54
7 55
7 56
8 22
8 52
8 57
8 58
8 59
8 60
8 61
8 62
8 68
9 11
9 33
9 42
9 44
9 63
9 64
9 65
9 66
9 74
10 4
10 7
10 22
10 52
10 53
10 54
10 55
10 56
10 67
10 68
10 69
11 3
11 4
11 5
11 9
11 12
11 14
11 15
11 17
11 21
11 22
11 23
11 25
11 26
11 28
11 32
11 33
11 38
11 42
11 43
11 51
11 58
11 59
11 61
11 68
11 69
11 70
11 71
11 72
11 73
11 74
11 75
11 76
11 77
11 89
11 93
11 95
11 96
11 100
11 104
11 105
11 107
11 108
11 111
11 116
11 117
11 121
11 126
12 11
12 77
12 78
12 79
13 26
13 80
14 6
14 11
14 81
15 11
15 82
16 4
16 24
16 31
16 58
16 83
17 6
17 11
17 34
17 84
18 23
18 33
18 85
19 5
19 20
19 21
19 39
19 40
19 45
19 86
19 87
20 5
20 19
20 39
20 45
20 49
20 88
21 3
21 11
21 19
21 39
21 86
21 89
22 7
22 8
22 10
22 11
22 90
23 11
23 18
23 33
23 91
24 16
24 47
24 92
24 93
25 11
25 25
25 94
26 2
26 11
26 13
26 40
26 63
26 95
26 96
26 97
27 3
27 40
27 68
27 98
27 99
28 11
28 100
28 101
28 102
28 103
29 57
29 104
30 105
30 106
31 16
31 107
31 108
31 109
32 11
32 102
32 110
33 9
33 11
33 18
33 23
33 38
33 91
33 126
34 6
34 17
34 41
34 47
34 50
34 75
34 99
35 41
35 112
35 126
36 42
36 107
36 111
37 112
37 113
38 11
38 33
38 112
38 127
39 2
39 5
39 19
39 20
39 21
40 2
40 19
40 26
40 27
40 96
41 34
41 35
41 50
41 115
41 116
42 9
42 11
42 36
42 111
43 11
43 70
43 117
43 118
44 9
44 65
44 66
44 119
45 5
45 19
45 20
45 49
45 88
46 49
46 58
46 60
46 61
47 24
47 34
47 50
47 51
48 3
48 120
49 5
49 20
49 45
49 46
50 6
50 34
50 41
50 47
51 6
51 11
51 47
51 121
52 7
52 8
52 10
53 1
53 7
53 10
53 90
54 1
54 7
54 10
55 7
55 10
55 55
56 7
56 10
56 57
56 59
56 75
57 8
57 29
57 56
58 8
58 11
58 16
58 46
59 8
59 11
59 56
60 8
60 46
61 8
61 11
61 46
61 122
62 8
62 123
63 9
63 26
64 9
64 119
65 9
65 44
65 66
65 124
66 9
66 44
66 65
67 10
68 8
68 10
68 11
68 27
69 10
69 11
70 11
70 43
70 70
71 11
71 125
72 11
73 11
73 77
74 9
74 11
75 11
75 34
75 56
76 11
76 76
77 11
77 12
77 73
78 12
79 0
79 12
80 13
81 14
82 15
83 16
84 17
85 18
86 19
86 21
87 19
88 20
88 45
89 11
89 21
90 22
90 53
91 23
91 33
92 24
92 115
93 11
93 24
94 25
95 11
95 26
96 11
96 26
96 40
97 26
98 27
99 27
99 34
100 11
100 28
101 28
101 101
102 28
102 32
103 28
104 11
104 29
105 11
105 30
106 30
107 11
107 31
107 36
108 11
108 31
109 31
110 32
111 11
111 36
111 42
112 35
112 37
112 38
113 37
114 126
115 41
115 92
116 11
116 41
117 11
117 43
118 43
119 44
119 64
120 48
121 11
121 51
122 61
123 62
124 65
125 71
126 11
126 33
126 35
126 114
127 38
