0 0
0 1
0 2
0 3
0 4
0 6
0 9
0 10
0 12
0 13
0 14
0 17
0 18
0 19
0 21
0 22
0 23
0 24
0 25
0 26
0 27
0 28
0 29
0 30
0 31
0 32
0 33
0 34
0 35
0 36
0 37
0 38
0 39
0 41
0 42
0 44
0 45
0 46
0 47
0 48
0 49
0 50
0 51
0 52
0 53
0 54
0 55
0 56
0 57
0 58
0 59
0 60
0 61
0 62
0 63
0 64
0 65
0 66
0 67
0 68
0 69
0 70
0 71
0 72
0 73
0 74
0 75
0 76
0 77
0 78
0 79
0 80
0 81
0 82
0 83
0 84
0 85
0 86
0 87
0 88
0 89
0 90
0 91
0 92
0 93
0 94
0 98
0 99
0 100
0 101
0 103
0 104
0 105
0 106
0 107
0 108
0 109
0 110
0 111
0 113
0 114
0 115
0 116
0 117
0 119
0 120
0 121
0 122
0 123
0 124
0 126
0 127
0 128
0 129
0 130
0 132
0 133
0 134
0 135
0 136
0 137
0 139
0 140
0 141
0 143
0 144
0 145
0 146
0 147
0 148
0 149
0 150
0 151
0 153
1 0
1 1
1 2
1 3
1 4
1 5
1 7
1 9
1 10
1 11
1 12
1 13
1 14
1 15
1 16
1 17
1 18
1 19
1 20
1 21
1 22
1 23
1 24
1 25
1 26
1 27
1 28
1 29
1 30
1 31
1 32
1 33
1 34
1 35
1 36
1 37
1 38
1 39
1 40
1 41
1 42
1 43
1 44
1 45
1 46
1 47
1 48
1 49
1 50
1 51
1 52
1 53
1 54
1 55
1 56
1 57
1 58
1 59
1 60
1 61
1 62
1 63
1 64
1 65
1 66
1 68
1 69
1 70
1 71
1 72
1 73
1 74
1 75
1 76
1 77
1 78
1 79
1 80
1 81
1 82
1 84
1 85
1 86
1 87
1 88
1 89
1 90
1 91
1 92
1 93
1 94
1 95
1 96
1 97
1 98
1 99
1 100
1 101
1 102
1 103
1 104
1 105
1 106
1 107
1 108
1 109
1 110
1 111
1 112
1 113
1 114
1 115
1 116
1 117
1 118
1 119
1 120
1 121
1 122
1 123
1 124
1 125
1 126
1 127
1 128
1 129
1 130
1 131
1 132
1 133
1 134
1 135
1 136
1 137
1 138
1 139
1 140
1 141
1 142
1 143
1 144
1 146
1 147
1 148
1 149
1 150
1 151
1 153
2 0
2 1
2 2
2 3
2 4
2 5
2 9
2 10
2 11
2 12
2 14
2 15
2 17
2 20
2 24
2 25
2 26
2 28
2 30
2 31
2 33
2 34
2 35
2 37
2 38
2 40
2 41
2 43
2 44
2 45
2 46
2 47
2 48
2 49
2 50
2 51
2 52
2 53
2 54
2 55
2 56
2 57
2 58
2 59
2 60
2 61
2 62
2 64
2 65
2 66
2 72
2 73
2 77
2 78
2 79
2 80
2 83
2 84
2 85
2 86
2 91
2 92
2 93
2 96
2 98
2 101
2 102
2 103
2 104
2 105
2 108
2 110
2 111
2 113
2 114
2 116
2 119
2 121
2 122
2 124
2 125
2 126
2 127
2 128
2 129
2 130
2 131
2 132
2 139
2 140
2 142
2 144
2 146
2 147
2 150
2 153
3 0
3 1
3 2
3 17
3 20
3 24
3 35
3 40
3 41
3 43
3 44
3 51
3 52
3 53
3 54
3 55
3 56
3 57
3 80
3 83
3 96
3 98
3 102
3 110
3 124
3 126
3 127
3 128
3 140
4 0
4 1
4 2
4 4
4 5
4 12
4 15
4 16
4 18
4 21
4 23
4 28
4 29
4 31
4 34
4 39
4 49
4 51
4 53
4 54
4 56
4 57
4 59
4 60
4 62
4 64
4 65
4 68
4 69
4 72
4 73
4 77
4 79
4 80
4 84
4 85
4 86
4 98
4 104
4 106
4 108
4 113
4 115
4 116
4 121
4 130
4 133
4 134
4 135
4 136
4 143
4 144
4 146
4 147
4 149
4 153
5 1
5 2
5 4
5 11
5 18
5 21
5 23
5 25
5 26
5 27
5 34
5 37
5 43
5 46
5 50
5 53
5 54
5 56
5 57
5 73
5 89
5 113
5 146
5 147
5 151
5 152
6 0
6 6
6 7
6 13
6 50
6 53
6 56
6 137
6 138
7 1
7 6
7 7
7 50
7 53
7 56
7 137
7 138
8 24
8 80
8 90
8 140
9 0
9 1
9 2
9 13
9 24
9 27
9 32
9 39
9 46
9 64
9 65
9 69
9 73
9 74
9 85
9 86
9 90
9 108
9 116
9 124
9 140
9 153
10 0
10 1
10 2
10 13
10 24
10 27
10 32
10 39
10 46
10 59
10 60
10 62
10 64
10 73
10 80
10 84
10 86
10 90
10 104
10 124
10 140
10 147
10 153
11 1
11 2
11 5
11 15
11 40
11 41
11 43
11 50
11 53
11 54
11 56
11 57
11 105
11 111
11 121
12 0
12 1
12 2
12 4
12 15
12 36
12 38
12 44
12 50
12 52
12 53
12 54
12 56
12 57
12 64
12 66
12 72
12 91
12 92
12 104
12 105
12 108
12 144
12 153
13 0
13 1
13 6
13 9
13 10
13 13
13 35
13 50
13 53
13 57
13 58
13 71
13 73
13 77
13 78
13 90
13 97
13 106
13 115
13 123
13 133
14 0
14 1
14 2
14 14
14 26
14 30
14 48
14 52
14 56
14 57
14 98
14 101
14 103
14 104
14 108
14 128
14 144
14 146
14 153
15 1
15 2
15 4
15 11
15 12
15 18
15 21
15 23
15 25
15 26
15 27
15 34
15 37
15 43
15 46
15 50
15 52
15 53
15 54
15 56
15 57
15 72
15 89
15 104
15 108
15 113
15 144
15 151
15 152
15 153
16 1
16 4
16 16
16 44
16 59
16 96
17 0
17 1
17 2
17 3
17 17
17 24
17 31
17 32
17 44
17 48
17 52
17 55
17 56
17 57
17 59
17 64
17 73
17 85
17 104
17 108
17 114
17 126
17 144
17 153
18 0
18 1
18 4
18 5
18 15
18 27
18 41
18 57
18 96
18 121
18 147
19 0
19 1
19 26
19 45
19 46
19 52
19 55
19 56
19 57
19 85
19 101
19 104
19 108
19 114
19 139
19 147
19 153
20 1
20 2
20 3
20 20
20 40
20 41
20 43
20 51
20 52
20 53
20 54
20 55
20 56
20 57
20 96
20 98
20 102
20 104
20 108
20 110
20 125
20 129
20 130
20 139
20 151
20 153
21 0
21 1
21 4
21 5
21 15
21 21
21 41
21 77
21 94
21 96
21 99
21 100
21 121
21 147
21 148
21 151
22 0
22 1
22 33
22 37
22 45
22 50
22 52
22 55
22 56
22 57
22 64
22 75
22 97
22 131
23 0
23 1
23 4
23 5
23 15
23 27
23 32
23 36
23 39
23 41
23 59
23 64
23 73
23 80
23 81
23 90
23 96
23 109
23 121
23 124
23 147
23 149
24 0
24 1
24 2
24 3
24 8
24 9
24 10
24 17
24 27
24 31
24 32
24 39
24 44
24 48
24 52
24 55
24 56
24 57
24 71
24 78
24 104
24 108
24 111
24 123
24 126
24 144
24 147
24 153
25 0
25 1
25 2
25 5
25 15
25 41
25 52
25 53
25 55
25 57
25 104
25 108
25 121
25 137
25 153
26 0
26 1
26 2
26 5
26 14
26 15
26 19
26 30
26 41
26 52
26 56
26 57
26 98
26 101
26 103
26 104
26 108
26 121
26 131
26 144
26 146
26 153
27 0
27 1
27 5
27 9
27 10
27 15
27 18
27 23
27 24
27 35
27 39
27 41
27 56
27 57
27 69
27 71
27 73
27 78
27 90
27 97
27 106
27 121
27 123
27 136
27 140
28 0
28 1
28 2
28 4
28 31
28 44
28 49
28 52
28 55
28 56
28 57
28 59
28 96
28 104
28 108
28 128
28 134
28 136
28 153
29 0
29 1
29 4
29 29
29 44
29 50
29 52
29 53
29 57
29 59
29 73
29 96
29 104
29 108
29 153
30 0
30 1
30 2
30 14
30 26
30 45
30 47
30 52
30 56
30 57
30 98
30 101
30 103
30 104
30 108
30 144
30 146
30 147
30 153
31 0
31 1
31 2
31 4
31 17
31 24
31 28
31 35
31 44
31 49
31 52
31 55
31 56
31 57
31 59
31 81
31 91
31 96
31 104
31 105
31 108
31 109
31 124
31 126
31 127
31 128
31 144
31 153
32 0
32 1
32 9
32 10
32 17
32 23
32 24
32 35
32 49
32 57
32 71
32 73
32 78
32 80
32 97
32 106
32 123
32 134
32 136
32 140
33 0
33 1
33 2
33 22
33 45
33 53
33 97
33 144
34 0
34 1
34 2
34 4
34 5
34 15
34 41
34 53
34 63
34 65
34 73
34 74
34 85
34 86
34 88
34 96
34 105
34 121
34 139
34 144
35 0
35 1
35 2
35 3
35 13
35 27
35 31
35 32
35 39
35 54
35 58
35 59
35 65
35 72
35 74
35 80
35 81
35 90
35 91
35 124
35 126
35 136
35 139
35 144
35 147
35 151
36 0
36 1
36 12
36 23
36 50
36 52
36 53
36 56
36 57
36 64
36 73
36 94
36 104
36 108
36 136
36 144
36 151
36 153
37 0
37 1
37 2
37 5
37 15
37 22
37 41
37 56
37 57
37 97
37 121
37 144
38 0
38 1
38 2
38 12
38 38
38 50
38 52
38 53
38 57
38 64
38 77
38 94
38 104
38 108
38 113
38 144
38 153
39 0
39 1
39 4
39 9
39 10
39 23
39 24
39 27
39 35
39 44
39 52
39 57
39 59
39 71
39 73
39 78
39 80
39 96
39 97
39 104
39 106
39 108
39 123
39 136
39 140
39 153
40 1
40 2
40 3
40 11
40 20
40 41
40 43
40 50
40 52
40 53
40 54
40 56
40 57
40 96
40 98
40 102
40 104
40 105
40 108
40 110
40 125
40 129
40 139
40 151
40 153
41 0
41 1
41 2
41 3
41 11
41 18
41 20
41 21
41 23
41 25
41 26
41 27
41 34
41 37
41 40
41 43
41 46
41 50
41 52
41 53
41 54
41 56
41 57
41 89
41 96
41 98
41 102
41 104
41 105
41 108
41 110
41 113
41 125
41 129
41 139
41 151
41 152
41 153
42 0
42 1
42 57
42 84
43 1
43 2
43 3
43 5
43 11
43 15
43 20
43 40
43 41
43 50
43 52
43 53
43 54
43 56
43 57
43 81
43 96
43 98
43 102
43 104
43 105
43 108
43 110
43 121
43 125
43 129
43 139
43 151
43 153
44 0
44 1
44 2
44 3
44 12
44 16
44 17
44 24
44 28
44 29
44 31
44 39
44 45
44 46
44 48
44 49
44 52
44 56
44 57
44 62
44 69
44 81
44 90
44 104
44 105
44 106
44 108
44 109
44 113
44 126
44 127
44 139
44 140
44 144
44 149
44 151
44 153
45 0
45 1
45 2
45 19
45 22
45 30
45 33
45 44
45 47
45 55
45 56
45 57
45 59
45 75
45 97
45 131
45 132
45 151
46 0
46 1
46 2
46 5
46 9
46 10
46 15
46 19
46 41
46 44
46 47
46 56
46 57
46 59
46 62
46 75
46 98
46 118
46 121
46 125
46 144
46 147
47 0
47 1
47 2
47 30
47 45
47 46
47 48
47 50
47 51
47 52
47 54
47 55
47 56
47 57
47 64
47 67
47 87
47 98
47 99
47 105
47 114
47 119
47 122
47 126
47 139
47 140
47 144
48 0
48 1
48 2
48 14
48 17
48 24
48 44
48 47
48 48
48 52
48 56
48 57
48 59
48 60
48 61
48 62
48 64
48 65
48 66
48 80
48 84
48 85
48 86
48 91
48 92
48 93
48 104
48 105
48 108
48 116
48 128
48 139
48 140
48 142
48 144
48 147
48 153
49 0
49 1
49 2
49 4
49 28
49 31
49 32
49 44
49 52
49 55
49 56
49 57
49 96
49 104
49 105
49 108
49 128
49 153
50 0
50 1
50 2
50 5
50 6
50 7
50 11
50 12
50 13
50 15
50 22
50 29
50 36
50 38
50 40
50 41
50 43
50 47
50 50
50 52
50 53
50 56
50 57
50 58
50 64
50 65
50 66
50 77
50 81
50 91
50 92
50 104
50 105
50 108
50 115
50 120
50 121
50 122
50 127
50 130
50 139
50 144
50 146
50 147
50 153
51 0
51 1
51 2
51 3
51 4
51 20
51 47
51 52
51 54
51 55
51 56
51 57
51 67
51 72
51 96
51 98
51 102
51 104
51 105
51 108
51 110
51 119
51 125
51 129
51 139
51 151
51 153
52 0
52 1
52 2
52 3
52 12
52 14
52 15
52 17
52 19
52 20
52 22
52 24
52 25
52 26
52 28
52 29
52 30
52 31
52 36
52 38
52 39
52 40
52 41
52 43
52 44
52 47
52 48
52 49
52 50
52 51
52 53
52 54
52 55
52 56
52 57
52 67
52 68
52 72
52 81
52 87
52 88
52 91
52 92
52 96
52 97
52 98
52 101
52 102
52 105
52 107
52 110
52 118
52 119
52 120
52 122
52 125
52 126
52 127
52 128
52 129
52 131
52 139
52 140
52 141
52 142
52 143
52 144
52 145
52 147
52 151
53 0
53 1
53 2
53 3
53 4
53 5
53 6
53 7
53 11
53 12
53 13
53 15
53 20
53 25
53 29
53 33
53 34
53 36
53 38
53 40
53 41
53 43
53 50
53 52
53 53
53 54
53 56
53 57
53 58
53 63
53 64
53 65
53 66
53 68
53 72
53 73
53 75
53 77
53 81
53 82
53 88
53 91
53 92
53 96
53 98
53 100
53 102
53 104
53 105
53 107
53 108
53 110
53 111
53 113
53 115
53 116
53 117
53 121
53 125
53 127
53 129
53 130
53 134
53 139
53 141
53 144
53 145
53 146
53 147
53 151
53 153
54 0
54 1
54 2
54 3
54 4
54 5
54 11
54 12
54 15
54 20
54 35
54 40
54 41
54 43
54 47
54 51
54 52
54 53
54 55
54 56
54 57
54 67
54 96
54 98
54 102
54 104
54 105
54 108
54 110
54 119
54 121
54 125
54 129
54 139
54 144
54 146
54 147
54 151
54 153
55 0
55 1
55 2
55 3
55 17
55 19
55 20
55 22
55 24
55 25
55 28
55 31
55 45
55 47
55 49
55 51
55 52
55 54
55 56
55 57
55 65
55 67
55 72
55 81
55 87
55 89
55 91
55 92
55 96
55 97
55 98
55 102
55 104
55 105
55 108
55 109
55 110
55 118
55 119
55 120
55 122
55 125
55 126
55 127
55 129
55 131
55 139
55 140
55 141
55 144
55 146
55 147
55 150
55 151
55 152
55 153
56 0
56 1
56 2
56 3
56 4
56 5
56 6
56 7
56 11
56 12
56 14
56 15
56 17
56 19
56 20
56 22
56 24
56 26
56 27
56 28
56 30
56 31
56 36
56 37
56 40
56 41
56 43
56 44
56 45
56 46
56 47
56 48
56 49
56 50
56 51
56 52
56 53
56 54
56 55
56 57
56 58
56 59
56 64
56 67
56 72
56 73
56 81
56 87
56 89
56 91
56 92
56 94
56 96
56 97
56 98
56 99
56 101
56 102
56 103
56 104
56 105
56 108
56 109
56 110
56 111
56 113
56 114
56 115
56 118
56 119
56 120
56 121
56 122
56 125
56 126
56 127
56 128
56 129
56 131
56 133
56 136
56 139
56 140
56 141
56 143
56 144
56 146
56 147
56 150
56 151
56 152
56 153
57 0
57 1
57 2
57 3
57 4
57 5
57 11
57 12
57 13
57 14
57 15
57 17
57 18
57 19
57 20
57 22
57 24
57 25
57 26
57 27
57 28
57 29
57 30
57 31
57 32
57 36
57 37
57 38
57 39
57 40
57 41
57 42
57 43
57 44
57 45
57 46
57 47
57 48
57 49
57 50
57 51
57 52
57 53
57 54
57 55
57 56
57 58
57 59
57 60
57 61
57 62
57 64
57 65
57 67
57 70
57 72
57 73
57 74
57 76
57 77
57 79
57 80
57 81
57 83
57 84
57 85
57 86
57 87
57 89
57 90
57 91
57 92
57 94
57 95
57 96
57 97
57 98
57 99
57 101
57 102
57 103
57 104
57 105
57 108
57 109
57 110
57 111
57 112
57 113
57 114
57 115
57 116
57 118
57 119
57 120
57 121
57 122
57 124
57 125
57 126
57 127
57 128
57 129
57 130
57 131
57 133
57 134
57 137
57 138
57 139
57 140
57 141
57 142
57 143
57 144
57 146
57 147
57 150
57 151
57 152
57 153
58 0
58 1
58 2
58 13
58 35
58 50
58 53
58 56
58 57
58 58
58 59
58 60
58 62
58 63
58 65
58 71
58 72
58 73
58 75
58 77
58 86
58 88
58 91
58 98
58 105
58 129
58 133
58 137
59 0
59 1
59 2
59 4
59 10
59 16
59 17
59 23
59 28
59 29
59 31
59 35
59 39
59 45
59 46
59 48
59 56
59 57
59 58
59 61
59 69
59 70
59 73
59 80
59 82
59 83
59 90
59 97
59 105
59 106
59 109
59 113
59 136
59 139
59 142
59 147
59 149
59 153
60 0
60 1
60 2
60 4
60 10
60 48
60 57
60 58
60 61
60 73
60 82
60 114
60 123
60 147
60 153
61 0
61 1
61 2
61 48
61 57
61 59
61 60
61 73
61 85
61 114
61 116
61 128
61 139
61 142
61 147
62 0
62 1
62 2
62 4
62 10
62 44
62 46
62 48
62 57
62 58
62 64
62 71
62 73
62 75
62 76
62 77
62 82
62 114
62 147
62 153
63 0
63 1
63 34
63 53
63 58
63 63
63 75
63 88
63 92
63 105
63 107
63 119
63 132
63 139
63 145
64 0
64 1
64 2
64 4
64 9
64 10
64 12
64 17
64 22
64 23
64 36
64 38
64 47
64 48
64 50
64 53
64 56
64 57
64 62
64 65
64 68
64 72
64 73
64 81
64 82
64 84
64 86
64 91
64 115
64 116
64 120
64 121
64 122
64 124
64 144
64 147
64 153
65 0
65 1
65 2
65 4
65 9
65 34
65 35
65 48
65 50
65 53
65 55
65 57
65 58
65 64
65 65
65 72
65 73
65 82
65 84
65 86
65 115
65 139
65 153
66 0
66 1
66 2
66 12
66 48
66 50
66 53
66 66
66 94
66 128
66 144
67 0
67 47
67 51
67 52
67 54
67 55
67 56
67 57
67 92
67 139
68 0
68 1
68 4
68 52
68 53
68 64
68 73
68 96
68 104
68 108
68 114
68 153
69 0
69 1
69 4
69 9
69 27
69 44
69 59
69 80
69 90
69 96
69 106
69 147
70 0
70 1
70 57
70 59
71 0
71 1
71 13
71 24
71 27
71 32
71 39
71 58
71 62
71 73
71 77
71 90
71 124
71 140
71 147
71 153
72 0
72 1
72 2
72 4
72 12
72 15
72 35
72 51
72 52
72 53
72 55
72 56
72 57
72 58
72 64
72 65
72 73
72 80
72 144
72 147
73 0
73 1
73 2
73 4
73 5
73 9
73 10
73 13
73 17
73 23
73 27
73 29
73 32
73 34
73 36
73 39
73 53
73 56
73 57
73 58
73 59
73 60
73 61
73 62
73 64
73 65
73 68
73 71
73 72
73 73
73 77
73 78
73 80
73 82
73 84
73 86
73 90
73 92
73 105
73 109
73 114
73 115
73 121
73 124
73 130
73 133
73 134
73 139
73 142
73 147
73 153
74 0
74 1
74 9
74 34
74 35
74 57
74 82
75 0
75 1
75 22
75 45
75 46
75 53
75 58
75 62
75 63
75 86
75 88
75 97
75 107
75 132
75 139
75 144
75 147
76 0
76 1
76 57
76 62
76 83
77 0
77 1
77 2
77 4
77 13
77 21
77 38
77 50
77 53
77 57
77 58
77 62
77 71
77 73
77 77
77 86
77 91
77 105
77 115
77 133
77 139
77 141
77 144
77 147
78 0
78 1
78 2
78 13
78 24
78 27
78 32
78 39
78 73
78 84
78 90
78 124
78 140
78 147
78 153
79 0
79 1
79 2
79 4
79 57
79 80
79 83
79 139
79 147
79 150
80 0
80 1
80 2
80 3
80 4
80 8
80 10
80 23
80 32
80 35
80 39
80 48
80 57
80 59
80 69
80 72
80 73
80 79
80 83
80 85
80 90
80 94
80 97
80 104
80 105
80 106
80 114
80 139
80 141
80 144
80 147
80 150
80 151
80 152
81 0
81 1
81 23
81 31
81 35
81 43
81 44
81 50
81 52
81 53
81 55
81 56
81 57
81 64
81 101
81 105
81 125
81 128
81 135
81 151
82 0
82 1
82 53
82 59
82 60
82 62
82 64
82 65
82 73
82 74
82 84
82 85
82 86
82 114
82 116
82 139
83 0
83 2
83 3
83 57
83 59
83 76
83 79
83 80
83 104
84 0
84 1
84 2
84 4
84 10
84 42
84 48
84 57
84 64
84 65
84 73
84 78
84 82
84 86
84 114
84 115
84 147
84 153
85 0
85 1
85 2
85 4
85 9
85 17
85 19
85 34
85 48
85 57
85 61
85 80
85 82
85 98
85 108
85 114
85 139
85 142
85 146
85 147
85 153
86 0
86 1
86 2
86 4
86 9
86 10
86 34
86 48
86 57
86 58
86 64
86 65
86 73
86 75
86 77
86 82
86 84
86 114
86 115
86 121
86 140
86 146
86 147
86 153
87 0
87 1
87 47
87 52
87 55
87 56
87 57
87 139
88 0
88 1
88 34
88 52
88 53
88 58
88 63
88 75
88 88
88 104
88 107
88 108
88 139
88 145
88 153
89 0
89 1
89 5
89 15
89 41
89 55
89 56
89 57
89 121
90 0
90 1
90 8
90 9
90 10
90 13
90 23
90 27
90 35
90 44
90 57
90 59
90 69
90 71
90 73
90 78
90 80
90 97
90 106
90 123
90 136
90 147
91 0
91 1
91 2
91 12
91 31
91 35
91 48
91 50
91 52
91 53
91 55
91 56
91 57
91 58
91 64
91 77
91 91
91 92
91 93
91 105
91 109
91 115
91 120
91 126
91 149
92 0
92 1
92 2
92 12
92 48
92 50
92 52
92 53
92 55
92 56
92 57
92 63
92 67
92 73
92 91
92 92
92 109
92 120
92 126
92 128
92 144
93 0
93 1
93 2
93 48
93 91
93 93
93 105
93 128
93 149
94 0
94 1
94 21
94 36
94 38
94 56
94 57
94 66
94 80
94 94
94 99
94 100
94 144
94 147
94 148
94 150
95 1
95 57
96 1
96 2
96 3
96 16
96 18
96 20
96 21
96 23
96 28
96 29
96 31
96 34
96 39
96 40
96 41
96 43
96 49
96 51
96 52
96 53
96 54
96 55
96 56
96 57
96 68
96 69
96 96
96 98
96 102
96 104
96 106
96 108
96 110
96 113
96 125
96 129
96 130
96 133
96 134
96 135
96 136
96 139
96 143
96 149
96 151
96 153
97 1
97 13
97 22
97 27
97 32
97 33
97 37
97 39
97 45
97 52
97 55
97 56
97 57
97 59
97 75
97 80
97 90
97 97
97 124
97 147
98 0
98 1
98 2
98 3
98 4
98 14
98 20
98 26
98 30
98 40
98 41
98 43
98 46
98 47
98 51
98 52
98 53
98 54
98 55
98 56
98 57
98 58
98 85
98 96
98 98
98 101
98 102
98 103
98 110
98 117
98 118
98 121
98 125
98 129
98 144
98 147
98 150
98 151
98 153
99 0
99 1
99 21
99 47
99 56
99 57
99 94
99 99
99 100
99 139
99 147
99 148
100 0
100 1
100 21
100 53
100 94
100 99
100 100
100 147
100 148
101 0
101 1
101 2
101 14
101 19
101 26
101 30
101 52
101 56
101 57
101 81
101 98
101 103
101 104
101 108
101 131
101 144
101 146
101 153
102 1
102 2
102 3
102 20
102 40
102 41
102 43
102 51
102 52
102 53
102 54
102 55
102 56
102 57
102 96
102 98
102 102
102 110
102 151
103 0
103 1
103 2
103 14
103 26
103 30
103 56
103 57
103 98
103 101
103 144
103 146
104 0
104 1
104 2
104 4
104 10
104 12
104 14
104 15
104 17
104 19
104 20
104 24
104 25
104 26
104 28
104 29
104 30
104 31
104 36
104 38
104 39
104 40
104 41
104 43
104 44
104 48
104 49
104 50
104 51
104 53
104 54
104 55
104 56
104 57
104 68
104 80
104 83
104 88
104 96
104 101
104 107
104 118
104 119
104 139
104 141
104 142
104 143
104 144
104 145
104 150
105 0
105 1
105 2
105 11
105 12
105 31
105 34
105 40
105 41
105 43
105 44
105 47
105 48
105 49
105 50
105 51
105 52
105 53
105 54
105 55
105 56
105 57
105 58
105 59
105 63
105 73
105 77
105 80
105 81
105 91
105 93
105 105
105 106
105 125
105 128
105 134
105 140
105 146
105 149
106 0
106 1
106 4
106 13
106 27
106 32
106 39
106 44
106 59
106 69
106 80
106 90
106 96
106 105
106 124
106 147
107 0
107 1
107 52
107 53
107 63
107 75
107 88
107 104
107 108
107 131
107 139
107 153
108 0
108 1
108 2
108 4
108 9
108 12
108 14
108 15
108 17
108 19
108 20
108 24
108 25
108 26
108 28
108 29
108 30
108 31
108 36
108 38
108 39
108 40
108 41
108 43
108 44
108 48
108 49
108 50
108 51
108 53
108 54
108 55
108 56
108 57
108 68
108 85
108 88
108 96
108 101
108 107
108 116
108 118
108 119
108 139
108 141
108 142
108 143
108 144
108 145
109 0
109 1
109 23
109 31
109 44
109 55
109 56
109 57
109 59
109 73
109 91
109 92
109 109
109 126
109 144
110 0
110 1
110 2
110 3
110 20
110 40
110 41
110 43
110 51
110 52
110 53
110 54
110 55
110 56
110 57
110 96
110 98
110 102
110 110
110 125
110 129
110 139
110 151
111 0
111 1
111 2
111 11
111 24
111 53
111 56
111 57
111 129
111 140
111 144
111 146
112 1
112 57
113 0
113 1
113 2
113 4
113 5
113 15
113 38
113 41
113 44
113 53
113 56
113 57
113 59
113 96
113 121
113 130
114 0
114 1
114 2
114 17
114 19
114 47
114 56
114 57
114 60
114 61
114 62
114 68
114 73
114 80
114 82
114 84
114 85
114 86
114 115
114 116
114 139
114 142
114 147
115 0
115 1
115 4
115 13
115 50
115 53
115 56
115 57
115 64
115 65
115 73
115 77
115 84
115 86
115 91
115 114
115 148
116 0
116 1
116 2
116 4
116 9
116 48
116 53
116 57
116 61
116 64
116 82
116 108
116 114
116 146
116 147
116 153
117 0
117 1
117 53
117 98
117 118
117 125
117 147
118 1
118 46
118 52
118 55
118 56
118 57
118 98
118 104
118 108
118 117
118 118
118 125
118 147
118 153
119 0
119 1
119 2
119 47
119 51
119 52
119 54
119 55
119 56
119 57
119 63
119 104
119 108
119 139
119 153
120 0
120 1
120 50
120 52
120 55
120 56
120 57
120 64
120 91
120 92
121 0
121 1
121 2
121 4
121 11
121 18
121 21
121 23
121 25
121 26
121 27
121 34
121 37
121 43
121 46
121 50
121 53
121 54
121 56
121 57
121 64
121 73
121 86
121 89
121 98
121 113
121 146
121 147
121 151
121 152
122 0
122 1
122 2
122 47
122 50
122 52
122 55
122 56
122 57
122 64
123 0
123 1
123 13
123 24
123 27
123 32
123 39
123 60
123 90
123 140
123 153
124 0
124 1
124 2
124 3
124 9
124 10
124 23
124 31
124 35
124 57
124 64
124 71
124 73
124 78
124 97
124 106
124 144
125 1
125 2
125 20
125 40
125 41
125 43
125 46
125 51
125 52
125 53
125 54
125 55
125 56
125 57
125 81
125 96
125 98
125 105
125 110
125 117
125 118
125 144
125 147
126 0
126 1
126 2
126 3
126 17
126 24
126 31
126 35
126 44
126 47
126 52
126 55
126 56
126 57
126 91
126 92
126 109
126 126
126 128
126 144
127 0
127 1
127 2
127 3
127 31
127 44
127 50
127 52
127 53
127 55
127 56
127 57
127 127
127 128
127 144
128 0
128 1
128 2
128 3
128 14
128 28
128 31
128 48
128 49
128 52
128 56
128 57
128 61
128 66
128 81
128 92
128 93
128 105
128 126
128 127
128 144
128 147
129 0
129 1
129 2
129 20
129 40
129 41
129 43
129 51
129 52
129 53
129 54
129 55
129 56
129 57
129 58
129 96
129 98
129 110
129 111
129 144
130 0
130 1
130 2
130 4
130 20
130 50
130 53
130 57
130 73
130 96
130 113
131 1
131 2
131 22
131 26
131 45
131 52
131 55
131 56
131 57
131 101
131 107
131 144
132 0
132 1
132 2
132 45
132 63
132 75
132 144
132 147
133 0
133 1
133 4
133 13
133 56
133 57
133 58
133 73
133 77
133 96
134 0
134 1
134 4
134 28
134 32
134 53
134 57
134 73
134 96
134 105
135 0
135 1
135 4
135 81
135 96
135 135
136 0
136 1
136 4
136 27
136 28
136 32
136 35
136 36
136 39
136 56
136 59
136 90
136 96
137 0
137 1
137 6
137 7
137 25
137 57
137 58
137 137
137 138
138 1
138 6
138 7
138 57
138 137
139 0
139 1
139 2
139 19
139 20
139 34
139 35
139 40
139 41
139 43
139 44
139 47
139 48
139 50
139 51
139 52
139 53
139 54
139 55
139 56
139 57
139 59
139 61
139 63
139 65
139 67
139 73
139 75
139 77
139 79
139 80
139 82
139 85
139 87
139 88
139 96
139 99
139 104
139 107
139 108
139 110
139 114
139 119
139 139
139 150
139 151
139 152
139 153
140 0
140 1
140 2
140 3
140 8
140 9
140 10
140 27
140 32
140 39
140 44
140 47
140 48
140 52
140 55
140 56
140 57
140 71
140 78
140 86
140 105
140 111
140 123
141 0
141 1
141 52
141 53
141 55
141 56
141 57
141 77
141 80
141 104
141 108
141 143
141 153
142 1
142 2
142 48
142 52
142 57
142 59
142 61
142 73
142 85
142 104
142 108
142 114
142 153
143 0
143 1
143 4
143 52
143 56
143 57
143 96
143 104
143 108
143 141
143 143
143 144
143 153
144 0
144 1
144 2
144 4
144 12
144 14
144 15
144 17
144 24
144 26
144 30
144 31
144 33
144 34
144 35
144 36
144 37
144 38
144 44
144 46
144 47
144 48
144 50
144 52
144 53
144 54
144 55
144 56
144 57
144 64
144 66
144 72
144 75
144 77
144 80
144 92
144 94
144 98
144 101
144 103
144 104
144 108
144 109
144 111
144 124
144 125
144 126
144 127
144 128
144 129
144 131
144 132
144 143
144 144
144 153
145 0
145 52
145 53
145 63
145 88
145 104
145 108
145 153
146 0
146 1
146 2
146 4
146 5
146 14
146 26
146 30
146 50
146 53
146 54
146 55
146 56
146 57
146 85
146 86
146 101
146 103
146 105
146 111
146 116
146 121
146 147
146 151
147 0
147 1
147 2
147 4
147 5
147 10
147 18
147 19
147 21
147 23
147 24
147 30
147 35
147 46
147 48
147 50
147 52
147 53
147 54
147 55
147 56
147 57
147 59
147 60
147 61
147 62
147 64
147 69
147 71
147 72
147 73
147 75
147 77
147 78
147 79
147 80
147 84
147 85
147 86
147 90
147 94
147 97
147 98
147 99
147 100
147 106
147 114
147 116
147 117
147 118
147 121
147 125
147 128
147 132
147 146
147 147
147 148
148 0
148 1
148 21
148 94
148 99
148 100
148 115
148 147
148 148
149 0
149 1
149 4
149 23
149 44
149 59
149 91
149 93
149 96
149 105
150 0
150 1
150 2
150 55
150 56
150 57
150 79
150 80
150 94
150 98
150 104
150 139
151 0
151 1
151 5
151 15
151 20
151 21
151 35
151 36
151 40
151 41
151 43
151 44
151 45
151 51
151 52
151 53
151 54
151 55
151 56
151 57
151 80
151 81
151 96
151 98
151 102
151 110
151 121
151 139
151 146
151 151
151 152
152 5
152 15
152 41
152 55
152 56
152 57
152 80
152 121
152 139
152 151
152 152
153 0
153 1
153 2
153 4
153 9
153 10
153 12
153 14
153 15
153 17
153 19
153 20
153 24
153 25
153 26
153 28
153 29
153 30
153 31
153 36
153 38
153 39
153 40
153 41
153 43
153 44
153 48
153 49
153 50
153 51
153 53
153 54
153 55
153 56
153 57
153 59
153 60
153 62
153 64
153 65
153 68
153 71
153 73
153 78
153 84
153 85
153 86
153 88
153 96
153 98
153 101
153 107
153 116
153 118
153 119
153 123
153 139
153 141
153 142
153 143
153 144
153 145
