0 0
0 1
0 2
0 3
0 4
0 5
0 14
0 15
0 17
0 24
0 25
0 26
0 27
0 29
0 30
0 36
0 41
0 44
0 45
0 48
0 55
0 56
0 57
0 58
0 61
0 65
0 67
0 68
0 71
0 75
0 76
0 79
0 81
0 84
0 85
0 87
0 89
0 91
0 92
0 93
0 94
0 95
0 96
0 97
0 98
0 99
0 100
0 101
0 102
0 103
0 104
0 105
0 106
0 107
0 108
0 109
0 110
0 111
0 113
0 115
0 117
0 120
0 121
0 122
0 123
0 124
0 128
0 130
0 132
0 138
0 139
0 147
0 148
0 149
0 150
0 152
0 153
0 154
0 155
0 156
0 157
0 158
0 169
0 173
0 174
0 178
0 182
0 184
0 186
0 187
0 188
0 191
0 200
0 201
0 202
0 209
0 219
0 221
0 227
0 228
0 231
0 233
0 242
0 248
0 259
0 270
0 272
0 276
0 286
0 291
0 294
0 295
0 310
0 316
0 327
0 328
0 334
0 341
0 342
0 343
0 347
0 348
0 349
0 354
0 355
0 359
0 362
0 366
0 369
0 377
0 379
0 387
0 393
0 412
0 413
0 417
0 418
0 421
0 422
0 425
0 426
0 427
0 428
0 437
0 441
0 442
0 448
0 449
1 0
1 1
1 2
1 3
1 4
1 5
1 6
1 7
1 14
1 15
1 17
1 21
1 23
1 24
1 25
1 26
1 27
1 34
1 39
1 48
1 52
1 53
1 55
1 58
1 59
1 60
1 62
1 63
1 64
1 65
1 67
1 68
1 69
1 70
1 71
1 72
1 76
1 78
1 79
1 80
1 83
1 84
1 85
1 86
1 88
1 89
1 90
1 91
1 92
1 93
1 95
1 96
1 103
1 105
1 107
1 108
1 110
1 111
1 112
1 113
1 114
1 115
1 116
1 117
1 118
1 119
1 120
1 121
1 122
1 123
1 124
1 125
1 126
1 127
1 128
1 129
1 130
1 131
1 132
1 133
1 134
1 135
1 136
1 137
1 138
1 139
1 140
1 141
1 142
1 143
1 144
1 145
1 146
1 147
1 148
1 149
1 150
1 151
1 152
1 153
1 154
1 155
1 156
1 157
1 158
1 159
1 160
1 161
1 162
1 163
1 164
1 165
1 166
1 167
1 168
1 169
1 170
1 171
1 172
1 174
1 175
1 176
1 179
1 181
1 185
1 186
1 187
1 188
1 189
1 190
1 191
1 192
1 193
1 195
1 197
1 198
1 199
1 200
1 201
1 202
1 204
1 205
1 207
1 209
1 210
1 211
1 213
1 214
1 217
1 218
1 219
1 220
1 223
1 226
1 231
1 233
1 235
1 238
1 239
1 240
1 241
1 242
1 245
1 246
1 247
1 248
1 255
1 262
1 268
1 269
1 270
1 271
1 272
1 273
1 276
1 277
1 282
1 284
1 290
1 292
1 297
1 300
1 301
1 302
1 305
1 306
1 307
1 308
1 309
1 310
1 311
1 313
1 314
1 323
1 324
1 336
1 337
1 339
1 340
1 343
1 344
1 345
1 346
1 347
1 348
1 349
1 352
1 354
1 355
1 359
1 361
1 362
1 364
1 365
1 366
1 369
1 370
1 372
1 373
1 374
1 375
1 378
1 379
1 381
1 382
1 383
1 387
1 389
1 391
1 393
1 394
1 395
1 403
1 409
1 410
1 411
1 412
1 413
1 417
1 419
1 421
1 425
1 428
1 430
1 437
1 442
1 443
1 445
1 447
1 448
1 449
1 451
1 452
2 0
2 1
2 2
2 3
2 4
2 5
2 6
2 7
2 8
2 12
2 13
2 14
2 15
2 23
2 25
2 26
2 27
2 31
2 32
2 35
2 36
2 39
2 40
2 41
2 43
2 48
2 51
2 52
2 53
2 54
2 55
2 56
2 57
2 58
2 59
2 60
2 62
2 63
2 64
2 65
2 66
2 67
2 68
2 69
2 70
2 71
2 72
2 73
2 78
2 79
2 80
2 81
2 82
2 83
2 84
2 86
2 88
2 89
2 90
2 91
2 92
2 93
2 96
2 97
2 105
2 106
2 108
2 110
2 111
2 113
2 114
2 115
2 116
2 117
2 118
2 120
2 122
2 124
2 125
2 126
2 127
2 128
2 129
2 130
2 131
2 132
2 133
2 134
2 136
2 137
2 138
2 139
2 141
2 143
2 144
2 146
2 147
2 149
2 150
2 151
2 152
2 153
2 154
2 155
2 156
2 157
2 158
2 159
2 160
2 161
2 162
2 163
2 164
2 165
2 168
2 169
2 171
2 172
2 173
2 174
2 175
2 176
2 177
2 178
2 179
2 180
2 181
2 182
2 183
2 184
2 185
2 186
2 187
2 188
2 189
2 190
2 191
2 192
2 193
2 194
2 195
2 197
2 198
2 199
2 200
2 201
2 202
2 203
2 204
2 205
2 206
2 207
2 208
2 209
2 210
2 211
2 212
2 213
2 214
2 215
2 216
2 217
2 218
2 219
2 220
2 223
2 233
2 236
2 238
2 239
2 240
2 241
2 243
2 245
2 246
2 247
2 248
2 249
2 252
2 255
2 256
2 261
2 262
2 263
2 268
2 269
2 271
2 272
2 273
2 274
2 275
2 276
2 277
2 278
2 282
2 284
2 285
2 287
2 290
2 292
2 293
2 297
2 300
2 301
2 302
2 307
2 308
2 310
2 311
2 313
2 314
2 321
2 324
2 330
2 331
2 332
2 333
2 335
2 339
2 340
2 343
2 345
2 346
2 348
2 349
2 353
2 354
2 355
2 357
2 358
2 359
2 360
2 361
2 362
2 363
2 364
2 365
2 366
2 368
2 369
2 370
2 372
2 373
2 374
2 375
2 378
2 379
2 381
2 382
2 383
2 387
2 388
2 390
2 391
2 395
2 397
2 408
2 409
2 410
2 411
2 419
2 420
2 425
2 426
2 428
2 432
2 435
2 436
2 437
2 440
2 442
2 443
2 445
2 447
2 448
2 452
3 0
3 1
3 2
3 3
3 4
3 5
3 6
3 7
3 9
3 10
3 11
3 12
3 13
3 14
3 15
3 20
3 25
3 26
3 27
3 28
3 31
3 32
3 34
3 35
3 36
3 37
3 39
3 40
3 41
3 42
3 44
3 45
3 46
3 47
3 48
3 49
3 50
3 51
3 52
3 53
3 54
3 55
3 57
3 58
3 59
3 60
3 62
3 63
3 64
3 65
3 66
3 68
3 69
3 70
3 71
3 72
3 73
3 74
3 75
3 76
3 77
3 78
3 80
3 82
3 83
3 84
3 86
3 87
3 88
3 89
3 90
3 91
3 92
3 93
3 94
3 96
3 97
3 100
3 105
3 106
3 107
3 108
3 110
3 111
3 115
3 116
3 120
3 121
3 122
3 123
3 128
3 130
3 131
3 132
3 133
3 136
3 139
3 141
3 143
3 144
3 146
3 147
3 149
3 150
3 152
3 153
3 154
3 155
3 156
3 157
3 158
3 160
3 164
3 168
3 169
3 171
3 172
3 173
3 174
3 176
3 181
3 185
3 186
3 187
3 189
3 190
3 191
3 192
3 194
3 197
3 198
3 199
3 200
3 201
3 206
3 208
3 210
3 211
3 215
3 219
3 220
3 222
3 223
3 224
3 230
3 235
3 238
3 239
3 240
3 245
3 246
3 247
3 248
3 249
3 252
3 254
3 256
3 257
3 258
3 259
3 260
3 261
3 262
3 263
3 265
3 266
3 268
3 269
3 270
3 271
3 272
3 274
3 281
3 282
3 283
3 284
3 285
3 286
3 287
3 288
3 291
3 298
3 304
3 311
3 313
3 314
3 315
3 316
3 317
3 318
3 319
3 321
3 323
3 331
3 333
3 335
3 336
3 348
3 354
3 357
3 362
3 369
3 372
3 373
3 374
3 375
3 378
3 379
3 381
3 382
3 383
3 384
3 385
3 386
3 387
3 391
3 400
3 402
3 403
3 405
3 409
3 420
3 426
3 428
3 440
3 441
3 448
3 451
4 0
4 1
4 2
4 3
4 4
4 5
4 7
4 9
4 10
4 11
4 12
4 13
4 14
4 20
4 25
4 26
4 28
4 31
4 32
4 34
4 35
4 36
4 37
4 38
4 39
4 40
4 41
4 46
4 47
4 48
4 49
4 50
4 51
4 54
4 55
4 56
4 58
4 59
4 60
4 61
4 62
4 63
4 64
4 65
4 66
4 68
4 69
4 70
4 71
4 72
4 73
4 74
4 75
4 77
4 78
4 80
4 82
4 83
4 84
4 85
4 86
4 87
4 88
4 89
4 90
4 91
4 92
4 93
4 97
4 98
4 100
4 105
4 107
4 108
4 110
4 111
4 115
4 116
4 121
4 122
4 123
4 128
4 130
4 131
4 132
4 136
4 141
4 142
4 143
4 144
4 146
4 147
4 149
4 150
4 152
4 153
4 154
4 155
4 156
4 157
4 158
4 160
4 163
4 164
4 168
4 169
4 171
4 172
4 174
4 176
4 178
4 181
4 185
4 187
4 191
4 193
4 199
4 200
4 206
4 210
4 219
4 222
4 227
4 228
4 235
4 237
4 238
4 239
4 240
4 245
4 246
4 247
4 248
4 249
4 252
4 254
4 256
4 257
4 258
4 259
4 261
4 262
4 263
4 271
4 272
4 274
4 276
4 281
4 282
4 283
4 284
4 285
4 286
4 287
4 288
4 290
4 291
4 293
4 294
4 295
4 298
4 300
4 301
4 303
4 304
4 305
4 311
4 313
4 314
4 315
4 316
4 317
4 318
4 319
4 321
4 323
4 327
4 331
4 333
4 358
4 362
4 366
4 373
4 374
4 375
4 378
4 379
4 381
4 383
4 384
4 385
4 386
4 388
4 391
4 395
4 398
4 400
4 402
4 403
4 404
4 405
4 409
4 414
4 420
4 424
5 0
5 1
5 2
5 3
5 4
5 5
5 7
5 9
5 10
5 12
5 21
5 34
5 36
5 38
5 39
5 40
5 41
5 46
5 47
5 50
5 54
5 55
5 56
5 59
5 61
5 62
5 63
5 64
5 68
5 71
5 73
5 74
5 75
5 77
5 78
5 80
5 82
5 84
5 85
5 87
5 88
5 89
5 90
5 91
5 92
5 93
5 98
5 108
5 111
5 116
5 118
5 127
5 130
5 147
5 150
5 154
5 168
5 172
5 191
5 193
5 203
5 224
5 225
5 237
5 239
5 240
5 245
5 254
5 255
5 257
5 258
5 263
5 271
5 272
5 274
5 283
5 284
5 286
5 287
5 288
5 290
5 293
5 294
5 295
5 300
5 304
5 313
5 314
5 315
5 316
5 317
5 318
5 319
5 321
5 322
5 323
5 324
5 325
5 326
5 331
5 341
5 356
5 369
5 375
5 378
5 379
5 381
5 402
5 403
5 436
5 441
6 1
6 2
6 3
6 40
6 41
6 55
6 68
6 78
6 88
6 91
6 92
6 93
6 130
6 304
6 321
6 322
6 323
6 324
6 325
6 326
6 379
7 1
7 2
7 3
7 4
7 5
7 9
7 10
7 34
7 40
7 41
7 46
7 47
7 50
7 55
7 68
7 74
7 75
7 77
7 78
7 87
7 88
7 89
7 90
7 91
7 92
7 93
7 108
7 112
7 123
7 130
7 150
7 182
7 224
7 257
7 258
7 304
7 321
7 322
7 323
7 324
7 325
7 326
7 331
7 340
7 365
7 379
8 2
8 15
8 136
8 164
8 208
8 215
8 275
8 276
8 277
8 278
8 362
9 3
9 4
9 5
9 7
9 10
9 34
9 46
9 47
9 50
9 74
9 75
9 77
9 87
9 88
9 89
9 90
9 91
9 92
9 93
9 224
9 257
9 258
10 3
10 4
10 5
10 7
10 9
10 29
10 34
10 46
10 47
10 50
10 74
10 75
10 77
10 87
10 88
10 89
10 90
10 91
10 92
10 93
10 224
10 257
10 258
11 3
11 4
11 11
11 14
11 38
11 43
11 44
11 53
11 59
11 61
11 62
11 64
11 67
11 73
11 85
11 87
11 89
11 90
11 92
11 93
11 105
11 111
11 115
11 128
11 132
11 136
11 144
11 146
11 153
11 156
11 157
11 165
11 178
11 191
11 208
11 211
11 219
11 227
11 228
11 235
11 237
11 238
11 245
11 254
11 259
11 261
11 262
11 270
11 271
11 272
11 282
11 284
11 285
11 286
11 288
11 294
11 311
11 327
11 328
11 373
11 374
11 378
11 379
11 383
11 400
11 402
11 405
11 409
12 2
12 3
12 4
12 5
12 12
12 31
12 32
12 37
12 38
12 43
12 44
12 53
12 59
12 61
12 62
12 64
12 67
12 73
12 85
12 87
12 89
12 90
12 92
12 93
12 108
12 111
12 116
12 122
12 131
12 141
12 143
12 147
12 149
12 150
12 152
12 155
12 158
12 165
12 200
12 208
12 211
12 237
12 238
12 239
12 240
12 245
12 246
12 247
12 248
12 254
12 270
12 271
12 272
12 274
12 283
12 284
12 286
12 287
12 288
12 294
12 327
12 328
12 373
12 374
12 375
12 378
12 381
12 391
12 402
12 403
13 2
13 3
13 4
13 35
13 36
13 48
13 58
13 63
13 92
13 93
13 206
13 249
13 256
13 281
13 282
13 378
13 379
13 398
14 0
14 1
14 2
14 3
14 4
14 11
14 27
14 57
14 84
14 93
14 106
14 132
14 175
14 178
14 179
14 182
14 245
14 273
14 276
14 286
14 305
14 332
14 369
14 373
14 378
14 425
14 426
14 428
14 448
15 0
15 1
15 2
15 3
15 8
15 15
15 89
15 164
15 208
15 215
15 275
15 276
15 277
15 278
15 279
15 362
15 406
15 407
15 408
16 16
16 17
16 18
16 19
16 33
16 86
16 89
16 92
16 221
16 329
17 0
17 1
17 16
17 17
17 19
17 33
17 86
17 89
17 92
17 210
17 221
18 16
18 19
18 33
18 93
18 221
18 233
18 329
19 16
19 17
19 18
19 19
19 33
19 86
19 89
19 92
19 221
19 233
20 3
20 4
21 1
21 5
21 92
21 93
21 103
21 231
21 412
22 55
22 149
22 168
22 203
22 244
22 331
22 333
22 335
22 420
23 1
23 2
23 91
23 92
23 93
23 131
23 132
23 149
23 164
23 248
23 334
23 381
23 391
24 0
24 1
24 55
24 59
24 60
24 65
24 73
24 82
24 108
24 117
24 122
24 138
24 168
24 202
24 203
24 209
24 210
24 244
24 331
24 333
24 335
24 343
24 348
24 373
24 388
24 420
25 0
25 1
25 2
25 3
25 4
25 55
25 59
25 60
25 65
25 73
25 82
25 108
25 115
25 122
25 144
25 147
25 150
25 168
25 174
25 200
25 203
25 210
25 219
25 239
25 244
25 269
25 277
25 331
25 333
25 335
25 372
25 373
25 374
25 375
25 379
25 388
25 420
25 425
26 0
26 1
26 2
26 3
26 4
26 55
26 59
26 60
26 65
26 73
26 108
26 111
26 120
26 128
26 143
26 146
26 149
26 153
26 168
26 181
26 185
26 187
26 203
26 210
26 239
26 244
26 276
26 283
26 284
26 292
26 302
26 305
26 309
26 321
26 331
26 333
26 335
26 373
26 374
26 391
26 405
26 420
27 0
27 1
27 2
27 3
27 14
27 55
27 60
27 65
27 73
27 105
27 163
27 168
27 175
27 181
27 203
27 210
27 244
27 273
27 276
27 286
27 301
27 305
27 321
27 331
27 333
27 335
27 349
27 360
27 369
27 373
27 420
27 425
27 426
28 3
28 4
28 34
28 46
28 47
28 50
28 74
28 75
28 77
28 82
28 87
28 88
28 89
28 90
28 91
28 92
28 93
28 107
28 121
28 222
28 224
28 284
28 286
28 379
28 385
28 386
28 399
28 415
29 0
29 10
29 34
29 37
29 46
29 47
29 50
29 74
29 75
29 77
29 80
29 87
29 88
29 89
29 90
29 91
29 92
29 93
29 254
29 259
29 288
29 316
29 402
30 0
30 40
30 41
30 55
30 68
30 78
30 88
30 91
30 92
30 93
30 130
30 144
30 239
30 240
30 247
30 304
30 314
30 321
30 322
30 323
30 324
30 325
30 326
30 373
30 374
30 375
30 391
31 2
31 3
31 4
31 12
31 31
31 32
31 37
31 42
31 66
31 67
31 82
31 83
31 86
31 88
31 89
31 90
31 92
31 93
31 97
31 141
31 144
31 217
31 229
31 239
31 240
31 245
31 247
31 314
31 373
31 374
31 375
31 378
31 391
31 414
31 415
31 416
32 2
32 3
32 4
32 12
32 31
32 37
32 86
32 88
32 89
32 90
32 92
32 93
32 141
32 144
32 169
32 239
32 240
32 245
32 247
32 314
32 373
32 374
32 375
32 378
32 391
32 414
32 415
32 416
33 16
33 17
33 18
33 19
33 56
33 93
33 94
33 221
33 233
33 329
34 1
34 3
34 4
34 5
34 7
34 9
34 10
34 28
34 29
34 34
34 46
34 47
34 50
34 74
34 75
34 77
34 87
34 88
34 89
34 90
34 91
34 92
34 93
34 123
34 224
34 257
34 258
34 286
34 337
34 394
35 2
35 3
35 4
35 13
35 36
35 48
35 58
35 63
35 88
35 92
35 93
35 144
35 206
35 239
35 240
35 247
35 249
35 256
35 281
35 282
35 314
35 373
35 374
35 375
35 378
35 379
35 391
35 398
36 0
36 2
36 3
36 4
36 5
36 13
36 35
36 36
36 48
36 58
36 63
36 84
36 88
36 92
36 93
36 130
36 144
36 187
36 206
36 239
36 240
36 247
36 249
36 256
36 281
36 282
36 314
36 373
36 374
36 375
36 378
36 379
36 391
36 398
37 3
37 4
37 12
37 29
37 31
37 32
37 53
37 56
37 58
37 60
37 67
37 77
37 82
37 86
37 88
37 89
37 90
37 92
37 93
37 97
37 125
37 141
37 144
37 166
37 208
37 239
37 240
37 245
37 247
37 270
37 289
37 294
37 314
37 373
37 374
37 375
37 378
37 391
37 394
37 395
37 396
37 397
37 414
37 415
37 416
38 4
38 5
38 11
38 12
38 38
38 50
38 78
38 185
38 318
39 1
39 2
39 3
39 4
39 5
39 83
39 86
39 88
39 91
39 92
39 93
39 111
39 132
39 169
39 176
39 213
40 2
40 3
40 4
40 5
40 6
40 7
40 30
40 40
40 41
40 55
40 64
40 78
40 84
40 88
40 91
40 92
40 93
40 144
40 171
40 223
40 239
40 240
40 247
40 314
40 323
40 364
40 373
40 374
40 375
40 391
41 0
41 2
41 3
41 4
41 5
41 6
41 7
41 30
41 40
41 55
41 64
41 65
41 78
41 84
41 88
41 91
41 92
41 93
41 144
41 171
41 223
41 239
41 240
41 247
41 314
41 323
41 364
41 373
41 374
41 375
41 391
42 3
42 31
42 48
42 51
42 52
42 58
42 80
42 88
42 91
42 92
42 93
42 284
42 286
42 287
42 377
42 399
42 401
42 415
43 2
43 11
43 12
43 46
43 50
43 86
43 89
43 93
43 174
43 177
43 186
43 245
43 294
43 318
43 319
43 378
43 379
43 423
44 0
44 3
44 11
44 12
44 44
44 50
44 88
44 92
44 93
44 139
44 144
44 239
44 240
44 247
44 248
44 314
44 318
44 336
44 373
44 374
44 375
44 379
44 391
44 451
45 0
45 3
45 48
45 54
45 58
45 80
45 82
45 88
45 91
45 92
45 93
45 144
45 162
45 239
45 240
45 247
45 314
45 330
45 332
45 371
45 373
45 374
45 375
45 379
45 387
45 391
45 440
45 450
46 3
46 4
46 5
46 7
46 9
46 10
46 28
46 29
46 34
46 43
46 47
46 50
46 74
46 75
46 77
46 87
46 88
46 89
46 90
46 91
46 92
46 93
46 123
46 144
46 224
46 239
46 240
46 247
46 257
46 258
46 286
46 314
46 337
46 373
46 374
46 375
46 391
46 394
47 3
47 4
47 5
47 7
47 9
47 10
47 28
47 29
47 34
47 46
47 50
47 74
47 75
47 77
47 87
47 88
47 89
47 90
47 91
47 92
47 93
47 123
47 144
47 224
47 239
47 240
47 247
47 257
47 258
47 276
47 286
47 314
47 337
47 373
47 374
47 375
47 391
47 394
47 399
48 0
48 1
48 2
48 3
48 4
48 13
48 35
48 36
48 42
48 45
48 58
48 63
48 88
48 92
48 93
48 144
48 195
48 206
48 239
48 240
48 247
48 249
48 256
48 281
48 282
48 314
48 373
48 374
48 375
48 378
48 379
48 384
48 391
48 398
49 3
49 4
49 51
49 60
49 65
49 66
49 73
49 80
49 88
49 91
49 92
49 93
49 97
49 110
49 149
49 168
49 181
49 185
49 187
49 210
49 252
49 321
49 377
49 379
50 3
50 4
50 5
50 7
50 9
50 10
50 28
50 29
50 34
50 38
50 43
50 44
50 46
50 47
50 50
50 53
50 59
50 61
50 62
50 64
50 67
50 73
50 74
50 75
50 77
50 85
50 87
50 88
50 89
50 90
50 91
50 92
50 93
50 123
50 144
50 165
50 208
50 211
50 224
50 237
50 238
50 239
50 240
50 247
50 257
50 258
50 270
50 271
50 286
50 294
50 314
50 327
50 328
50 337
50 373
50 374
50 375
50 391
50 394
51 2
51 3
51 4
51 42
51 49
51 66
51 80
51 86
51 88
51 91
51 92
51 93
51 97
51 110
51 169
51 213
51 252
52 1
52 2
52 3
52 42
52 88
52 89
52 110
52 126
52 129
52 144
52 161
52 205
52 218
52 239
52 240
52 247
52 314
52 332
52 368
52 373
52 374
52 375
52 391
53 1
53 2
53 3
53 11
53 12
53 37
53 50
53 60
53 65
53 70
53 73
53 75
53 149
53 168
53 169
53 173
53 174
53 176
53 181
53 184
53 185
53 186
53 187
53 195
53 237
53 254
53 259
53 288
53 293
53 316
53 318
53 321
53 359
53 362
53 387
53 388
53 389
53 402
53 432
54 2
54 3
54 4
54 5
54 45
54 83
54 92
54 93
54 105
54 106
54 108
54 114
54 127
54 128
54 132
54 146
54 149
54 150
54 151
54 153
54 154
54 156
54 157
54 158
54 162
54 165
54 188
54 189
54 200
54 214
54 250
54 304
54 330
54 332
54 359
54 360
54 361
54 362
54 411
54 440
55 0
55 1
55 2
55 3
55 4
55 5
55 6
55 7
55 22
55 24
55 25
55 26
55 27
55 30
55 40
55 41
55 60
55 64
55 65
55 73
55 78
55 84
55 88
55 91
55 92
55 93
55 144
55 148
55 171
55 176
55 197
55 199
55 204
55 223
55 239
55 240
55 247
55 303
55 310
55 314
55 323
55 364
55 366
55 369
55 373
55 374
55 375
55 391
55 441
56 0
56 2
56 4
56 5
56 33
56 37
56 75
56 88
56 89
56 91
56 93
56 144
56 181
56 239
56 240
56 247
56 254
56 259
56 288
56 314
56 316
56 347
56 361
56 373
56 374
56 375
56 378
56 379
56 388
56 391
56 402
56 423
56 425
56 428
57 0
57 2
57 3
57 14
57 93
57 176
57 448
58 0
58 1
58 2
58 3
58 4
58 13
58 35
58 36
58 37
58 42
58 45
58 48
58 63
58 75
58 88
58 92
58 93
58 144
58 206
58 239
58 240
58 247
58 249
58 254
58 256
58 259
58 281
58 282
58 288
58 314
58 316
58 373
58 374
58 375
58 378
58 379
58 391
58 398
58 402
59 1
59 2
59 3
59 4
59 5
59 11
59 12
59 24
59 25
59 26
59 50
59 60
59 78
59 120
59 148
59 149
59 168
59 169
59 174
59 176
59 181
59 185
59 187
59 269
59 271
59 318
59 353
59 362
59 366
59 443
60 1
60 2
60 3
60 4
60 24
60 25
60 26
60 27
60 37
60 49
60 53
60 55
60 59
60 68
60 73
60 75
60 92
60 93
60 120
60 148
60 168
60 176
60 197
60 199
60 203
60 204
60 218
60 238
60 244
60 254
60 259
60 270
60 271
60 288
60 310
60 316
60 331
60 333
60 335
60 353
60 358
60 362
60 366
60 387
60 402
60 420
60 425
60 443
60 444
61 0
61 4
61 5
61 11
61 12
61 50
61 64
61 78
61 85
61 88
61 91
61 92
61 93
61 130
61 144
61 181
61 185
61 238
61 239
61 240
61 247
61 314
61 318
61 327
61 373
61 374
61 375
61 378
61 379
61 388
61 391
62 1
62 2
62 3
62 4
62 5
62 11
62 12
62 50
62 62
62 78
62 86
62 88
62 89
62 93
62 144
62 174
62 184
62 185
62 186
62 239
62 240
62 247
62 314
62 318
62 362
62 373
62 374
62 375
62 378
62 379
62 388
62 391
63 1
63 2
63 3
63 4
63 5
63 13
63 35
63 36
63 48
63 58
63 80
63 83
63 88
63 92
63 93
63 132
63 144
63 187
63 206
63 239
63 240
63 247
63 249
63 256
63 281
63 282
63 314
63 373
63 374
63 375
63 378
63 379
63 391
63 398
64 1
64 2
64 3
64 4
64 5
64 11
64 12
64 40
64 41
64 50
64 55
64 61
64 68
64 78
64 85
64 88
64 91
64 92
64 93
64 130
64 144
64 145
64 181
64 185
64 193
64 239
64 240
64 247
64 276
64 277
64 293
64 298
64 304
64 314
64 318
64 321
64 322
64 323
64 324
64 325
64 326
64 373
64 374
64 375
64 391
64 414
64 432
64 435
64 450
65 0
65 1
65 2
65 3
65 4
65 24
65 25
65 26
65 27
65 41
65 49
65 53
65 55
65 68
65 85
65 93
65 148
65 149
65 169
65 176
65 197
65 199
65 203
65 204
65 238
65 244
65 271
65 310
65 327
65 331
65 333
65 335
65 358
65 362
65 366
65 387
65 420
65 425
65 443
66 2
66 3
66 4
66 31
66 49
66 51
66 80
66 89
66 252
66 284
66 286
66 287
66 376
66 377
66 379
66 399
66 401
66 415
67 0
67 1
67 2
67 11
67 12
67 31
67 37
67 50
67 75
67 89
67 108
67 111
67 117
67 122
67 124
67 126
67 129
67 161
67 177
67 200
67 202
67 212
67 254
67 259
67 276
67 277
67 284
67 286
67 287
67 288
67 290
67 316
67 318
67 399
67 401
67 402
67 415
68 0
68 1
68 2
68 3
68 4
68 5
68 6
68 7
68 30
68 60
68 64
68 65
68 73
68 90
68 94
68 96
68 116
68 119
68 120
68 141
68 145
68 149
68 151
68 168
68 169
68 171
68 181
68 185
68 187
68 210
68 223
68 238
68 321
68 324
68 332
68 362
68 364
68 369
68 372
68 387
68 395
68 397
68 432
68 448
69 1
69 2
69 3
69 4
69 86
69 88
69 89
69 92
69 93
69 125
69 144
69 164
69 174
69 176
69 186
69 190
69 198
69 213
69 239
69 240
69 247
69 314
69 362
69 373
69 374
69 375
69 391
70 1
70 2
70 3
70 4
70 53
70 86
70 88
70 89
70 92
70 93
70 144
70 164
70 173
70 174
70 176
70 186
70 190
70 198
70 213
70 238
70 239
70 240
70 247
70 314
70 362
70 373
70 374
70 375
70 391
71 0
71 1
71 2
71 3
71 4
71 5
71 71
71 84
71 86
71 89
71 111
71 120
71 130
71 164
71 169
71 174
71 176
71 187
71 190
71 198
71 347
71 357
71 359
71 362
71 369
71 378
71 379
71 387
71 388
71 428
72 1
72 2
72 3
72 4
72 72
72 86
72 88
72 89
72 93
72 120
72 144
72 164
72 169
72 174
72 176
72 190
72 192
72 198
72 213
72 239
72 240
72 247
72 294
72 314
72 350
72 351
72 356
72 359
72 362
72 373
72 374
72 375
72 391
72 423
72 424
73 2
73 3
73 4
73 5
73 11
73 12
73 24
73 25
73 26
73 27
73 49
73 50
73 53
73 55
73 60
73 68
73 78
73 88
73 93
73 144
73 148
73 149
73 174
73 185
73 197
73 199
73 203
73 204
73 238
73 239
73 240
73 244
73 247
73 271
73 310
73 314
73 318
73 331
73 333
73 335
73 358
73 362
73 373
73 374
73 375
73 378
73 379
73 388
73 391
73 420
74 3
74 4
74 5
74 7
74 9
74 10
74 28
74 29
74 34
74 46
74 47
74 50
74 75
74 77
74 86
74 88
74 89
74 90
74 92
74 93
74 123
74 144
74 177
74 224
74 233
74 239
74 240
74 247
74 257
74 258
74 260
74 276
74 284
74 286
74 289
74 314
74 337
74 373
74 374
74 375
74 391
74 394
74 423
75 0
75 3
75 4
75 5
75 7
75 9
75 10
75 28
75 29
75 34
75 46
75 47
75 50
75 53
75 56
75 58
75 60
75 67
75 74
75 77
75 82
75 86
75 88
75 89
75 90
75 92
75 93
75 97
75 123
75 125
75 144
75 166
75 208
75 224
75 239
75 240
75 247
75 257
75 258
75 260
75 270
75 276
75 284
75 286
75 289
75 294
75 314
75 337
75 373
75 374
75 375
75 391
75 394
75 395
75 396
75 397
76 0
76 1
76 3
76 93
76 105
76 111
76 124
77 3
77 4
77 5
77 7
77 9
77 10
77 28
77 29
77 34
77 37
77 46
77 47
77 50
77 74
77 75
77 86
77 88
77 89
77 90
77 92
77 93
77 123
77 144
77 145
77 181
77 224
77 239
77 240
77 247
77 254
77 257
77 258
77 259
77 260
77 276
77 284
77 286
77 288
77 289
77 314
77 316
77 337
77 373
77 374
77 375
77 391
77 394
77 402
78 1
78 2
78 3
78 4
78 5
78 6
78 7
78 30
78 38
78 40
78 41
78 55
78 59
78 61
78 62
78 64
78 73
78 80
78 82
78 84
78 85
78 88
78 92
78 93
78 120
78 144
78 154
78 168
78 169
78 171
78 181
78 193
78 195
78 198
78 203
78 223
78 237
78 239
78 240
78 247
78 263
78 271
78 293
78 294
78 298
78 314
78 324
78 325
78 331
78 335
78 345
78 362
78 364
78 373
78 374
78 375
78 387
78 389
78 391
78 395
78 425
78 443
78 444
79 0
79 1
79 2
79 81
79 93
79 131
79 149
79 171
79 185
79 187
79 391
80 1
80 2
80 3
80 4
80 5
80 29
80 42
80 45
80 49
80 51
80 63
80 66
80 78
80 83
80 91
80 92
80 93
80 101
80 110
80 132
80 185
80 217
80 252
80 377
80 379
81 0
81 2
81 79
81 93
81 155
81 174
81 362
82 2
82 3
82 4
82 5
82 24
82 25
82 28
82 31
82 37
82 45
82 75
82 78
82 83
82 92
82 93
82 101
82 110
82 121
82 128
82 132
82 154
82 174
82 185
82 197
82 222
82 254
82 259
82 276
82 277
82 286
82 287
82 288
82 316
82 372
82 379
82 385
82 386
82 387
82 388
82 401
82 402
82 414
82 445
82 450
83 1
83 2
83 3
83 4
83 31
83 39
83 54
83 63
83 80
83 82
83 84
83 86
83 87
83 88
83 90
83 91
83 92
83 93
83 109
83 142
83 169
83 203
83 213
83 244
83 265
83 286
83 287
83 290
83 300
83 323
83 332
83 333
83 335
83 352
83 366
83 386
83 387
83 389
83 401
83 420
83 425
83 443
84 0
84 1
84 2
84 3
84 4
84 5
84 14
84 36
84 40
84 41
84 55
84 71
84 78
84 83
84 84
84 88
84 92
84 93
84 105
84 108
84 115
84 127
84 128
84 130
84 132
84 143
84 144
84 146
84 149
84 150
84 151
84 153
84 154
84 155
84 156
84 157
84 158
84 169
84 185
84 187
84 200
84 201
84 203
84 219
84 225
84 239
84 240
84 243
84 247
84 250
84 255
84 276
84 277
84 290
84 304
84 314
84 330
84 331
84 332
84 335
84 349
84 354
84 356
84 357
84 362
84 366
84 372
84 373
84 374
84 375
84 391
84 414
84 425
84 426
84 436
84 440
84 441
84 444
85 0
85 1
85 4
85 5
85 11
85 12
85 50
85 61
85 64
85 65
85 78
85 88
85 91
85 92
85 93
85 130
85 144
85 181
85 239
85 240
85 247
85 291
85 314
85 318
85 373
85 374
85 375
85 378
85 379
85 388
85 391
86 1
86 2
86 3
86 4
86 16
86 17
86 19
86 31
86 32
86 37
86 39
86 43
86 51
86 62
86 69
86 70
86 71
86 72
86 74
86 75
86 77
86 83
86 86
86 88
86 89
86 92
86 93
86 96
86 133
86 136
86 144
86 160
86 169
86 181
86 190
86 192
86 195
86 198
86 210
86 213
86 220
86 236
86 239
86 240
86 247
86 254
86 259
86 260
86 276
86 277
86 284
86 285
86 286
86 287
86 288
86 289
86 312
86 314
86 316
86 317
86 323
86 329
86 330
86 371
86 373
86 374
86 375
86 379
86 382
86 387
86 389
86 391
86 399
86 400
86 401
86 402
86 403
86 414
86 415
86 416
86 430
86 437
86 441
87 0
87 3
87 4
87 5
87 7
87 9
87 10
87 11
87 12
87 28
87 29
87 34
87 46
87 47
87 50
87 83
87 88
87 90
87 91
87 92
87 93
87 109
87 116
87 123
87 132
87 141
87 144
87 178
87 224
87 227
87 228
87 230
87 232
87 239
87 240
87 245
87 247
87 257
87 258
87 262
87 286
87 300
87 313
87 314
87 318
87 319
87 332
87 337
87 341
87 373
87 374
87 375
87 378
87 379
87 391
87 394
87 425
87 438
88 1
88 2
88 3
88 4
88 5
88 6
88 7
88 9
88 10
88 28
88 29
88 30
88 31
88 32
88 34
88 35
88 36
88 37
88 39
88 40
88 41
88 42
88 44
88 45
88 46
88 47
88 48
88 49
88 50
88 51
88 52
88 55
88 56
88 58
88 61
88 62
88 63
88 64
88 69
88 70
88 72
88 73
88 74
88 75
88 77
88 78
88 83
88 84
88 85
88 86
88 87
88 89
88 90
88 91
88 92
88 93
88 103
88 104
88 109
88 116
88 121
88 123
88 130
88 132
88 139
88 140
88 141
88 142
88 145
88 151
88 160
88 161
88 165
88 171
88 174
88 181
88 187
88 190
88 193
88 196
88 198
88 203
88 206
88 212
88 222
88 223
88 224
88 229
88 230
88 233
88 249
88 250
88 252
88 257
88 258
88 286
88 298
88 300
88 304
88 312
88 323
88 324
88 325
88 330
88 331
88 332
88 334
88 335
88 336
88 337
88 345
88 352
88 362
88 378
88 379
88 385
88 386
88 387
88 388
88 389
88 394
88 414
88 415
88 425
88 428
88 443
89 0
89 1
89 2
89 3
89 4
89 5
89 7
89 9
89 10
89 11
89 12
89 15
89 16
89 17
89 19
89 28
89 29
89 31
89 32
89 34
89 37
89 43
89 46
89 47
89 50
89 52
89 56
89 62
89 66
89 67
89 69
89 70
89 71
89 72
89 74
89 75
89 77
89 86
89 88
89 89
89 90
89 92
89 93
89 95
89 96
89 98
89 101
89 106
89 107
89 110
89 111
89 112
89 114
89 116
89 120
89 123
89 126
89 129
89 133
89 134
89 136
89 139
89 140
89 141
89 144
89 161
89 165
89 169
89 170
89 174
89 178
89 181
89 186
89 188
89 189
89 190
89 192
89 194
89 195
89 196
89 198
89 210
89 213
89 214
89 220
89 224
89 227
89 228
89 232
89 236
89 239
89 240
89 245
89 247
89 248
89 254
89 257
89 258
89 259
89 260
89 262
89 276
89 277
89 284
89 285
89 286
89 287
89 288
89 289
89 294
89 313
89 314
89 316
89 317
89 318
89 319
89 323
89 327
89 329
89 332
89 336
89 337
89 341
89 351
89 352
89 359
89 361
89 362
89 366
89 367
89 369
89 373
89 374
89 375
89 376
89 378
89 379
89 391
89 394
89 399
89 400
89 401
89 402
89 403
89 411
89 414
89 415
89 416
89 431
89 435
89 437
89 438
89 441
89 451
90 1
90 2
90 3
90 4
90 5
90 7
90 9
90 10
90 11
90 12
90 28
90 29
90 31
90 32
90 34
90 37
90 46
90 47
90 50
90 68
90 74
90 75
90 77
90 83
90 87
90 88
90 89
90 91
90 92
90 93
90 109
90 120
90 123
90 132
90 144
90 224
90 239
90 240
90 242
90 245
90 247
90 254
90 257
90 258
90 259
90 260
90 274
90 276
90 277
90 283
90 284
90 285
90 286
90 287
90 288
90 289
90 300
90 314
90 315
90 316
90 317
90 318
90 319
90 332
90 337
90 373
90 374
90 375
90 378
90 379
90 391
90 394
90 395
90 399
90 400
90 401
90 402
90 403
90 404
90 405
90 414
90 415
90 416
90 425
91 0
91 1
91 2
91 3
91 4
91 5
91 6
91 7
91 9
91 10
91 23
91 28
91 29
91 30
91 34
91 39
91 40
91 41
91 42
91 45
91 46
91 47
91 49
91 50
91 51
91 55
91 56
91 61
91 64
91 80
91 83
91 85
91 87
91 88
91 90
91 92
91 93
91 96
91 103
91 104
91 109
91 116
91 120
91 121
91 123
91 132
91 141
91 142
91 144
91 145
91 151
91 160
91 166
91 167
91 171
91 174
91 181
91 187
91 193
91 203
91 222
91 223
91 224
91 229
91 230
91 233
91 239
91 240
91 247
91 252
91 257
91 258
91 276
91 277
91 284
91 286
91 297
91 298
91 300
91 312
91 314
91 317
91 323
91 324
91 325
91 331
91 332
91 334
91 335
91 336
91 337
91 345
91 352
91 362
91 373
91 374
91 375
91 378
91 379
91 385
91 386
91 387
91 388
91 389
91 391
91 394
91 395
91 397
91 403
91 414
91 425
91 428
91 443
92 0
92 1
92 2
92 3
92 4
92 5
92 6
92 7
92 9
92 10
92 11
92 12
92 13
92 16
92 17
92 19
92 21
92 23
92 28
92 29
92 30
92 31
92 32
92 34
92 35
92 36
92 37
92 39
92 40
92 41
92 42
92 44
92 45
92 46
92 47
92 48
92 49
92 50
92 51
92 54
92 55
92 58
92 60
92 61
92 63
92 64
92 69
92 70
92 74
92 75
92 77
92 78
92 80
92 82
92 83
92 84
92 85
92 86
92 87
92 88
92 89
92 90
92 91
92 93
92 94
92 97
92 99
92 100
92 102
92 103
92 104
92 109
92 111
92 113
92 116
92 120
92 121
92 123
92 125
92 130
92 132
92 136
92 141
92 142
92 144
92 145
92 151
92 160
92 164
92 166
92 167
92 169
92 171
92 173
92 174
92 176
92 178
92 179
92 180
92 181
92 182
92 183
92 184
92 185
92 186
92 187
92 188
92 190
92 193
92 198
92 203
92 206
92 211
92 213
92 214
92 222
92 223
92 224
92 227
92 228
92 229
92 230
92 233
92 238
92 239
92 240
92 242
92 244
92 245
92 247
92 249
92 252
92 253
92 254
92 256
92 257
92 258
92 259
92 260
92 261
92 262
92 265
92 269
92 272
92 274
92 276
92 277
92 281
92 282
92 283
92 284
92 285
92 286
92 287
92 288
92 289
92 293
92 294
92 297
92 298
92 300
92 303
92 305
92 306
92 312
92 313
92 314
92 315
92 316
92 317
92 318
92 319
92 322
92 323
92 324
92 325
92 329
92 331
92 332
92 333
92 334
92 335
92 336
92 337
92 341
92 345
92 352
92 359
92 361
92 362
92 364
92 365
92 366
92 369
92 370
92 373
92 374
92 375
92 377
92 378
92 379
92 380
92 382
92 383
92 385
92 386
92 387
92 388
92 389
92 390
92 391
92 393
92 394
92 395
92 397
92 398
92 399
92 400
92 401
92 402
92 403
92 405
92 414
92 415
92 416
92 420
92 425
92 428
92 429
92 431
92 432
92 434
92 435
92 436
92 437
92 438
92 439
92 443
92 449
92 450
92 452
93 0
93 1
93 2
93 3
93 4
93 5
93 6
93 7
93 9
93 10
93 11
93 12
93 13
93 14
93 18
93 21
93 23
93 28
93 29
93 30
93 31
93 32
93 33
93 34
93 35
93 36
93 37
93 39
93 40
93 41
93 42
93 43
93 44
93 45
93 46
93 47
93 48
93 49
93 50
93 51
93 54
93 55
93 56
93 57
93 58
93 60
93 61
93 62
93 63
93 64
93 65
93 69
93 70
93 72
93 73
93 74
93 75
93 76
93 77
93 78
93 79
93 80
93 81
93 82
93 83
93 84
93 85
93 86
93 87
93 88
93 89
93 90
93 91
93 92
93 94
93 96
93 97
93 99
93 100
93 101
93 102
93 103
93 104
93 105
93 108
93 109
93 111
93 112
93 113
93 115
93 116
93 117
93 118
93 119
93 120
93 121
93 122
93 123
93 124
93 125
93 127
93 128
93 130
93 131
93 132
93 133
93 134
93 135
93 136
93 137
93 138
93 141
93 142
93 143
93 144
93 145
93 146
93 147
93 149
93 150
93 151
93 153
93 154
93 155
93 156
93 157
93 159
93 160
93 164
93 166
93 167
93 168
93 169
93 171
93 172
93 173
93 174
93 175
93 176
93 177
93 178
93 179
93 180
93 181
93 182
93 183
93 184
93 185
93 186
93 187
93 190
93 191
93 192
93 193
93 195
93 198
93 200
93 201
93 202
93 203
93 205
93 206
93 207
93 209
93 210
93 211
93 212
93 213
93 218
93 219
93 222
93 223
93 224
93 226
93 227
93 228
93 229
93 230
93 231
93 233
93 235
93 236
93 239
93 240
93 242
93 244
93 245
93 246
93 247
93 248
93 249
93 250
93 251
93 252
93 253
93 254
93 256
93 257
93 258
93 259
93 260
93 261
93 262
93 264
93 265
93 269
93 270
93 272
93 274
93 276
93 277
93 281
93 282
93 283
93 284
93 285
93 286
93 287
93 288
93 289
93 293
93 294
93 295
93 297
93 298
93 300
93 303
93 304
93 305
93 306
93 309
93 312
93 313
93 314
93 315
93 316
93 317
93 318
93 319
93 321
93 322
93 323
93 324
93 325
93 327
93 330
93 331
93 332
93 333
93 334
93 335
93 336
93 337
93 339
93 340
93 341
93 342
93 343
93 344
93 345
93 346
93 347
93 348
93 349
93 350
93 351
93 352
93 353
93 354
93 355
93 356
93 357
93 359
93 360
93 362
93 363
93 364
93 365
93 366
93 367
93 368
93 369
93 370
93 372
93 373
93 374
93 375
93 377
93 378
93 379
93 380
93 381
93 382
93 383
93 385
93 386
93 387
93 388
93 389
93 390
93 391
93 393
93 394
93 395
93 396
93 397
93 398
93 399
93 400
93 401
93 402
93 403
93 404
93 405
93 407
93 409
93 410
93 412
93 413
93 414
93 415
93 416
93 417
93 418
93 419
93 420
93 421
93 422
93 423
93 424
93 425
93 426
93 427
93 428
93 429
93 431
93 432
93 434
93 435
93 436
93 437
93 440
93 441
93 442
93 443
93 445
93 446
93 447
93 448
93 449
93 450
93 452
94 0
94 3
94 33
94 68
94 92
94 93
94 96
94 100
94 181
94 248
94 281
95 0
95 1
95 89
95 107
95 347
96 0
96 1
96 2
96 3
96 68
96 86
96 89
96 91
96 93
96 94
96 96
96 181
96 379
97 0
97 2
97 3
97 4
97 31
97 37
97 49
97 51
97 75
97 92
97 93
97 252
97 254
97 259
97 284
97 286
97 287
97 288
97 316
97 377
97 379
97 399
97 401
97 402
97 415
98 0
98 4
98 5
98 89
98 378
98 379
98 388
99 0
99 92
99 93
99 172
99 338
99 339
99 340
99 341
99 342
100 0
100 3
100 4
100 92
100 93
100 94
100 100
100 281
100 378
100 379
101 0
101 80
101 82
101 89
101 93
101 174
101 186
102 0
102 92
102 93
102 118
103 0
103 1
103 21
103 88
103 91
103 92
103 93
103 104
103 119
103 229
103 230
103 387
104 0
104 88
104 91
104 92
104 93
104 103
104 229
104 230
104 352
104 387
105 0
105 1
105 2
105 3
105 4
105 11
105 27
105 54
105 76
105 84
105 93
105 106
105 111
105 118
105 124
105 136
105 159
105 163
105 276
105 286
105 301
105 305
105 349
105 360
105 373
105 378
105 379
105 421
105 422
106 0
106 2
106 3
106 14
106 54
106 89
106 105
106 115
106 117
106 122
106 138
106 143
106 153
106 154
106 155
106 156
106 157
106 158
106 162
106 200
106 201
106 202
106 213
106 214
106 219
106 332
106 362
106 366
106 387
107 0
107 1
107 3
107 4
107 28
107 89
107 95
107 121
107 222
107 347
107 379
107 385
107 386
108 0
108 1
108 2
108 3
108 4
108 5
108 7
108 12
108 24
108 25
108 26
108 54
108 67
108 84
108 93
108 120
108 174
108 176
108 223
108 231
108 233
108 239
108 240
108 245
108 276
108 362
108 378
108 379
108 381
108 404
109 0
109 83
109 87
109 88
109 90
109 91
109 92
109 93
109 220
109 332
110 0
110 1
110 2
110 3
110 4
110 49
110 51
110 52
110 80
110 82
110 89
110 111
110 113
110 126
110 129
110 155
110 161
110 181
110 187
110 201
110 212
110 217
110 252
110 276
110 277
110 332
110 369
110 377
110 379
110 414
111 0
111 1
111 2
111 3
111 4
111 5
111 11
111 12
111 26
111 39
111 67
111 71
111 76
111 89
111 92
111 93
111 105
111 110
111 115
111 120
111 124
111 127
111 131
111 136
111 143
111 147
111 160
111 174
111 191
111 201
111 219
111 245
111 276
111 300
111 310
111 372
111 378
111 379
111 445
112 1
112 7
112 89
112 93
112 112
112 126
112 129
112 134
112 137
112 155
112 161
112 201
112 290
112 296
112 346
112 365
112 419
113 0
113 1
113 2
113 92
113 93
113 110
113 120
113 155
113 174
113 204
113 276
113 362
114 1
114 2
114 54
114 89
114 127
114 213
114 362
114 370
114 387
114 411
114 425
115 0
115 1
115 2
115 3
115 4
115 11
115 25
115 84
115 93
115 106
115 111
115 120
115 124
115 262
115 276
115 373
115 379
115 388
116 1
116 2
116 3
116 4
116 5
116 12
116 68
116 87
116 88
116 89
116 91
116 92
116 93
116 245
116 254
116 272
116 276
116 277
116 284
116 287
116 288
116 306
116 378
116 403
117 0
117 1
117 2
117 24
117 67
117 93
117 106
117 120
117 124
117 388
118 1
118 2
118 5
118 93
118 102
118 105
118 141
118 159
118 163
118 301
119 1
119 68
119 93
119 103
119 387
120 0
120 1
120 2
120 3
120 26
120 59
120 60
120 68
120 71
120 72
120 78
120 89
120 90
120 91
120 92
120 93
120 108
120 111
120 113
120 115
120 117
120 120
120 122
120 124
120 127
120 131
120 136
120 138
120 143
120 147
120 149
120 150
120 176
120 181
120 190
120 198
120 201
120 202
120 205
120 209
120 248
120 276
120 297
120 305
120 309
120 343
120 354
120 357
120 362
120 381
121 0
121 1
121 3
121 4
121 28
121 82
121 88
121 91
121 92
121 93
121 107
121 123
121 222
121 379
121 385
121 386
122 0
122 1
122 2
122 3
122 4
122 12
122 24
122 25
122 67
122 93
122 106
122 120
122 124
122 151
122 176
122 245
122 276
122 373
122 378
122 388
123 0
123 1
123 3
123 4
123 7
123 34
123 46
123 47
123 50
123 74
123 75
123 77
123 87
123 88
123 89
123 90
123 91
123 92
123 93
123 121
123 134
123 284
123 286
123 296
123 399
123 415
124 0
124 1
124 2
124 67
124 76
124 93
124 105
124 111
124 115
124 117
124 120
124 122
124 124
124 138
124 147
124 191
124 200
124 202
124 205
124 343
124 344
124 348
124 366
124 387
124 425
124 450
125 1
125 2
125 37
125 69
125 75
125 92
125 93
125 254
125 259
125 288
125 316
125 402
126 1
126 2
126 52
126 67
126 89
126 110
126 112
126 126
126 129
126 134
126 140
126 161
126 170
126 212
126 332
126 336
127 1
127 2
127 5
127 54
127 84
127 93
127 111
127 114
127 120
127 130
127 143
127 151
127 162
127 169
127 185
127 187
127 188
127 214
127 250
127 330
127 332
127 357
127 361
127 362
127 369
127 370
127 387
127 411
127 425
127 440
128 0
128 1
128 2
128 3
128 4
128 11
128 26
128 54
128 82
128 84
128 93
128 169
128 179
128 207
128 262
128 276
128 284
128 292
128 302
128 305
128 365
128 374
128 378
128 383
128 425
128 428
128 443
129 1
129 2
129 52
129 67
129 89
129 110
129 112
129 126
129 129
129 134
129 140
129 161
129 170
129 217
129 220
129 290
129 300
129 332
129 336
130 0
130 1
130 2
130 3
130 4
130 5
130 6
130 7
130 30
130 36
130 61
130 64
130 71
130 84
130 85
130 88
130 92
130 93
130 127
130 145
130 171
130 176
130 181
130 193
130 223
130 225
130 255
130 290
130 298
130 323
130 324
130 325
130 356
130 364
130 436
130 441
131 1
131 2
131 3
131 4
131 12
131 23
131 79
131 93
131 111
131 120
131 149
131 151
131 245
131 246
131 334
131 378
131 379
131 412
131 413
132 0
132 1
132 2
132 3
132 4
132 11
132 14
132 23
132 39
132 54
132 63
132 80
132 82
132 84
132 87
132 88
132 90
132 91
132 92
132 93
132 149
132 178
132 245
132 273
132 276
132 290
132 300
132 305
132 378
133 1
133 2
133 3
133 86
133 89
133 93
133 174
133 186
133 192
133 210
133 211
133 241
134 1
134 2
134 89
134 93
134 112
134 123
134 126
134 129
134 152
134 155
134 161
134 201
134 204
134 290
134 346
135 1
135 93
136 1
136 2
136 3
136 4
136 8
136 11
136 86
136 89
136 92
136 93
136 105
136 111
136 120
136 159
136 163
136 174
136 184
136 186
136 192
136 210
136 236
136 241
136 276
136 301
136 305
136 378
136 379
136 425
136 428
136 437
137 1
137 2
137 93
137 112
137 152
137 155
137 204
137 274
137 276
137 284
137 286
137 299
137 346
137 402
138 0
138 1
138 2
138 24
138 93
138 106
138 120
138 124
138 347
138 388
139 0
139 1
139 2
139 3
139 44
139 88
139 89
139 139
139 144
139 187
139 239
139 240
139 247
139 248
139 314
139 359
139 367
139 373
139 374
139 375
139 379
139 391
139 451
140 1
140 88
140 89
140 126
140 129
140 144
140 161
140 239
140 240
140 247
140 314
140 373
140 374
140 375
140 391
141 1
141 2
141 3
141 4
141 12
141 31
141 32
141 37
141 68
141 87
141 88
141 89
141 91
141 92
141 93
141 118
141 149
141 159
141 172
141 179
141 180
141 182
141 183
141 226
141 242
141 245
141 261
141 339
141 340
141 365
141 377
141 378
141 383
141 410
142 1
142 4
142 83
142 88
142 91
142 92
142 93
142 337
142 352
143 1
143 2
143 3
143 4
143 12
143 26
143 84
143 93
143 106
143 111
143 120
143 127
143 218
143 245
143 248
143 276
143 283
143 305
143 309
143 354
143 373
143 378
143 418
143 442
144 1
144 2
144 3
144 4
144 11
144 25
144 30
144 31
144 32
144 35
144 36
144 37
144 40
144 41
144 44
144 45
144 46
144 47
144 48
144 50
144 52
144 55
144 56
144 58
144 61
144 62
144 63
144 64
144 69
144 70
144 72
144 73
144 74
144 75
144 77
144 78
144 84
144 85
144 86
144 87
144 89
144 90
144 91
144 92
144 93
144 139
144 140
144 151
144 161
144 165
144 190
144 191
144 196
144 198
144 206
144 212
144 219
144 222
144 249
144 250
144 300
144 304
144 310
144 330
144 332
144 334
144 336
144 337
144 345
144 372
144 378
144 379
144 414
144 415
144 445
145 1
145 64
145 68
145 77
145 88
145 91
145 92
145 93
145 130
145 352
145 395
146 1
146 2
146 3
146 4
146 11
146 26
146 54
146 84
146 93
146 226
146 227
146 228
146 235
146 242
146 245
146 276
146 305
146 366
146 369
146 373
146 378
146 387
146 390
146 405
146 452
147 0
147 1
147 2
147 3
147 4
147 5
147 12
147 25
147 93
147 111
147 120
147 124
147 174
147 245
147 269
147 272
147 277
147 344
147 362
147 375
147 378
147 379
148 0
148 1
148 55
148 59
148 60
148 65
148 73
148 158
148 168
148 203
148 210
148 244
148 247
148 321
148 331
148 333
148 335
148 420
149 0
149 1
149 2
149 3
149 4
149 12
149 22
149 23
149 26
149 49
149 53
149 54
149 59
149 65
149 68
149 73
149 79
149 84
149 93
149 120
149 131
149 132
149 141
149 162
149 164
149 168
149 171
149 176
149 181
149 185
149 187
149 245
149 271
149 291
149 334
149 336
149 358
149 362
149 378
149 379
149 387
149 391
149 395
149 397
149 412
149 413
149 414
150 0
150 1
150 2
150 3
150 4
150 5
150 7
150 12
150 25
150 54
150 84
150 93
150 120
150 231
150 233
150 239
150 245
150 276
150 362
150 378
150 379
150 381
150 404
151 1
151 2
151 54
151 68
151 84
151 88
151 91
151 92
151 93
151 122
151 127
151 131
151 144
151 152
151 162
151 185
151 188
151 239
151 240
151 247
151 314
151 345
151 347
151 360
151 373
151 374
151 375
151 391
151 411
152 0
152 1
152 2
152 3
152 4
152 12
152 134
152 137
152 151
152 155
152 201
152 204
152 245
152 274
152 276
152 299
152 336
152 346
152 362
152 378
153 0
153 1
153 2
153 3
153 4
153 11
153 26
153 54
153 84
153 93
153 106
153 169
153 176
153 180
153 183
153 261
153 276
153 282
153 284
153 292
153 305
153 353
153 359
153 366
153 374
153 377
153 378
153 427
153 447
153 449
154 0
154 1
154 2
154 3
154 4
154 5
154 54
154 78
154 82
154 84
154 93
154 106
154 172
154 197
154 276
154 305
154 307
154 308
154 313
154 314
154 315
154 318
154 319
154 339
154 340
154 341
154 354
154 387
154 388
154 389
154 417
154 418
154 442
155 0
155 1
155 2
155 3
155 4
155 12
155 81
155 84
155 93
155 106
155 110
155 112
155 113
155 134
155 137
155 152
155 174
155 204
155 245
155 274
155 276
155 299
155 346
155 357
155 362
155 363
155 365
155 366
155 368
155 373
155 378
156 0
156 1
156 2
156 3
156 4
156 11
156 54
156 84
156 93
156 106
156 182
156 199
156 276
156 284
156 302
156 305
156 349
156 355
156 357
156 362
156 365
156 374
156 378
156 383
156 409
156 410
156 422
156 446
157 0
157 1
157 2
157 3
157 4
157 11
157 54
157 84
157 93
157 106
157 182
157 302
157 349
157 355
157 362
157 365
157 374
157 378
157 383
157 409
157 410
157 422
157 446
158 0
158 1
158 2
158 3
158 4
158 12
158 54
158 84
158 106
158 148
158 169
158 176
158 231
158 233
158 245
158 246
158 247
158 276
158 378
159 1
159 2
159 93
159 105
159 118
159 136
159 141
159 163
159 276
159 301
159 305
159 378
159 425
159 428
160 1
160 2
160 3
160 4
160 86
160 88
160 91
160 92
160 93
160 111
160 169
160 176
160 213
160 312
160 320
160 347
161 1
161 2
161 52
161 67
161 88
161 89
161 110
161 112
161 126
161 129
161 134
161 140
161 144
161 161
161 170
161 239
161 240
161 247
161 314
161 330
161 332
161 336
161 373
161 374
161 375
161 391
162 1
162 2
162 45
162 54
162 106
162 127
162 149
162 151
162 250
162 304
162 330
162 332
162 362
162 370
162 387
162 425
162 440
163 1
163 2
163 4
163 27
163 105
163 118
163 136
163 159
163 254
163 276
163 286
163 301
163 305
163 425
163 428
164 1
164 2
164 3
164 4
164 8
164 15
164 23
164 69
164 70
164 71
164 72
164 92
164 93
164 149
164 164
164 174
164 176
164 208
164 215
164 275
164 276
164 277
164 278
164 279
164 347
164 362
164 406
164 407
164 408
164 414
165 1
165 2
165 11
165 12
165 50
165 54
165 88
165 89
165 144
165 188
165 213
165 214
165 239
165 240
165 247
165 314
165 318
165 361
165 362
165 370
165 373
165 374
165 375
165 387
165 391
165 425
166 1
166 37
166 75
166 91
166 92
166 93
166 233
166 254
166 259
166 288
166 316
166 387
166 402
166 413
166 421
167 1
167 91
167 92
167 93
167 345
168 1
168 2
168 3
168 4
168 5
168 22
168 24
168 25
168 26
168 27
168 49
168 53
168 59
168 60
168 68
168 78
168 93
168 148
168 149
168 174
168 176
168 181
168 185
168 187
168 197
168 199
168 204
168 210
168 238
168 269
168 271
168 310
168 358
168 362
169 0
169 1
169 2
169 3
169 4
169 32
169 39
169 51
169 53
169 59
169 65
169 68
169 71
169 72
169 78
169 83
169 84
169 86
169 89
169 92
169 93
169 127
169 128
169 153
169 158
169 160
169 169
169 173
169 176
169 181
169 191
169 220
169 241
169 255
169 262
169 282
169 304
169 310
169 333
169 353
169 359
169 362
169 420
169 437
169 443
169 444
169 445
169 450
170 1
170 89
170 126
170 129
170 161
170 177
170 212
171 1
171 2
171 3
171 4
171 40
171 41
171 55
171 68
171 78
171 79
171 88
171 91
171 92
171 93
171 130
171 149
171 304
171 321
171 322
171 323
171 324
171 325
171 326
171 331
172 1
172 2
172 3
172 4
172 5
172 93
172 99
172 141
172 154
172 307
172 308
172 313
172 318
172 319
172 339
172 340
172 341
172 442
173 0
173 2
173 3
173 53
173 70
173 92
173 93
173 169
173 173
173 176
173 181
173 195
173 220
173 236
173 293
173 321
173 359
173 362
173 366
173 432
173 437
174 0
174 1
174 2
174 3
174 4
174 25
174 43
174 53
174 59
174 62
174 69
174 70
174 71
174 72
174 73
174 81
174 82
174 88
174 89
174 91
174 92
174 93
174 101
174 108
174 111
174 113
174 133
174 136
174 147
174 155
174 164
174 168
174 176
174 185
174 192
174 194
174 204
174 211
174 241
174 263
174 268
174 271
174 291
174 298
174 303
174 362
174 364
174 366
174 375
174 428
174 440
174 441
175 1
175 2
175 14
175 27
175 93
175 176
175 425
175 426
175 428
176 1
176 2
176 3
176 4
176 39
176 53
176 55
176 57
176 59
176 60
176 65
176 69
176 70
176 71
176 72
176 92
176 93
176 108
176 120
176 122
176 130
176 149
176 153
176 158
176 160
176 164
176 168
176 169
176 173
176 174
176 175
176 176
176 194
176 209
176 218
176 220
176 243
176 255
176 300
176 348
176 353
176 359
176 362
176 404
176 437
176 448
177 2
177 43
177 67
177 74
177 93
177 170
177 177
177 192
177 212
177 218
177 356
178 0
178 2
178 4
178 11
178 14
178 87
178 89
178 92
178 93
178 132
178 178
178 179
178 245
178 259
178 261
178 273
178 284
178 286
178 373
178 378
179 1
179 2
179 14
179 92
179 93
179 128
179 141
179 178
179 182
179 207
179 245
179 261
179 262
179 273
179 276
179 292
179 302
179 305
179 365
179 378
179 383
180 2
180 92
180 93
180 141
180 153
180 183
180 261
180 276
180 292
180 305
180 377
180 378
181 1
181 2
181 3
181 4
181 26
181 27
181 49
181 53
181 56
181 59
181 61
181 64
181 68
181 77
181 78
181 85
181 86
181 88
181 89
181 91
181 92
181 93
181 94
181 96
181 110
181 120
181 130
181 149
181 168
181 169
181 173
181 181
181 185
181 193
181 271
181 298
181 324
181 332
181 358
181 362
181 379
182 0
182 2
182 7
182 14
182 92
182 93
182 141
182 156
182 157
182 179
182 182
182 261
182 273
182 302
182 358
182 365
182 383
183 2
183 92
183 93
183 141
183 153
183 180
183 261
183 292
183 377
184 0
184 2
184 53
184 62
184 92
184 93
184 136
184 327
185 1
185 2
185 3
185 4
185 26
185 38
185 49
185 53
185 59
185 61
185 62
185 64
185 68
185 73
185 79
185 80
185 82
185 84
185 92
185 93
185 127
185 149
185 151
185 168
185 174
185 181
185 237
185 238
185 250
185 263
185 271
185 293
185 294
185 304
185 330
185 332
185 358
185 440
186 0
186 1
186 2
186 3
186 43
186 53
186 62
186 69
186 70
186 89
186 92
186 93
186 101
186 133
186 136
186 192
186 210
186 211
186 428
187 0
187 1
187 2
187 3
187 4
187 26
187 36
187 49
187 53
187 59
187 63
187 68
187 71
187 79
187 84
187 88
187 91
187 92
187 93
187 110
187 127
187 139
187 149
187 168
187 217
187 225
187 255
187 271
187 290
187 356
187 358
187 366
187 436
187 441
188 0
188 1
188 2
188 54
188 89
188 92
188 127
188 151
188 165
188 189
188 213
188 250
188 304
188 330
188 332
188 440
189 1
189 2
189 3
189 54
189 89
189 188
189 213
189 214
189 361
189 362
189 371
189 379
189 408
189 450
190 1
190 2
190 3
190 69
190 70
190 71
190 72
190 86
190 88
190 89
190 92
190 93
190 120
190 144
190 192
190 198
190 213
190 239
190 240
190 247
190 314
190 351
190 366
190 373
190 374
190 375
190 391
190 435
191 0
191 1
191 2
191 3
191 4
191 5
191 11
191 93
191 111
191 124
191 144
191 169
191 218
191 277
191 310
191 311
191 371
191 378
191 379
191 430
191 443
191 444
191 445
191 450
192 1
192 2
192 3
192 72
192 86
192 89
192 93
192 133
192 136
192 174
192 177
192 186
192 190
192 192
192 194
192 208
192 210
192 211
192 236
192 351
193 1
193 2
193 4
193 5
193 64
193 78
193 88
193 91
193 92
193 93
193 130
193 181
193 378
193 379
193 388
194 2
194 3
194 89
194 174
194 176
194 192
194 194
194 198
194 225
194 236
194 237
194 437
194 438
194 439
195 1
195 2
195 48
195 53
195 78
195 86
195 89
195 93
195 173
195 328
195 366
195 395
196 88
196 89
196 144
196 239
196 240
196 247
196 314
196 373
196 374
196 375
196 376
196 391
197 1
197 2
197 3
197 55
197 60
197 65
197 73
197 82
197 154
197 168
197 203
197 210
197 244
197 276
197 305
197 307
197 308
197 314
197 315
197 321
197 331
197 333
197 335
197 388
197 420
198 1
198 2
198 3
198 69
198 70
198 71
198 72
198 78
198 86
198 88
198 89
198 92
198 93
198 120
198 144
198 190
198 194
198 213
198 236
198 239
198 240
198 247
198 314
198 351
198 366
198 373
198 374
198 375
198 391
198 392
198 435
198 437
198 439
199 1
199 2
199 3
199 4
199 55
199 60
199 65
199 73
199 156
199 168
199 203
199 210
199 244
199 276
199 284
199 302
199 305
199 321
199 331
199 333
199 335
199 349
199 362
199 365
199 374
199 383
199 410
199 420
199 446
200 0
200 1
200 2
200 3
200 4
200 12
200 25
200 54
200 67
200 84
200 93
200 106
200 124
200 245
200 269
200 276
200 335
200 362
200 374
200 378
200 379
200 425
201 0
201 1
201 2
201 3
201 84
201 93
201 106
201 110
201 111
201 112
201 120
201 134
201 152
201 205
201 354
201 362
201 418
201 419
201 442
202 0
202 1
202 2
202 24
202 67
202 93
202 106
202 120
202 124
202 366
203 2
203 5
203 22
203 24
203 25
203 26
203 27
203 60
203 65
203 73
203 78
203 83
203 84
203 88
203 91
203 92
203 93
203 148
203 197
203 199
203 204
203 310
203 366
203 369
204 1
204 2
204 55
204 60
204 65
204 73
204 113
204 134
204 137
204 152
204 155
204 168
204 174
204 203
204 210
204 244
204 274
204 276
204 299
204 321
204 331
204 333
204 335
204 362
204 373
204 420
205 1
205 2
205 52
205 93
205 120
205 124
205 201
205 348
206 2
206 3
206 4
206 13
206 35
206 36
206 48
206 58
206 63
206 88
206 92
206 93
206 144
206 239
206 240
206 247
206 249
206 256
206 281
206 282
206 314
206 373
206 374
206 375
206 378
206 379
206 391
206 398
207 1
207 2
207 93
207 128
207 179
207 207
207 425
207 428
207 443
208 2
208 3
208 8
208 11
208 12
208 15
208 37
208 50
208 75
208 164
208 192
208 208
208 215
208 254
208 259
208 275
208 276
208 277
208 278
208 279
208 288
208 316
208 318
208 362
208 394
208 402
208 406
208 407
208 408
209 0
209 1
209 2
209 24
209 93
209 120
209 176
209 218
209 344
209 388
210 1
210 2
210 3
210 4
210 17
210 24
210 25
210 26
210 27
210 49
210 68
210 86
210 89
210 93
210 133
210 136
210 148
210 168
210 186
210 192
210 197
210 199
210 204
210 210
210 211
210 271
210 310
210 358
211 1
211 2
211 3
211 11
211 12
211 50
211 92
211 93
211 133
211 174
211 186
211 192
211 210
211 318
211 359
212 2
212 67
212 88
212 93
212 110
212 126
212 144
212 170
212 177
212 212
212 239
212 240
212 247
212 314
212 373
212 374
212 375
212 391
213 1
213 2
213 39
213 51
213 69
213 70
213 72
213 83
213 86
213 89
213 92
213 93
213 106
213 114
213 160
213 165
213 188
213 189
213 190
213 198
213 214
213 304
213 359
213 361
213 362
213 411
214 1
214 2
214 54
214 89
214 92
214 106
214 127
214 165
214 189
214 213
214 359
214 362
214 411
215 2
215 3
215 8
215 15
215 164
215 208
215 215
215 275
215 276
215 277
215 278
215 279
215 362
215 406
215 407
216 2
217 1
217 2
217 31
217 80
217 110
217 129
217 187
217 286
217 287
217 401
218 1
218 2
218 52
218 60
218 93
218 143
218 176
218 177
218 191
218 209
218 218
218 369
218 425
218 428
218 443
219 0
219 1
219 2
219 3
219 4
219 11
219 25
219 84
219 93
219 106
219 111
219 144
219 272
219 277
219 372
219 378
219 379
219 425
219 428
220 1
220 2
220 3
220 86
220 89
220 109
220 129
220 169
220 173
220 176
220 220
220 241
220 243
220 255
220 437
220 438
220 439
221 0
221 16
221 17
221 18
221 19
221 33
221 221
221 233
221 329
222 3
222 4
222 28
222 82
222 88
222 91
222 92
222 93
222 107
222 121
222 144
222 222
222 239
222 240
222 247
222 314
222 373
222 374
222 375
222 379
222 385
222 386
222 391
223 1
223 2
223 3
223 40
223 41
223 55
223 68
223 78
223 88
223 91
223 92
223 93
223 108
223 130
223 304
223 321
223 322
223 323
223 324
223 325
223 326
223 335
223 378
223 379
224 3
224 5
224 7
224 9
224 10
224 28
224 34
224 46
224 47
224 50
224 74
224 75
224 77
224 87
224 88
224 89
224 90
224 91
224 92
224 93
224 257
224 258
225 5
225 84
225 130
225 187
225 194
225 225
225 232
225 236
225 237
225 267
225 392
225 437
225 438
225 439
226 1
226 93
226 141
226 146
226 227
226 228
226 242
226 245
226 276
226 305
226 378
226 393
227 0
227 4
227 11
227 87
227 89
227 92
227 93
227 146
227 226
227 228
227 235
227 245
227 259
227 276
227 284
227 373
227 378
227 393
227 405
228 0
228 4
228 11
228 87
228 89
228 92
228 93
228 146
228 226
228 227
228 235
228 245
228 259
228 276
228 284
228 373
228 378
228 393
228 405
229 31
229 88
229 91
229 92
229 93
229 103
229 104
229 230
229 286
229 287
229 387
229 401
230 3
230 87
230 88
230 91
230 92
230 93
230 103
230 104
230 229
230 261
230 272
230 311
230 378
230 387
231 0
231 1
231 21
231 93
231 108
231 150
231 158
231 233
231 239
231 240
231 246
231 247
231 381
232 87
232 89
232 225
232 232
232 236
232 237
232 392
232 437
233 0
233 1
233 2
233 18
233 19
233 33
233 74
233 88
233 91
233 92
233 93
233 108
233 150
233 158
233 166
233 221
233 231
233 233
233 238
233 239
233 240
233 246
233 247
233 251
233 253
233 264
233 381
233 425
234 393
235 1
235 3
235 4
235 11
235 93
235 146
235 227
235 228
235 245
235 276
235 305
235 369
235 378
236 2
236 86
236 89
236 93
236 136
236 173
236 192
236 194
236 198
236 225
236 232
236 236
236 237
236 267
236 392
236 437
237 4
237 5
237 11
237 12
237 50
237 53
237 78
237 185
237 194
237 225
237 232
237 236
237 267
237 318
237 392
237 437
237 438
237 439
238 1
238 2
238 3
238 4
238 11
238 12
238 50
238 60
238 61
238 65
238 68
238 70
238 73
238 92
238 168
238 185
238 233
238 318
238 387
238 413
239 1
239 2
239 3
239 4
239 5
239 12
239 25
239 26
239 30
239 31
239 32
239 35
239 36
239 37
239 40
239 41
239 44
239 45
239 46
239 47
239 48
239 50
239 52
239 55
239 56
239 58
239 61
239 62
239 63
239 64
239 69
239 70
239 72
239 73
239 74
239 75
239 77
239 78
239 84
239 85
239 86
239 87
239 89
239 90
239 91
239 92
239 93
239 108
239 139
239 140
239 150
239 151
239 161
239 165
239 190
239 196
239 198
239 206
239 212
239 222
239 231
239 233
239 245
239 249
239 250
239 300
239 304
239 330
239 332
239 334
239 336
239 337
239 345
239 378
239 379
239 414
239 415
240 1
240 2
240 3
240 4
240 5
240 12
240 30
240 31
240 32
240 35
240 36
240 37
240 40
240 41
240 44
240 45
240 46
240 47
240 48
240 50
240 52
240 55
240 56
240 58
240 61
240 62
240 63
240 64
240 69
240 70
240 72
240 73
240 74
240 75
240 77
240 78
240 84
240 85
240 86
240 87
240 89
240 90
240 91
240 92
240 93
240 108
240 139
240 140
240 151
240 161
240 165
240 190
240 196
240 198
240 206
240 212
240 222
240 231
240 233
240 245
240 249
240 250
240 300
240 304
240 330
240 332
240 334
240 336
240 337
240 345
240 378
240 379
240 414
240 415
241 1
241 2
241 133
241 136
241 169
241 174
241 220
241 243
241 255
241 437
241 438
241 439
242 0
242 1
242 90
242 92
242 93
242 141
242 146
242 226
242 276
242 305
242 378
242 393
242 395
243 2
243 84
243 176
243 220
243 241
243 437
243 438
243 439
244 22
244 24
244 25
244 26
244 27
244 60
244 65
244 73
244 83
244 92
244 93
244 148
244 197
244 199
244 204
244 310
244 387
244 388
244 389
245 1
245 2
245 3
245 4
245 5
245 11
245 12
245 14
245 31
245 32
245 37
245 43
245 87
245 89
245 90
245 92
245 93
245 108
245 111
245 116
245 122
245 131
245 132
245 141
245 143
245 146
245 147
245 149
245 150
245 152
245 155
245 158
245 178
245 179
245 200
245 226
245 227
245 228
245 235
245 239
245 240
245 245
245 246
245 247
245 248
245 254
245 259
245 261
245 272
245 274
245 283
245 284
245 286
245 287
245 288
245 373
245 374
245 375
245 378
245 381
245 391
245 402
245 403
245 405
246 1
246 2
246 3
246 4
246 12
246 93
246 131
246 158
246 231
246 233
246 245
246 378
247 1
247 2
247 3
247 4
247 12
247 30
247 31
247 32
247 35
247 36
247 37
247 40
247 41
247 44
247 45
247 46
247 47
247 48
247 50
247 52
247 55
247 56
247 58
247 61
247 62
247 63
247 64
247 69
247 70
247 72
247 73
247 74
247 75
247 77
247 78
247 84
247 85
247 86
247 87
247 89
247 90
247 91
247 92
247 93
247 139
247 140
247 148
247 151
247 158
247 161
247 165
247 190
247 196
247 198
247 206
247 212
247 222
247 231
247 233
247 245
247 249
247 250
247 300
247 304
247 330
247 332
247 334
247 336
247 337
247 345
247 378
247 414
247 415
248 0
248 1
248 2
248 3
248 4
248 12
248 23
248 44
248 89
248 93
248 94
248 120
248 139
248 143
248 245
248 276
248 305
248 309
248 378
248 379
248 451
249 2
249 3
249 4
249 13
249 35
249 36
249 48
249 58
249 63
249 88
249 92
249 93
249 144
249 206
249 239
249 240
249 247
249 281
249 282
249 314
249 373
249 374
249 375
249 379
249 391
250 54
250 84
250 88
250 93
250 127
250 144
250 162
250 185
250 188
250 239
250 240
250 247
250 314
250 362
250 373
250 374
250 375
250 387
250 391
250 411
251 93
251 233
251 387
251 413
252 2
252 3
252 4
252 49
252 51
252 66
252 80
252 88
252 91
252 92
252 93
252 97
252 110
252 377
252 379
253 92
253 93
253 233
253 387
253 390
253 413
253 417
253 425
254 3
254 4
254 5
254 11
254 12
254 29
254 53
254 56
254 58
254 60
254 67
254 77
254 82
254 86
254 89
254 90
254 92
254 93
254 97
254 116
254 125
254 163
254 166
254 208
254 245
254 270
254 276
254 283
254 284
254 286
254 289
254 292
254 294
254 301
254 302
254 305
254 306
254 309
254 378
254 379
254 394
254 395
254 396
254 397
254 401
254 403
255 1
255 2
255 5
255 84
255 130
255 169
255 176
255 187
255 220
255 241
255 437
255 438
255 439
256 2
256 3
256 4
256 13
256 35
256 36
256 48
256 58
256 63
256 92
256 93
256 206
256 256
256 281
256 282
257 3
257 4
257 5
257 7
257 9
257 10
257 34
257 46
257 47
257 50
257 74
257 75
257 77
257 87
257 88
257 89
257 90
257 91
257 92
257 93
257 224
257 258
257 394
258 3
258 4
258 5
258 7
258 9
258 10
258 34
258 46
258 47
258 50
258 74
258 75
258 77
258 87
258 88
258 89
258 90
258 91
258 92
258 93
258 224
258 257
259 0
259 3
259 4
259 11
259 29
259 53
259 56
259 58
259 60
259 67
259 77
259 82
259 86
259 89
259 90
259 92
259 93
259 97
259 125
259 166
259 178
259 208
259 227
259 228
259 245
259 270
259 273
259 276
259 284
259 286
259 289
259 294
259 305
259 378
259 394
259 395
259 396
259 397
259 405
260 3
260 74
260 75
260 77
260 86
260 89
260 90
260 92
260 93
260 276
260 284
260 286
260 289
261 2
261 3
261 4
261 11
261 92
261 93
261 141
261 153
261 178
261 179
261 180
261 182
261 183
261 230
261 245
261 292
261 360
261 377
261 378
262 1
262 2
262 3
262 4
262 11
262 87
262 89
262 92
262 93
262 115
262 128
262 169
262 179
262 276
262 292
262 302
262 305
262 373
262 378
262 379
262 400
262 402
263 2
263 3
263 4
263 5
263 78
263 174
263 185
263 362
264 93
264 233
264 349
264 362
264 387
264 413
264 417
264 421
264 425
264 428
264 442
264 449
265 3
265 83
265 92
265 93
265 330
265 332
265 371
265 379
265 387
266 3
267 225
267 236
267 237
267 392
268 1
268 2
268 3
268 174
268 269
269 1
269 2
269 3
269 25
269 59
269 92
269 93
269 147
269 168
269 200
269 268
269 271
269 335
269 379
269 382
270 0
270 1
270 3
270 11
270 12
270 37
270 50
270 60
270 75
270 93
270 254
270 259
270 288
270 316
270 318
270 402
270 441
271 1
271 2
271 3
271 4
271 5
271 11
271 12
271 50
271 59
271 60
271 65
271 73
271 78
271 149
271 168
271 174
271 181
271 185
271 187
271 210
271 269
271 291
271 318
271 321
271 362
272 0
272 1
272 2
272 3
272 4
272 5
272 11
272 12
272 92
272 93
272 116
272 147
272 219
272 230
272 245
272 277
272 378
272 379
273 1
273 2
273 14
273 27
273 132
273 178
273 179
273 182
273 259
273 273
273 276
273 284
273 286
273 305
274 2
274 3
274 4
274 5
274 12
274 90
274 92
274 93
274 137
274 152
274 155
274 204
274 245
274 276
274 284
274 286
274 299
274 378
274 402
275 2
275 8
275 15
275 164
275 208
275 215
275 275
275 276
275 277
275 278
276 0
276 1
276 2
276 4
276 8
276 14
276 15
276 26
276 27
276 47
276 64
276 67
276 74
276 75
276 77
276 82
276 84
276 86
276 89
276 90
276 91
276 92
276 93
276 105
276 108
276 110
276 111
276 113
276 115
276 116
276 120
276 122
276 128
276 132
276 136
276 137
276 143
276 146
276 150
276 152
276 153
276 154
276 155
276 156
276 158
276 159
276 163
276 164
276 179
276 180
276 197
276 199
276 200
276 204
276 208
276 215
276 226
276 227
276 228
276 235
276 242
276 248
276 254
276 259
276 260
276 262
276 273
276 274
276 275
276 276
276 278
276 282
276 283
276 284
276 286
276 289
276 292
276 296
276 297
276 299
276 301
276 302
276 305
276 306
276 307
276 308
276 309
276 313
276 315
276 316
276 317
276 339
276 346
276 362
276 369
276 378
276 399
276 400
276 401
276 402
276 403
276 404
276 405
276 409
276 410
277 1
277 2
277 8
277 15
277 25
277 64
277 67
277 82
277 84
277 86
277 89
277 90
277 91
277 92
277 93
277 110
277 116
277 147
277 164
277 191
277 208
277 215
277 219
277 272
277 275
277 277
277 278
277 285
277 287
277 288
277 296
277 297
277 310
277 311
278 2
278 8
278 15
278 164
278 208
278 215
278 275
278 276
278 277
278 362
279 15
279 164
279 208
279 215
279 279
279 406
279 407
279 408
280 406
280 407
280 408
281 3
281 4
281 13
281 35
281 36
281 48
281 58
281 63
281 92
281 93
281 94
281 100
281 206
281 249
281 256
281 281
281 282
282 1
282 2
282 3
282 4
282 11
282 13
282 35
282 36
282 48
282 58
282 63
282 92
282 93
282 153
282 169
282 206
282 249
282 256
282 276
282 281
282 292
282 305
282 378
283 3
283 4
283 5
283 12
283 26
283 90
283 92
283 93
283 143
283 245
283 254
283 276
283 284
283 286
283 305
283 309
283 378
284 1
284 2
284 3
284 4
284 5
284 11
284 12
284 26
284 28
284 42
284 66
284 67
284 74
284 75
284 77
284 86
284 89
284 90
284 91
284 92
284 93
284 97
284 116
284 123
284 128
284 137
284 153
284 156
284 178
284 199
284 227
284 228
284 245
284 254
284 259
284 260
284 273
284 274
284 276
284 283
284 284
284 286
284 289
284 292
284 302
284 305
284 307
284 308
284 309
284 315
284 316
284 317
284 378
284 379
284 401
284 402
284 403
284 404
284 405
284 450
285 2
285 3
285 4
285 11
285 86
285 89
285 90
285 92
285 93
285 277
285 285
285 287
285 288
285 378
285 379
286 0
286 3
286 4
286 5
286 11
286 12
286 14
286 27
286 28
286 34
286 42
286 46
286 47
286 50
286 66
286 67
286 74
286 75
286 77
286 82
286 83
286 86
286 87
286 88
286 89
286 90
286 91
286 92
286 93
286 97
286 105
286 123
286 137
286 163
286 178
286 217
286 229
286 245
286 254
286 259
286 260
286 273
286 274
286 276
286 283
286 284
286 286
286 289
286 292
286 301
286 302
286 305
286 307
286 308
286 309
286 315
286 316
286 317
286 378
286 379
286 399
286 402
286 403
286 404
286 405
287 2
287 3
287 4
287 5
287 12
287 42
287 66
287 67
287 82
287 83
287 86
287 89
287 90
287 92
287 93
287 97
287 116
287 217
287 229
287 245
287 277
287 285
287 287
287 288
287 378
288 3
288 4
288 5
288 11
288 12
288 29
288 53
288 56
288 58
288 60
288 67
288 77
288 82
288 86
288 89
288 90
288 92
288 93
288 97
288 116
288 125
288 166
288 208
288 245
288 270
288 277
288 285
288 287
288 289
288 294
288 378
288 379
288 394
288 395
288 396
288 397
289 37
289 74
289 75
289 77
289 86
289 89
289 90
289 92
289 93
289 254
289 259
289 260
289 276
289 284
289 286
289 288
289 296
289 316
289 402
290 1
290 2
290 4
290 5
290 67
290 83
290 84
290 112
290 129
290 130
290 132
290 134
290 187
290 290
291 0
291 3
291 4
291 85
291 149
291 174
291 271
291 327
291 331
291 372
291 379
291 388
291 445
292 1
292 2
292 26
292 128
292 153
292 179
292 180
292 183
292 254
292 261
292 262
292 276
292 282
292 284
292 286
292 292
292 302
292 305
292 365
292 377
292 383
293 2
293 4
293 5
293 53
293 64
293 78
293 92
293 93
293 173
293 185
293 293
293 322
293 380
293 431
293 432
293 433
293 434
293 435
293 436
294 0
294 4
294 5
294 11
294 12
294 37
294 43
294 50
294 72
294 75
294 78
294 89
294 92
294 93
294 185
294 254
294 259
294 288
294 316
294 318
294 350
294 351
294 356
294 402
294 423
294 424
295 0
295 4
295 5
295 93
295 378
295 379
295 388
296 112
296 123
296 276
296 277
296 289
296 414
297 1
297 2
297 91
297 92
297 93
297 120
297 276
297 277
297 414
298 3
298 4
298 64
298 78
298 88
298 91
298 92
298 93
298 130
298 174
298 181
298 372
298 379
298 388
298 445
299 137
299 152
299 155
299 204
299 274
299 276
299 346
300 1
300 2
300 4
300 5
300 83
300 87
300 88
300 90
300 91
300 92
300 93
300 111
300 129
300 132
300 144
300 176
300 239
300 240
300 247
300 314
300 332
300 369
300 373
300 374
300 375
300 391
300 424
301 1
301 2
301 4
301 27
301 105
301 118
301 136
301 159
301 163
301 254
301 276
301 286
301 305
302 1
302 2
302 26
302 128
302 156
302 157
302 179
302 182
302 199
302 254
302 262
302 276
302 284
302 286
302 292
302 302
302 305
302 365
302 383
302 409
302 410
303 4
303 55
303 92
303 93
303 174
303 331
303 372
303 379
303 388
303 445
304 3
304 4
304 5
304 6
304 7
304 30
304 54
304 64
304 84
304 88
304 93
304 144
304 162
304 169
304 171
304 185
304 188
304 213
304 223
304 239
304 240
304 247
304 314
304 364
304 372
304 373
304 374
304 375
304 391
304 411
305 1
305 4
305 14
305 26
305 27
305 92
305 93
305 105
305 120
305 128
305 132
305 136
305 143
305 146
305 153
305 154
305 156
305 159
305 163
305 179
305 180
305 197
305 199
305 226
305 235
305 242
305 248
305 254
305 259
305 262
305 273
305 276
305 282
305 283
305 284
305 286
305 292
305 301
305 302
305 305
305 307
305 308
305 309
305 313
305 315
305 316
305 339
305 405
305 409
305 410
306 1
306 92
306 93
306 116
306 254
306 276
306 378
306 401
306 403
307 1
307 2
307 154
307 172
307 197
307 276
307 284
307 286
307 305
307 308
307 313
307 315
307 316
307 339
307 340
308 1
308 2
308 154
308 172
308 197
308 276
308 284
308 286
308 305
308 307
308 313
308 315
308 316
308 339
308 340
308 341
309 1
309 26
309 93
309 120
309 143
309 248
309 254
309 276
309 283
309 284
309 286
309 305
310 0
310 1
310 2
310 55
310 60
310 65
310 73
310 111
310 144
310 168
310 169
310 191
310 203
310 210
310 244
310 277
310 311
310 331
310 333
310 335
310 371
310 420
310 430
310 443
310 444
310 445
310 450
311 1
311 2
311 3
311 4
311 11
311 191
311 230
311 277
311 310
311 378
311 379
312 86
312 88
312 91
312 92
312 93
312 160
312 312
312 320
312 366
312 369
313 1
313 2
313 3
313 4
313 5
313 87
313 89
313 92
313 93
313 154
313 172
313 276
313 305
313 307
313 308
313 313
313 314
313 315
313 316
313 317
313 318
313 319
313 339
313 341
313 387
313 388
314 1
314 2
314 3
314 4
314 5
314 30
314 31
314 32
314 35
314 36
314 37
314 40
314 41
314 44
314 45
314 46
314 47
314 48
314 50
314 52
314 55
314 56
314 58
314 61
314 62
314 63
314 64
314 69
314 70
314 72
314 73
314 74
314 75
314 77
314 78
314 84
314 85
314 86
314 87
314 89
314 90
314 91
314 92
314 93
314 139
314 140
314 151
314 154
314 161
314 165
314 190
314 196
314 197
314 198
314 206
314 212
314 222
314 249
314 250
314 300
314 304
314 313
314 318
314 319
314 330
314 332
314 334
314 336
314 337
314 341
314 345
314 388
314 414
314 415
315 3
315 4
315 5
315 90
315 92
315 93
315 154
315 197
315 276
315 284
315 286
315 305
315 307
315 308
315 313
315 316
315 317
315 318
315 319
315 341
316 0
316 3
316 4
316 5
316 29
316 53
316 56
316 58
316 60
316 67
316 77
316 82
316 86
316 89
316 90
316 92
316 93
316 97
316 125
316 166
316 208
316 270
316 276
316 284
316 286
316 289
316 294
316 305
316 307
316 308
316 313
316 315
316 317
316 318
316 319
316 341
316 394
316 395
316 396
316 397
317 3
317 4
317 5
317 86
317 89
317 90
317 91
317 92
317 93
317 276
317 284
317 286
317 313
317 315
317 316
317 318
317 319
317 341
318 3
318 4
318 5
318 38
318 43
318 44
318 53
318 59
318 61
318 62
318 64
318 67
318 73
318 85
318 87
318 89
318 90
318 92
318 93
318 154
318 165
318 172
318 208
318 211
318 237
318 238
318 270
318 271
318 294
318 313
318 314
318 315
318 316
318 317
318 318
318 319
318 327
318 328
318 341
319 3
319 4
319 5
319 43
319 87
319 89
319 90
319 92
319 93
319 154
319 172
319 313
319 314
319 315
319 316
319 317
319 318
319 341
320 160
320 312
321 2
321 3
321 4
321 5
321 6
321 7
321 26
321 27
321 30
321 49
321 53
321 64
321 68
321 93
321 148
321 171
321 173
321 197
321 199
321 204
321 223
321 271
321 358
322 5
322 6
322 7
322 30
322 64
322 92
322 93
322 171
322 223
322 293
322 322
322 380
322 432
322 434
322 435
322 436
323 1
323 3
323 4
323 5
323 6
323 7
323 30
323 40
323 41
323 55
323 64
323 83
323 86
323 88
323 89
323 91
323 92
323 93
323 130
323 171
323 223
323 323
324 1
324 2
324 5
324 6
324 7
324 30
324 64
324 68
324 78
324 88
324 91
324 92
324 93
324 130
324 171
324 181
324 223
324 369
325 5
325 6
325 7
325 30
325 64
325 78
325 88
325 91
325 92
325 93
325 130
325 171
325 223
325 379
326 5
326 6
326 7
326 30
326 64
326 171
326 223
327 0
327 4
327 11
327 12
327 50
327 61
327 65
327 89
327 93
327 184
327 291
327 318
328 0
328 11
328 12
328 50
328 195
328 318
328 328
328 366
328 367
328 369
329 16
329 18
329 33
329 86
329 89
329 92
329 221
329 329
330 2
330 45
330 54
330 84
330 86
330 88
330 93
330 127
330 144
330 161
330 162
330 185
330 188
330 239
330 240
330 247
330 265
330 314
330 362
330 373
330 374
330 375
330 391
330 411
331 2
331 3
331 4
331 5
331 7
331 22
331 24
331 25
331 26
331 27
331 60
331 65
331 73
331 78
331 84
331 88
331 91
331 92
331 93
331 148
331 171
331 197
331 199
331 204
331 291
331 303
331 310
331 379
332 2
332 14
332 45
332 52
332 54
332 68
332 83
332 84
332 87
332 88
332 89
332 90
332 91
332 92
332 93
332 106
332 109
332 110
332 126
332 127
332 129
332 144
332 161
332 162
332 181
332 185
332 188
332 239
332 240
332 247
332 265
332 300
332 314
332 332
332 373
332 374
332 375
332 391
332 411
333 2
333 3
333 4
333 22
333 24
333 25
333 26
333 27
333 60
333 65
333 73
333 83
333 92
333 93
333 148
333 169
333 197
333 199
333 204
333 310
333 357
333 362
334 0
334 23
334 88
334 91
334 92
334 93
334 131
334 144
334 149
334 239
334 240
334 247
334 314
334 334
334 373
334 374
334 375
334 391
334 412
334 413
334 425
335 2
335 3
335 22
335 24
335 25
335 26
335 27
335 60
335 65
335 73
335 78
335 83
335 84
335 88
335 91
335 92
335 93
335 148
335 197
335 199
335 200
335 204
335 223
335 269
335 310
335 378
335 379
336 1
336 3
336 44
336 88
336 89
336 91
336 92
336 93
336 126
336 129
336 144
336 149
336 152
336 161
336 239
336 240
336 247
336 314
336 373
336 374
336 375
336 379
336 391
337 1
337 34
337 46
337 47
337 50
337 74
337 75
337 77
337 87
337 88
337 89
337 90
337 91
337 92
337 93
337 142
337 144
337 239
337 240
337 247
337 314
337 373
337 374
337 375
337 391
338 99
339 1
339 2
339 93
339 99
339 141
339 154
339 172
339 276
339 305
339 307
339 308
339 313
339 340
339 341
339 342
340 1
340 2
340 7
340 93
340 99
340 141
340 154
340 172
340 307
340 308
340 339
341 0
341 5
341 87
341 89
341 92
341 93
341 99
341 154
341 172
341 308
341 313
341 314
341 315
341 316
341 317
341 318
341 319
341 339
341 341
342 0
342 93
342 99
342 339
342 395
343 0
343 1
343 2
343 24
343 93
343 120
343 124
343 344
343 388
344 1
344 93
344 124
344 147
344 209
344 343
345 1
345 2
345 78
345 88
345 91
345 92
345 93
345 144
345 151
345 167
345 239
345 240
345 247
345 314
345 373
345 374
345 375
345 391
345 395
345 397
346 1
346 2
346 93
346 112
346 134
346 137
346 152
346 155
346 276
346 299
347 0
347 1
347 56
347 71
347 93
347 95
347 107
347 138
347 151
347 160
347 164
347 347
348 0
348 1
348 2
348 3
348 24
348 93
348 124
348 176
348 205
348 388
349 0
349 1
349 2
349 27
349 84
349 93
349 105
349 156
349 157
349 199
349 264
349 349
349 352
349 355
349 358
349 421
349 422
349 446
350 72
350 93
350 294
350 350
350 351
350 356
350 423
350 424
351 72
351 89
351 93
351 190
351 192
351 198
351 294
351 350
351 356
351 423
351 424
352 1
352 83
352 88
352 89
352 91
352 92
352 93
352 104
352 142
352 145
352 349
352 362
352 390
352 442
352 449
353 2
353 59
353 60
353 93
353 153
353 169
353 176
353 353
353 447
354 0
354 1
354 2
354 3
354 84
354 93
354 120
354 143
354 154
354 201
354 354
354 362
354 389
354 417
354 418
354 419
354 442
355 0
355 1
355 2
355 93
355 156
355 157
355 349
355 422
355 446
356 5
356 72
356 84
356 93
356 130
356 177
356 187
356 294
356 350
356 351
356 423
356 424
357 2
357 3
357 71
357 84
357 93
357 120
357 127
357 155
357 156
357 333
357 362
357 363
357 365
357 409
358 2
358 4
358 60
358 65
358 73
358 149
358 168
358 181
358 182
358 185
358 187
358 210
358 321
358 349
358 362
358 365
358 374
358 383
358 446
359 0
359 1
359 2
359 53
359 54
359 71
359 72
359 89
359 92
359 93
359 139
359 153
359 169
359 173
359 176
359 211
359 213
359 214
359 362
360 2
360 27
360 54
360 93
360 105
360 151
360 261
361 1
361 2
361 54
361 56
361 89
361 92
361 127
361 165
361 189
361 213
362 0
362 1
362 2
362 3
362 4
362 8
362 15
362 53
362 54
362 59
362 60
362 62
362 65
362 68
362 69
362 70
362 71
362 72
362 73
362 78
362 81
362 84
362 88
362 89
362 91
362 92
362 93
362 106
362 108
362 113
362 114
362 120
362 127
362 147
362 149
362 150
362 152
362 155
362 156
362 157
362 162
362 164
362 165
362 168
362 169
362 173
362 174
362 176
362 181
362 189
362 199
362 200
362 201
362 204
362 208
362 213
362 214
362 215
362 250
362 263
362 264
362 271
362 276
362 278
362 330
362 333
362 352
362 354
362 357
362 358
362 359
362 362
362 363
362 364
362 365
362 404
362 411
363 2
363 93
363 155
363 357
363 362
363 365
364 1
364 2
364 40
364 41
364 55
364 68
364 78
364 92
364 93
364 130
364 174
364 304
364 362
365 1
365 2
365 7
365 92
365 93
365 112
365 128
365 141
365 155
365 156
365 157
365 179
365 182
365 199
365 292
365 302
365 357
365 358
365 362
365 363
365 365
365 378
365 383
365 410
366 0
366 1
366 2
366 4
366 55
366 59
366 60
366 65
366 83
366 84
366 89
366 92
366 93
366 106
366 124
366 146
366 153
366 155
366 173
366 174
366 187
366 190
366 195
366 198
366 202
366 203
366 312
366 328
366 366
366 367
366 368
366 369
366 370
366 452
367 89
367 93
367 139
367 328
367 366
367 367
367 369
368 2
368 52
368 93
368 155
368 366
369 0
369 1
369 2
369 3
369 5
369 14
369 27
369 55
369 68
369 71
369 89
369 92
369 93
369 110
369 127
369 146
369 203
369 218
369 235
369 276
369 300
369 312
369 324
369 328
369 366
369 367
369 369
370 1
370 2
370 92
370 93
370 114
370 127
370 162
370 165
370 366
371 45
371 86
371 189
371 191
371 265
371 310
371 371
371 430
371 450
372 1
372 2
372 3
372 25
372 68
372 82
372 84
372 93
372 111
372 144
372 219
372 291
372 298
372 303
372 304
372 372
372 425
372 428
373 1
373 2
373 3
373 4
373 11
373 12
373 14
373 24
373 25
373 26
373 27
373 30
373 31
373 32
373 35
373 36
373 37
373 40
373 41
373 44
373 45
373 46
373 47
373 48
373 50
373 52
373 55
373 56
373 58
373 61
373 62
373 63
373 64
373 69
373 70
373 72
373 73
373 74
373 75
373 77
373 78
373 84
373 85
373 86
373 87
373 89
373 90
373 91
373 92
373 93
373 105
373 115
373 122
373 139
373 140
373 143
373 146
373 151
373 155
373 161
373 165
373 178
373 190
373 196
373 198
373 204
373 206
373 212
373 222
373 227
373 228
373 245
373 249
373 250
373 262
373 300
373 304
373 330
373 332
373 334
373 336
373 337
373 345
373 378
373 379
373 414
373 415
374 1
374 2
374 3
374 4
374 11
374 12
374 25
374 26
374 30
374 31
374 32
374 35
374 36
374 37
374 40
374 41
374 44
374 45
374 46
374 47
374 48
374 50
374 52
374 55
374 56
374 58
374 61
374 62
374 63
374 64
374 69
374 70
374 72
374 73
374 74
374 75
374 77
374 78
374 84
374 85
374 86
374 87
374 89
374 90
374 91
374 92
374 93
374 128
374 139
374 140
374 151
374 153
374 156
374 157
374 161
374 165
374 190
374 196
374 198
374 199
374 200
374 206
374 212
374 222
374 245
374 249
374 250
374 300
374 304
374 330
374 332
374 334
374 336
374 337
374 345
374 358
374 378
374 379
374 414
374 415
375 1
375 2
375 3
375 4
375 5
375 12
375 25
375 30
375 31
375 32
375 35
375 36
375 37
375 40
375 41
375 44
375 45
375 46
375 47
375 48
375 50
375 52
375 55
375 56
375 58
375 61
375 62
375 63
375 64
375 69
375 70
375 72
375 73
375 74
375 75
375 77
375 78
375 84
375 85
375 86
375 87
375 89
375 90
375 91
375 92
375 93
375 139
375 140
375 147
375 151
375 161
375 165
375 174
375 190
375 196
375 198
375 206
375 212
375 222
375 245
375 249
375 250
375 300
375 304
375 330
375 332
375 334
375 336
375 337
375 345
375 378
375 414
375 415
376 66
376 89
376 196
376 376
377 0
377 42
377 49
377 66
377 80
377 92
377 93
377 97
377 110
377 141
377 153
377 180
377 183
377 252
377 261
377 292
378 1
378 2
378 3
378 4
378 5
378 11
378 12
378 13
378 14
378 31
378 32
378 35
378 36
378 37
378 43
378 48
378 56
378 58
378 61
378 62
378 63
378 71
378 73
378 85
378 87
378 88
378 89
378 90
378 91
378 92
378 93
378 98
378 100
378 105
378 108
378 111
378 116
378 122
378 128
378 131
378 132
378 136
378 141
378 143
378 144
378 146
378 147
378 149
378 150
378 152
378 153
378 155
378 156
378 157
378 158
378 159
378 178
378 179
378 180
378 191
378 193
378 200
378 206
378 219
378 223
378 226
378 227
378 228
378 230
378 235
378 239
378 240
378 242
378 245
378 246
378 247
378 248
378 254
378 259
378 261
378 262
378 272
378 274
378 276
378 282
378 283
378 284
378 285
378 286
378 287
378 288
378 295
378 306
378 311
378 335
378 365
378 373
378 374
378 375
378 378
378 379
378 381
378 383
378 391
378 402
378 403
378 405
378 409
378 410
379 0
379 1
379 2
379 3
379 4
379 5
379 6
379 7
379 11
379 13
379 25
379 28
379 35
379 36
379 43
379 44
379 45
379 48
379 49
379 56
379 58
379 61
379 62
379 63
379 66
379 71
379 73
379 80
379 82
379 85
379 86
379 87
379 88
379 89
379 90
379 91
379 92
379 93
379 96
379 97
379 98
379 100
379 105
379 107
379 108
379 110
379 111
379 115
379 121
379 131
379 136
379 139
379 144
379 147
379 149
379 150
379 181
379 189
379 191
379 193
379 200
379 206
379 219
379 222
379 223
379 239
379 240
379 248
379 249
379 252
379 254
379 262
379 265
379 269
379 272
379 284
379 285
379 286
379 288
379 291
379 295
379 298
379 303
379 311
379 325
379 331
379 335
379 336
379 373
379 374
379 378
379 379
379 381
379 382
379 385
379 386
379 391
379 400
379 402
379 451
380 92
380 93
380 293
380 322
380 431
380 432
380 435
380 436
381 1
381 2
381 3
381 4
381 5
381 12
381 23
381 93
381 108
381 120
381 150
381 231
381 233
381 245
381 378
381 379
382 1
382 2
382 3
382 86
382 92
382 93
382 269
382 379
383 1
383 2
383 3
383 4
383 11
383 92
383 93
383 128
383 141
383 156
383 157
383 179
383 182
383 199
383 292
383 302
383 358
383 365
383 378
383 410
384 3
384 4
384 48
385 3
385 4
385 28
385 82
385 88
385 91
385 92
385 93
385 107
385 121
385 222
385 379
385 385
385 386
386 3
386 4
386 28
386 82
386 83
386 88
386 91
386 92
386 93
386 107
386 121
386 222
386 379
386 385
387 0
387 1
387 2
387 3
387 45
387 53
387 60
387 65
387 68
387 71
387 78
387 82
387 83
387 86
387 88
387 91
387 92
387 93
387 103
387 104
387 106
387 114
387 119
387 124
387 127
387 146
387 149
387 154
387 162
387 165
387 166
387 229
387 230
387 238
387 244
387 250
387 251
387 253
387 264
387 265
387 313
387 387
387 388
387 389
387 390
387 452
388 2
388 4
388 24
388 25
388 53
388 56
388 61
388 62
388 71
388 73
388 82
388 85
388 88
388 91
388 92
388 93
388 98
388 115
388 117
388 122
388 138
388 154
388 193
388 197
388 209
388 244
388 291
388 295
388 298
388 303
388 313
388 314
388 343
388 348
388 387
388 388
388 389
388 440
388 441
389 1
389 53
389 78
389 83
389 86
389 88
389 91
389 92
389 93
389 154
389 244
389 354
389 387
389 388
389 389
390 2
390 92
390 93
390 146
390 253
390 352
390 387
390 452
391 1
391 2
391 3
391 4
391 12
391 23
391 26
391 30
391 31
391 32
391 35
391 36
391 37
391 40
391 41
391 44
391 45
391 46
391 47
391 48
391 50
391 52
391 55
391 56
391 58
391 61
391 62
391 63
391 64
391 69
391 70
391 72
391 73
391 74
391 75
391 77
391 78
391 79
391 84
391 85
391 86
391 87
391 89
391 90
391 91
391 92
391 93
391 139
391 140
391 149
391 151
391 161
391 165
391 190
391 196
391 198
391 206
391 212
391 222
391 245
391 249
391 250
391 300
391 304
391 330
391 332
391 334
391 336
391 337
391 345
391 378
391 379
391 412
391 413
391 414
391 415
392 198
392 225
392 232
392 236
392 237
392 267
392 392
393 0
393 1
393 92
393 93
393 226
393 227
393 228
393 234
393 242
394 1
394 34
394 37
394 46
394 47
394 50
394 74
394 75
394 77
394 87
394 88
394 89
394 90
394 91
394 92
394 93
394 208
394 254
394 257
394 259
394 288
394 316
394 402
395 1
395 2
395 4
395 37
395 68
395 75
395 78
395 90
395 91
395 92
395 93
395 145
395 149
395 195
395 242
395 254
395 259
395 288
395 316
395 342
395 345
395 395
395 402
396 37
396 75
396 93
396 254
396 259
396 288
396 316
396 396
396 402
397 2
397 37
397 68
397 75
397 91
397 92
397 93
397 149
397 254
397 259
397 288
397 316
397 345
397 397
397 402
398 4
398 13
398 35
398 36
398 48
398 58
398 63
398 92
398 93
398 206
399 28
399 42
399 47
399 66
399 67
399 86
399 89
399 90
399 92
399 93
399 97
399 123
399 276
399 286
399 400
399 401
399 402
399 403
400 3
400 4
400 11
400 86
400 89
400 90
400 92
400 93
400 262
400 276
400 379
400 399
400 400
400 401
400 402
401 42
401 66
401 67
401 82
401 83
401 86
401 89
401 90
401 92
401 93
401 97
401 217
401 229
401 254
401 276
401 284
401 306
401 399
401 400
401 402
401 403
402 3
402 4
402 5
402 11
402 12
402 29
402 53
402 56
402 58
402 60
402 67
402 77
402 82
402 86
402 89
402 90
402 92
402 93
402 97
402 125
402 137
402 166
402 208
402 245
402 262
402 270
402 274
402 276
402 284
402 286
402 289
402 294
402 378
402 379
402 394
402 395
402 396
402 397
402 399
402 400
402 401
402 403
402 404
403 1
403 3
403 4
403 5
403 12
403 86
403 89
403 90
403 91
403 92
403 93
403 116
403 245
403 254
403 276
403 284
403 286
403 306
403 378
403 399
403 401
403 402
403 403
403 404
404 4
404 90
404 93
404 108
404 150
404 176
404 276
404 284
404 286
404 362
404 402
404 403
405 3
405 4
405 11
405 26
405 90
405 92
405 93
405 146
405 227
405 228
405 245
405 259
405 276
405 284
405 286
405 305
405 378
406 15
406 164
406 208
406 215
406 279
406 280
406 406
406 408
407 15
407 93
407 164
407 208
407 215
407 279
407 280
407 407
408 2
408 15
408 164
408 189
408 208
408 279
408 280
408 406
408 408
409 1
409 2
409 3
409 4
409 11
409 93
409 156
409 157
409 276
409 302
409 305
409 357
409 378
410 1
410 2
410 93
410 141
410 156
410 157
410 199
410 276
410 302
410 305
410 365
410 378
410 383
411 1
411 2
411 54
411 89
411 114
411 127
411 151
411 213
411 214
411 250
411 304
411 330
411 332
411 362
411 432
411 436
411 440
412 0
412 1
412 21
412 93
412 131
412 149
412 334
412 391
412 413
413 0
413 1
413 93
413 131
413 149
413 166
413 238
413 251
413 253
413 264
413 334
413 391
413 412
413 413
414 4
414 31
414 32
414 37
414 64
414 82
414 84
414 86
414 88
414 89
414 90
414 91
414 92
414 93
414 110
414 144
414 149
414 164
414 239
414 240
414 247
414 296
414 297
414 314
414 373
414 374
414 375
414 391
414 414
414 415
414 416
415 28
415 31
415 32
415 37
415 42
415 66
415 67
415 86
415 88
415 89
415 90
415 92
415 93
415 97
415 123
415 144
415 239
415 240
415 247
415 314
415 373
415 374
415 375
415 391
415 414
415 416
416 31
416 32
416 37
416 86
416 89
416 90
416 92
416 93
416 414
416 415
417 0
417 1
417 93
417 154
417 253
417 264
417 354
417 417
417 418
417 442
418 0
418 93
418 143
418 154
418 201
418 354
418 417
418 418
418 419
418 442
419 1
419 2
419 93
419 112
419 201
419 354
419 418
419 442
420 2
420 3
420 4
420 22
420 24
420 25
420 26
420 27
420 60
420 65
420 73
420 83
420 92
420 93
420 148
420 169
420 197
420 199
420 204
420 310
421 0
421 1
421 93
421 105
421 166
421 264
421 349
421 421
421 422
422 0
422 93
422 105
422 156
422 157
422 349
422 355
422 421
422 422
423 43
423 56
423 72
423 74
423 93
423 294
423 350
423 351
423 356
423 423
423 424
424 4
424 72
424 93
424 294
424 300
424 350
424 351
424 356
424 423
424 424
425 0
425 1
425 2
425 14
425 25
425 27
425 56
425 60
425 65
425 78
425 83
425 84
425 87
425 88
425 90
425 91
425 92
425 93
425 114
425 124
425 127
425 128
425 136
425 159
425 162
425 163
425 165
425 175
425 200
425 207
425 218
425 219
425 233
425 253
425 264
425 334
425 372
425 425
425 426
425 428
425 429
425 440
426 0
426 2
426 3
426 14
426 27
426 84
426 93
426 175
426 425
426 426
426 428
427 0
427 93
427 153
427 427
427 447
427 449
428 0
428 1
428 2
428 3
428 14
428 56
428 71
428 88
428 91
428 92
428 93
428 128
428 136
428 159
428 163
428 174
428 175
428 186
428 207
428 218
428 219
428 264
428 372
428 425
428 426
429 92
429 93
429 425
429 429
430 1
430 86
430 191
430 310
430 371
430 430
430 450
431 89
431 92
431 93
431 293
431 380
431 432
431 434
431 435
431 436
432 2
432 53
432 64
432 68
432 92
432 93
432 173
432 293
432 322
432 380
432 411
432 431
432 432
432 433
432 434
432 435
432 436
433 293
433 432
433 436
434 92
434 93
434 293
434 322
434 431
434 432
434 435
434 436
435 2
435 64
435 89
435 92
435 93
435 190
435 198
435 293
435 322
435 380
435 431
435 432
435 434
435 435
435 436
436 2
436 5
436 84
436 92
436 93
436 130
436 187
436 293
436 322
436 380
436 411
436 431
436 432
436 433
436 434
436 435
436 436
437 0
437 1
437 2
437 86
437 89
437 92
437 93
437 136
437 169
437 173
437 176
437 194
437 198
437 220
437 225
437 232
437 236
437 237
437 241
437 243
437 255
437 437
437 438
437 439
438 87
438 89
438 92
438 194
438 220
438 225
438 237
438 241
438 243
438 255
438 437
438 438
438 439
439 92
439 194
439 198
439 220
439 225
439 237
439 241
439 243
439 255
439 437
439 438
439 439
440 2
440 3
440 45
440 54
440 84
440 93
440 127
440 162
440 174
440 185
440 188
440 388
440 411
440 425
440 441
441 0
441 3
441 5
441 55
441 84
441 86
441 89
441 93
441 130
441 174
441 187
441 270
441 388
441 440
442 0
442 1
442 2
442 93
442 143
442 154
442 172
442 201
442 264
442 352
442 354
442 417
442 418
442 419
442 442
443 1
443 2
443 59
443 60
443 65
443 78
443 83
443 88
443 91
443 92
443 93
443 128
443 169
443 191
443 207
443 218
443 310
443 443
443 444
443 445
444 60
444 78
444 84
444 169
444 191
444 310
444 443
444 445
445 1
445 2
445 82
445 93
445 111
445 144
445 169
445 191
445 291
445 298
445 303
445 310
445 443
445 444
446 93
446 156
446 157
446 199
446 349
446 355
446 358
446 446
447 1
447 2
447 93
447 153
447 353
447 427
447 449
448 0
448 1
448 2
448 3
448 14
448 57
448 68
448 93
448 176
449 0
449 1
449 92
449 93
449 153
449 264
449 352
449 427
449 447
449 449
450 45
450 64
450 82
450 92
450 93
450 124
450 169
450 189
450 191
450 284
450 310
450 371
450 430
451 1
451 3
451 44
451 89
451 139
451 248
451 379
452 1
452 2
452 92
452 93
452 146
452 366
452 387
452 390
452 452
