0 2761
1 489
1 1319
2 1434
2 1445
2 1677
3 1513
3 1522
4 420
4 427
4 763
4 1489
4 1867
5 555
5 838
5 839
5 2308
6 516
6 517
6 518
6 519
6 950
6 956
6 1736
7 201
7 307
7 395
7 588
7 615
7 618
7 655
7 699
8 244
8 358
8 362
8 399
8 460
8 633
8 634
8 636
8 639
9 201
9 259
9 261
9 380
9 575
9 581
9 600
9 748
9 756
10 201
10 445
10 497
10 638
10 646
10 787
10 810
10 812
10 813
11 359
11 418
11 452
11 539
11 618
11 855
11 862
11 868
11 869
11 870
11 871
11 872
12 201
12 325
12 885
12 886
12 891
12 892
12 1615
12 2310
12 2313
12 2733
12 2828
12 2838
12 2855
13 200
13 201
13 909
13 917
13 918
13 920
13 921
13 922
13 923
13 924
13 970
13 1775
13 1791
14 341
14 361
14 412
14 413
14 421
14 934
14 972
14 973
14 1724
14 2421
14 2422
14 2423
14 2424
14 2425
14 2426
15 200
15 201
15 516
15 517
15 518
15 946
15 947
15 950
15 952
15 993
15 994
15 995
15 1736
16 194
16 197
16 198
16 200
16 201
16 422
16 708
16 709
16 719
16 965
16 1026
16 1031
16 1036
16 1040
16 1047
16 1783
17 130
17 142
17 143
17 150
17 160
17 165
17 167
17 168
17 170
17 180
17 187
17 189
17 192
17 200
17 201
17 517
17 1061
17 1063
18 130
18 142
18 143
18 150
18 160
18 165
18 167
18 168
18 170
18 180
18 187
18 189
18 192
18 200
18 201
18 517
18 1061
18 2310
18 2783
19 19
19 32
19 42
19 55
19 153
19 208
19 463
19 512
19 1021
19 2614
20 20
20 22
20 136
20 194
20 196
20 199
20 200
20 201
20 1066
21 30
21 36
21 41
21 43
21 45
21 119
21 121
21 145
21 147
21 154
21 181
21 182
21 184
21 195
21 196
21 197
21 198
21 199
21 200
21 201
21 546
21 1020
22 20
22 136
22 194
22 196
22 199
22 200
22 201
22 524
22 792
22 1066
23 201
23 1067
23 1068
23 1069
23 1070
23 1071
23 1140
23 1187
23 1335
23 2026
23 2048
23 2094
23 2113
23 2213
23 2232
23 2258
23 2407
23 2451
23 2623
24 201
24 1067
24 1068
24 1069
24 1070
24 1071
24 1072
24 1140
24 1187
24 1335
24 2026
24 2048
24 2094
24 2113
24 2213
24 2232
24 2258
24 2407
24 2451
24 2623
25 174
25 201
25 247
25 1067
25 1068
25 1069
25 1070
25 1071
25 1140
25 1187
25 1335
25 2026
25 2048
25 2094
25 2113
25 2213
25 2232
25 2258
25 2407
25 2451
25 2623
26 194
26 197
26 198
26 199
26 200
26 201
26 1037
26 1051
26 1073
26 1074
26 1075
26 1076
26 1077
26 1078
26 1079
26 1080
26 1081
26 1082
26 1083
26 1084
26 1085
26 1086
26 1087
26 1532
26 1781
26 1799
27 27
27 70
27 348
27 481
27 666
27 671
27 674
27 981
27 982
27 1088
27 1089
27 1090
27 1091
27 1092
27 1093
27 1094
27 1095
27 1096
27 1097
27 1098
27 1524
27 1778
28 30
28 36
28 41
28 43
28 45
28 114
28 119
28 121
28 145
28 147
28 154
28 181
28 182
28 184
28 195
28 196
28 197
28 198
28 199
28 200
28 201
28 382
28 605
28 667
28 672
28 674
28 1020
28 1099
28 1329
29 200
29 201
29 233
29 234
29 351
29 352
29 487
29 597
29 884
29 1100
29 1101
29 1102
29 1103
29 1104
29 1105
29 1106
29 1107
29 1108
29 1325
30 21
30 28
30 36
30 41
30 43
30 45
30 100
30 119
30 121
30 145
30 147
30 154
30 181
30 182
30 184
30 195
30 196
30 197
30 198
30 199
30 200
30 201
30 1020
30 1109
31 31
31 42
31 55
31 153
31 208
31 463
31 512
31 913
31 932
31 942
31 990
31 1024
31 1029
32 19
32 42
32 55
32 153
32 208
32 463
32 512
32 851
32 854
32 1021
32 1025
32 1110
32 2614
33 39
33 67
33 117
33 189
33 191
33 196
33 199
33 200
33 201
33 726
33 882
33 910
33 938
33 1111
33 1112
33 1113
33 1114
33 1574
34 46
34 201
34 231
34 297
34 318
34 337
34 346
34 347
34 434
34 480
34 602
34 604
34 605
34 670
34 1000
34 1115
34 1116
34 1117
34 1118
34 1119
34 1120
34 1121
34 1122
34 1554
35 38
35 108
35 123
35 124
35 125
35 126
35 148
35 164
35 169
35 200
35 201
35 203
35 217
35 858
35 915
35 916
35 957
35 1123
35 1124
35 1125
35 1126
35 1127
35 1128
35 1129
35 2851
36 21
36 28
36 30
36 41
36 43
36 45
36 119
36 121
36 145
36 147
36 154
36 181
36 182
36 184
36 195
36 196
36 197
36 198
36 199
36 200
36 201
36 1020
36 1130
36 1131
36 1132
36 1133
36 1134
36 1785
37 122
37 201
37 239
37 340
37 408
37 547
37 920
37 1135
37 1136
37 1137
37 1138
37 1139
37 1140
37 1141
37 1142
37 1143
37 1144
37 1145
37 1146
37 1147
37 1148
37 1149
37 1150
37 1151
37 1152
37 1153
37 1154
37 1155
37 1682
37 1695
37 1723
37 1853
37 2493
37 2568
37 2923
38 35
38 49
38 123
38 124
38 125
38 126
38 148
38 164
38 169
38 200
38 201
38 858
38 915
38 916
38 935
38 957
38 1059
38 1123
38 1124
38 1125
38 1126
38 1127
38 1128
38 1129
38 1156
38 1157
38 2851
38 2862
39 33
39 67
39 114
39 117
39 189
39 196
39 199
39 200
39 201
39 882
39 910
39 938
39 1111
39 1112
39 1113
39 1114
39 1158
39 1159
39 1160
39 1574
39 2132
39 2295
39 2297
39 2495
40 99
40 191
40 200
40 201
40 599
40 779
40 805
40 806
40 824
40 831
40 867
40 1161
40 1162
40 2807
40 2809
40 2813
40 2815
40 2820
40 2822
40 2929
40 2931
40 3074
40 3076
40 3081
40 3083
40 3088
40 3090
40 3095
40 3097
40 3127
40 3129
41 21
41 28
41 30
41 36
41 43
41 45
41 104
41 119
41 121
41 145
41 147
41 154
41 181
41 182
41 184
41 195
41 196
41 197
41 198
41 199
41 200
41 201
41 225
41 1020
41 1163
41 1164
41 1165
41 1767
41 2726
42 19
42 31
42 32
42 42
42 55
42 153
42 208
42 463
42 512
42 851
42 854
42 857
42 913
42 1021
42 1025
42 1029
42 1110
42 2614
43 21
43 28
43 30
43 36
43 41
43 45
43 119
43 121
43 145
43 147
43 154
43 181
43 182
43 184
43 195
43 196
43 197
43 198
43 199
43 200
43 201
43 1020
43 1166
43 1167
43 1168
43 1169
43 1170
44 44
44 91
44 130
44 133
44 140
44 141
44 142
44 143
44 146
44 153
44 158
44 160
44 165
44 167
44 168
44 170
44 173
44 180
44 193
44 195
44 197
44 198
44 200
44 201
44 241
44 251
44 304
44 343
44 385
44 552
44 690
44 948
44 985
44 999
44 1009
44 1053
44 1171
44 1172
44 1173
44 1176
44 1177
44 2520
44 2521
44 2522
44 2523
45 21
45 28
45 30
45 36
45 41
45 43
45 119
45 121
45 145
45 147
45 154
45 181
45 182
45 184
45 195
45 196
45 197
45 198
45 199
45 200
45 201
45 406
45 1020
45 1179
45 1180
45 1766
46 34
46 46
46 91
46 92
46 130
46 133
46 140
46 141
46 142
46 143
46 146
46 153
46 158
46 160
46 165
46 167
46 168
46 170
46 173
46 180
46 193
46 195
46 197
46 198
46 200
46 201
46 231
46 241
46 251
46 297
46 318
46 343
46 346
46 434
46 552
46 668
46 1000
46 1053
46 1116
46 1117
46 1120
46 1121
46 1122
46 1171
46 1181
46 1182
46 1183
46 1554
47 122
47 159
47 173
47 192
47 201
47 407
47 436
47 444
47 531
47 549
47 703
47 704
47 705
47 830
47 832
47 835
47 870
47 1051
47 1073
47 1081
47 1082
47 1083
47 1085
47 1086
47 1087
47 1184
47 1185
47 1186
47 1187
47 1188
47 1189
47 1190
47 1191
47 1192
47 1193
47 1194
47 1195
47 1196
47 1197
47 1798
47 1817
47 1855
47 2591
47 2677
47 2749
48 48
48 91
48 113
48 115
48 128
48 130
48 133
48 140
48 141
48 142
48 143
48 146
48 153
48 158
48 160
48 165
48 167
48 168
48 170
48 173
48 180
48 193
48 195
48 197
48 198
48 200
48 201
48 241
48 251
48 323
48 343
48 364
48 430
48 431
48 480
48 552
48 997
48 998
48 1035
48 1053
48 1171
48 1198
48 1199
48 1200
48 1201
48 1202
48 1573
48 1597
48 1598
48 1602
49 38
49 108
49 123
49 124
49 125
49 126
49 148
49 164
49 169
49 200
49 201
49 214
49 521
49 636
49 852
49 858
49 915
49 916
49 935
49 949
49 957
49 958
49 1059
49 1123
49 1124
49 1125
49 1126
49 1127
49 1128
49 1129
49 1156
49 1157
49 1203
49 1204
49 1205
49 1206
49 1207
49 1564
49 2616
49 2851
49 2862
50 84
50 159
50 192
50 201
50 396
50 1208
50 1209
50 1210
50 1211
50 1212
50 1213
50 1214
50 1215
50 1216
50 1217
50 1218
50 1219
50 1220
50 1221
50 1222
50 1223
50 1224
50 1225
50 1226
50 1227
50 1228
50 1229
50 1230
50 1231
50 1232
50 1233
50 1234
50 1235
50 1236
50 1237
50 1238
50 1239
50 1240
50 1241
50 1242
50 1243
50 1244
50 1245
50 1618
50 1794
50 1841
50 1864
50 1865
50 1910
50 2833
50 2859
51 173
51 353
51 766
51 836
51 1246
51 1247
51 1248
51 1249
51 1250
51 1251
51 1252
51 1253
51 1254
51 1255
51 1256
51 1257
51 1258
51 1259
51 1260
51 1261
51 1262
51 1263
51 1264
51 1265
51 1266
51 1267
51 1268
51 1269
51 1270
51 1271
51 1272
51 1273
51 1274
51 1275
51 1276
51 1277
51 1278
51 1279
51 1280
51 1281
51 1282
51 1283
51 1284
51 1619
51 1800
51 1843
51 1869
51 1870
51 1914
51 2383
51 2834
51 2860
52 64
52 122
52 192
52 201
52 389
52 424
52 429
52 525
52 526
52 559
52 626
52 627
52 628
52 872
52 964
52 971
52 984
52 1285
52 1286
52 1287
52 1288
52 1289
52 1290
52 1291
52 1292
52 1293
52 1294
52 1295
52 1296
52 1297
52 1298
52 1299
52 1300
52 1301
52 1302
52 1303
52 1304
52 1305
52 1306
52 1307
52 1308
52 1309
52 1310
52 1657
52 1871
52 2525
52 2685
52 2826
53 122
53 163
53 192
53 201
53 233
53 234
53 257
53 262
53 284
53 303
53 351
53 352
53 477
53 485
53 487
53 488
53 489
53 658
53 661
53 669
53 683
53 685
53 686
53 687
53 725
53 868
53 963
53 1101
53 1102
53 1103
53 1104
53 1105
53 1107
53 1311
53 1312
53 1313
53 1314
53 1315
53 1316
53 1317
53 1318
53 1319
53 1320
53 1321
53 1322
53 1323
53 1324
53 1325
53 1891
53 2629
54 109
54 201
54 462
54 533
54 580
54 584
54 654
54 659
54 739
54 790
54 795
54 798
54 802
54 804
54 805
54 806
54 1326
54 1327
54 1328
54 1329
54 1330
54 1331
54 1332
54 1333
54 1334
54 1335
54 1336
54 1337
54 1338
54 1339
54 1340
54 1341
54 1342
54 1343
54 1344
54 1345
54 1346
54 1347
54 1348
54 1349
54 1350
54 1351
54 1352
54 1353
54 1354
54 1355
54 1356
54 1567
54 1568
54 1569
54 1646
54 1711
54 1721
54 1851
54 2382
54 3036
55 19
55 31
55 32
55 42
55 55
55 153
55 208
55 463
55 512
55 851
55 854
55 857
55 913
55 932
55 942
55 990
55 1021
55 1024
55 1025
55 1029
55 1110
55 2614
56 64
56 95
56 97
56 99
56 110
56 130
56 133
56 138
56 142
56 143
56 149
56 150
56 158
56 160
56 165
56 167
56 168
56 170
56 174
56 180
56 186
56 187
56 189
56 192
56 200
56 201
56 323
56 334
56 379
56 517
56 558
56 560
56 574
56 634
56 689
56 762
56 842
56 1061
56 1161
56 1311
56 1357
56 1358
56 1359
56 1360
56 1361
56 1362
56 1363
56 1364
56 1443
56 1591
56 1616
56 1746
56 1930
56 2196
56 2666
56 2678
56 2729
56 2787
56 2836
56 3054
57 122
57 159
57 192
57 201
57 348
57 542
57 601
57 666
57 671
57 673
57 674
57 761
57 903
57 981
57 982
57 1096
57 1097
57 1098
57 1365
57 1366
57 1367
57 1368
57 1369
57 1370
57 1371
57 1372
57 1373
57 1374
57 1375
57 1376
57 1377
57 1378
57 1379
57 1380
57 1381
57 1382
57 1383
57 1384
57 1385
57 1386
57 1387
57 1388
57 1389
57 1390
57 1391
57 1392
57 1688
57 2682
57 2744
57 2779
57 3038
57 3039
58 90
58 94
58 102
58 103
58 104
58 105
58 140
58 153
58 155
58 158
58 160
58 162
58 164
58 166
58 173
58 178
58 184
58 189
58 194
58 197
58 198
58 200
58 201
58 238
58 370
58 449
58 498
58 499
58 528
58 1167
58 1393
58 1394
58 1395
58 1397
58 1398
58 1399
58 1400
58 1401
58 1402
58 1403
58 1404
58 1405
58 1406
58 1407
58 1408
58 1531
58 1549
58 1555
58 1774
58 1789
58 2735
59 90
59 94
59 102
59 103
59 104
59 105
59 140
59 153
59 155
59 158
59 160
59 162
59 164
59 166
59 173
59 178
59 184
59 189
59 194
59 197
59 198
59 200
59 201
59 238
59 370
59 449
59 498
59 499
59 528
59 1046
59 1052
59 1167
59 1393
59 1409
59 1410
59 1411
59 1412
59 1413
59 1414
59 1418
59 1549
59 1555
59 1638
59 1782
59 1801
59 2092
59 2104
59 2105
59 2106
59 2107
59 2108
59 2109
60 61
60 62
60 68
60 116
60 118
60 194
60 197
60 200
60 209
60 242
60 1424
60 1586
61 60
61 62
61 68
61 116
61 118
61 194
61 197
61 200
61 209
61 242
61 1422
61 1424
61 1586
62 60
62 61
62 62
62 68
62 116
62 118
62 194
62 197
62 200
62 209
62 242
62 1424
62 1425
62 1586
63 63
63 96
63 127
63 137
63 157
63 173
63 190
63 197
63 362
63 375
63 376
63 459
63 468
63 469
63 501
63 502
63 513
63 514
63 515
63 632
63 880
63 1426
63 1427
63 1428
63 1429
63 1430
63 1431
63 1432
63 1577
63 1600
63 1601
63 1719
63 1720
63 1734
63 2609
63 2610
63 2611
63 2612
63 2613
63 2617
63 2618
63 2636
63 2637
63 2638
63 2650
63 2727
64 52
64 56
64 97
64 99
64 110
64 159
64 192
64 201
64 228
64 273
64 317
64 319
64 320
64 482
64 492
64 522
64 523
64 525
64 551
64 558
64 565
64 582
64 613
64 631
64 689
64 732
64 745
64 747
64 751
64 769
64 797
64 1161
64 1260
64 1311
64 1318
64 1359
64 1433
64 1434
64 1435
64 1436
64 1437
64 1438
64 1439
64 1440
64 1441
64 1442
64 1443
64 1444
64 1445
64 1446
64 1677
64 1879
64 1933
64 2291
64 2634
64 2655
64 2678
64 2803
64 2810
64 2816
64 2817
64 2925
64 3054
64 3070
64 3077
64 3084
65 112
65 122
65 188
65 190
65 192
65 201
65 312
65 401
65 422
65 435
65 494
65 534
65 570
65 587
65 623
65 635
65 675
65 708
65 709
65 719
65 741
65 768
65 769
65 770
65 809
65 837
65 862
65 1447
65 1448
65 1449
65 1450
65 1451
65 1452
65 1453
65 1454
65 1455
65 1456
65 1457
65 1458
65 1459
65 1460
65 1461
65 1462
65 1463
65 1464
65 1465
65 1466
65 1467
65 1468
65 1469
65 1470
65 1471
65 1472
65 1473
65 1474
65 1570
65 1656
65 1693
65 1819
65 2300
66 68
66 116
66 118
66 201
66 242
66 933
66 937
66 1422
66 1423
67 33
67 39
67 117
67 197
67 205
67 275
67 277
67 279
67 281
67 309
67 310
67 368
67 369
67 455
67 456
67 511
67 882
67 910
67 938
67 1111
67 1112
67 1113
67 1114
67 1158
67 1159
67 1160
67 1475
67 1574
67 2128
67 2129
67 2131
67 2132
67 2137
67 2139
67 2295
67 2296
67 2297
67 2298
67 2299
67 2495
67 2496
67 2497
67 2498
67 2608
68 60
68 61
68 62
68 66
68 68
68 116
68 118
68 194
68 197
68 200
68 209
68 242
68 933
68 937
68 1424
68 1586
69 122
69 159
69 183
69 192
69 201
69 204
69 290
69 292
69 400
69 427
69 440
69 441
69 442
69 482
69 483
69 484
69 544
69 545
69 546
69 616
69 617
69 680
69 825
69 826
69 827
69 855
69 953
69 967
69 1008
69 1013
69 1441
69 1476
69 1477
69 1478
69 1479
69 1480
69 1481
69 1482
69 1483
69 1484
69 1485
69 1486
69 1487
69 1488
69 1489
69 1490
69 1491
69 1492
69 1493
69 1494
69 1538
69 1668
69 1729
69 1816
69 1867
69 1889
69 1890
69 1912
69 2271
69 2589
69 2674
69 2683
70 27
70 122
70 159
70 192
70 201
70 299
70 348
70 452
70 481
70 573
70 601
70 607
70 608
70 671
70 672
70 674
70 723
70 732
70 736
70 742
70 760
70 815
70 818
70 819
70 981
70 982
70 1010
70 1088
70 1089
70 1096
70 1097
70 1098
70 1178
70 1495
70 1496
70 1497
70 1498
70 1499
70 1500
70 1501
70 1502
70 1503
70 1504
70 1505
70 1506
70 1507
70 1508
70 1509
70 1510
70 1511
70 1512
70 1513
70 1514
70 1515
70 1516
70 1517
70 1518
70 1519
70 1520
70 1521
70 1522
70 1523
70 1524
70 1687
70 1815
70 2628
70 2709
70 3061
70 3062
71 859
71 1229
71 1268
71 1525
71 2174
71 2320
71 2348
71 2535
71 3209
71 3279
72 201
72 885
72 928
72 1236
72 1275
72 1837
72 2181
72 2355
72 2471
72 2540
72 3203
72 3285
73 170
73 218
73 383
73 393
73 403
73 426
73 1213
73 1252
73 2157
73 2331
73 2756
73 3233
73 3263
74 200
74 201
74 243
74 892
74 1072
74 1235
74 1274
74 1526
74 2180
74 2354
74 2470
74 2539
74 3201
74 3283
75 200
75 201
75 247
75 285
75 319
75 321
75 891
75 1234
75 1273
75 2179
75 2353
75 2469
75 2538
75 3200
75 3282
76 199
76 200
76 201
76 500
76 1527
76 2492
76 2585
76 2631
76 2635
76 2983
76 3016
76 3022
76 3180
76 3249
76 3362
76 3438
77 105
77 114
77 382
77 583
77 920
77 1212
77 1251
77 1528
77 1529
77 1530
77 1531
77 1532
77 2156
77 2330
77 2888
77 3262
77 3301
78 201
78 731
78 766
78 817
78 900
78 902
78 1533
78 2506
78 2551
78 2757
78 2764
78 2791
78 2942
78 3140
78 3234
78 3310
79 197
79 731
79 766
79 817
79 900
79 902
79 1534
79 2506
79 2551
79 2757
79 2764
79 2791
79 2942
79 3140
79 3234
79 3310
80 170
80 185
80 196
80 199
80 200
80 201
80 218
80 317
80 383
80 393
80 403
80 426
80 474
80 1213
80 1252
80 2157
80 2331
80 2756
80 3233
80 3263
81 81
81 170
81 194
81 197
81 201
81 218
81 379
81 383
81 393
81 403
81 426
81 471
81 1213
81 1252
81 1535
81 1536
81 2157
81 2331
81 2756
81 3233
81 3263
82 201
82 256
82 257
82 756
82 812
82 827
82 885
82 928
82 1236
82 1275
82 1298
82 1381
82 1459
82 1510
82 1537
82 1837
82 2181
82 2250
82 2355
82 2471
82 2540
82 3203
82 3285
83 134
83 135
83 161
83 170
83 191
83 196
83 199
83 200
83 201
83 218
83 224
83 317
83 383
83 393
83 403
83 426
83 726
83 1213
83 1252
83 2157
83 2331
83 2756
83 3233
83 3263
84 50
84 120
84 150
84 161
84 165
84 166
84 171
84 180
84 700
84 733
84 753
84 759
84 816
84 820
84 835
84 893
84 899
84 2508
84 2759
84 2767
84 2792
84 2953
84 3151
84 3236
84 3312
85 170
85 174
85 185
85 196
85 199
85 200
85 201
85 204
85 218
85 317
85 383
85 393
85 403
85 414
85 415
85 426
85 688
85 1213
85 1252
85 1319
85 1538
85 2157
85 2331
85 2756
85 3233
85 3263
86 170
86 174
86 184
86 196
86 199
86 200
86 201
86 222
86 317
86 449
86 571
86 1541
86 1542
86 2516
86 2557
86 2670
86 2716
86 2916
86 2967
86 3004
86 3164
86 3341
86 3345
86 3354
86 3358
86 3405
86 3414
87 170
87 185
87 196
87 199
87 200
87 201
87 317
87 645
87 688
87 716
87 720
87 726
87 793
87 798
87 845
87 901
87 1194
87 1233
87 1272
87 1378
87 1507
87 1544
87 1552
87 2178
87 2315
87 2352
87 2393
87 2434
88 120
88 150
88 161
88 165
88 166
88 171
88 180
88 189
88 307
88 588
88 618
88 700
88 733
88 753
88 759
88 816
88 820
88 835
88 845
88 893
88 899
88 2508
88 2759
88 2767
88 2792
88 2953
88 3151
88 3236
88 3312
89 148
89 158
89 185
89 194
89 197
89 201
89 219
89 251
89 316
89 449
89 650
89 1546
89 1547
89 1548
89 1809
89 1857
89 2518
89 2559
89 2672
89 2718
89 2918
89 2969
89 3006
89 3166
89 3343
89 3347
89 3356
89 3360
89 3407
89 3416
90 58
90 59
90 128
90 182
90 201
90 341
90 350
90 923
90 965
90 966
90 980
90 983
90 1011
90 1043
90 1044
90 1079
90 1095
90 1182
90 1549
90 2485
90 2520
90 2574
90 2701
90 2878
90 2949
90 2994
90 3031
90 3047
90 3147
90 3226
90 3410
91 44
91 46
91 48
91 154
91 167
91 171
91 245
91 967
91 977
91 1003
91 1004
91 1082
91 1103
91 1148
91 1241
91 1280
91 1303
91 1349
91 1385
91 1404
91 1416
91 1466
91 1516
91 2011
91 2036
91 2105
91 2189
91 2264
91 2363
91 2543
91 3214
91 3294
92 46
92 93
92 96
92 97
92 98
92 99
92 101
92 106
92 107
92 108
92 110
92 111
92 113
92 115
92 117
92 123
92 124
92 125
92 126
92 127
92 128
92 134
92 135
92 137
92 138
92 144
92 145
92 146
92 147
92 148
92 154
92 157
92 161
92 162
92 164
92 167
92 168
92 169
92 170
92 175
92 176
92 179
92 180
92 181
92 182
92 184
92 185
92 192
92 193
92 194
92 195
92 197
92 198
92 199
92 200
92 201
92 218
92 224
92 231
92 241
92 258
92 271
92 297
92 318
92 346
92 391
92 434
92 437
92 459
92 500
92 513
92 547
92 553
92 558
92 691
92 692
92 772
92 843
92 907
92 927
92 1000
92 1049
92 1050
92 1116
92 1120
92 1122
92 1161
92 1311
92 1359
92 1529
92 1550
92 1551
92 1552
92 1553
92 1554
92 1773
92 1788
92 1825
92 1862
92 2381
93 92
93 196
93 199
93 200
93 201
93 312
93 323
93 371
93 392
93 397
93 410
93 431
93 436
93 439
93 443
93 588
93 879
93 1152
93 1172
93 1225
93 1264
93 1307
93 1323
93 1344
93 1374
93 1470
93 1491
93 1502
93 2003
93 2169
93 2313
93 2343
93 2391
93 2432
94 58
94 59
94 128
94 174
94 182
94 199
94 200
94 201
94 341
94 350
94 458
94 923
94 965
94 966
94 980
94 983
94 1011
94 1043
94 1044
94 1079
94 1095
94 1182
94 1555
94 2485
94 2520
94 2574
94 2701
94 2878
94 2949
94 2994
94 3031
94 3047
94 3147
94 3226
94 3410
95 56
95 120
95 150
95 161
95 166
95 171
95 180
95 323
95 431
95 700
95 716
95 733
95 753
95 759
95 816
95 820
95 834
95 835
95 840
95 841
95 842
95 893
95 899
95 1556
95 1557
95 1558
95 1559
95 1560
95 2508
95 2759
95 2767
95 2792
95 2953
95 3151
95 3236
95 3312
96 63
96 92
96 127
96 157
96 190
96 196
96 197
96 371
96 375
96 376
96 392
96 397
96 410
96 431
96 436
96 439
96 443
96 588
96 879
96 1152
96 1172
96 1225
96 1264
96 1307
96 1323
96 1344
96 1374
96 1429
96 1470
96 1491
96 1502
96 2003
96 2169
96 2313
96 2343
96 2391
96 2432
97 56
97 64
97 92
97 159
97 174
97 192
97 196
97 201
97 273
97 371
97 392
97 397
97 410
97 431
97 436
97 439
97 443
97 522
97 565
97 588
97 879
97 1152
97 1172
97 1225
97 1264
97 1307
97 1323
97 1344
97 1374
97 1470
97 1491
97 1502
97 2003
97 2169
97 2313
97 2343
97 2391
97 2432
98 92
98 98
98 137
98 191
98 195
98 196
98 198
98 199
98 200
98 201
98 291
98 371
98 392
98 397
98 410
98 431
98 436
98 439
98 443
98 588
98 879
98 1152
98 1172
98 1225
98 1264
98 1307
98 1323
98 1344
98 1374
98 1470
98 1491
98 1502
98 2003
98 2169
98 2313
98 2343
98 2391
98 2432
99 40
99 56
99 64
99 92
99 122
99 144
99 159
99 192
99 196
99 201
99 273
99 371
99 392
99 397
99 410
99 431
99 436
99 439
99 443
99 522
99 565
99 588
99 879
99 1152
99 1172
99 1225
99 1264
99 1307
99 1323
99 1344
99 1374
99 1470
99 1491
99 1502
99 2003
99 2169
99 2313
99 2343
99 2391
99 2432
100 30
100 119
100 121
100 145
100 147
100 154
100 181
100 182
100 184
100 195
100 196
100 197
100 198
100 199
100 200
100 201
100 540
100 921
100 954
100 955
100 1015
100 1036
100 1037
100 1038
100 1050
100 1055
100 1091
100 1410
100 2422
100 2439
100 2697
100 2704
100 2738
100 2890
100 2897
100 2944
100 2989
100 3104
100 3142
100 3364
100 3419
101 92
101 196
101 201
101 243
101 258
101 285
101 323
101 371
101 392
101 397
101 410
101 430
101 431
101 436
101 439
101 443
101 588
101 879
101 927
101 928
101 1152
101 1172
101 1225
101 1264
101 1307
101 1323
101 1344
101 1374
101 1470
101 1491
101 1502
101 1561
101 1562
101 1617
101 1862
101 2003
101 2169
101 2313
101 2343
101 2391
101 2432
101 2832
102 58
102 59
102 119
102 121
102 128
102 145
102 147
102 154
102 181
102 182
102 184
102 195
102 196
102 197
102 198
102 199
102 200
102 201
102 341
102 350
102 923
102 965
102 966
102 980
102 983
102 1011
102 1043
102 1044
102 1079
102 1095
102 1182
102 2485
102 2520
102 2574
102 2701
102 2878
102 2949
102 2994
102 3031
102 3047
102 3147
102 3226
102 3410
103 58
103 59
103 119
103 121
103 128
103 145
103 147
103 153
103 154
103 181
103 182
103 184
103 195
103 196
103 197
103 198
103 199
103 200
103 201
103 341
103 350
103 923
103 965
103 966
103 980
103 983
103 1011
103 1043
103 1044
103 1079
103 1095
103 1182
103 2485
103 2520
103 2574
103 2701
103 2878
103 2949
103 2994
103 3031
103 3047
103 3147
103 3226
103 3410
104 41
104 58
104 59
104 119
104 121
104 128
104 145
104 147
104 154
104 181
104 182
104 184
104 187
104 195
104 196
104 197
104 198
104 199
104 200
104 201
104 341
104 350
104 923
104 965
104 966
104 980
104 983
104 1011
104 1043
104 1044
104 1079
104 1095
104 1182
104 2485
104 2520
104 2574
104 2701
104 2878
104 2949
104 2994
104 3031
104 3047
104 3147
104 3226
104 3410
105 58
105 59
105 77
105 128
105 181
105 182
105 184
105 194
105 197
105 198
105 200
105 201
105 341
105 350
105 754
105 807
105 923
105 965
105 966
105 980
105 983
105 1011
105 1043
105 1044
105 1054
105 1055
105 1056
105 1057
105 1058
105 1079
105 1095
105 1182
105 1708
105 1769
105 2485
105 2520
105 2574
105 2701
105 2878
105 2949
105 2994
105 3031
105 3047
105 3147
105 3226
105 3410
106 92
106 107
106 111
106 113
106 115
106 128
106 170
106 194
106 196
106 197
106 198
106 200
106 201
106 371
106 392
106 397
106 410
106 431
106 436
106 439
106 443
106 588
106 879
106 1049
106 1050
106 1152
106 1172
106 1225
106 1264
106 1307
106 1323
106 1344
106 1374
106 1470
106 1491
106 1502
106 1529
106 1563
106 1773
106 1788
106 1825
106 2003
106 2169
106 2313
106 2343
106 2391
106 2432
107 92
107 106
107 111
107 113
107 115
107 128
107 194
107 196
107 197
107 198
107 199
107 200
107 201
107 371
107 392
107 397
107 410
107 431
107 436
107 439
107 443
107 588
107 629
107 879
107 1049
107 1050
107 1152
107 1172
107 1225
107 1264
107 1307
107 1323
107 1344
107 1374
107 1470
107 1491
107 1502
107 1529
107 1563
107 1773
107 1788
107 1825
107 2003
107 2169
107 2313
107 2343
107 2391
107 2432
108 35
108 49
108 92
108 123
108 124
108 125
108 126
108 148
108 164
108 169
108 196
108 200
108 201
108 249
108 371
108 392
108 397
108 410
108 431
108 436
108 439
108 443
108 588
108 879
108 915
108 941
108 959
108 1060
108 1123
108 1152
108 1172
108 1225
108 1264
108 1307
108 1323
108 1344
108 1374
108 1470
108 1491
108 1502
108 1564
108 1565
108 1566
108 2003
108 2169
108 2313
108 2343
108 2391
108 2432
109 54
109 120
109 150
109 161
109 166
109 171
109 180
109 533
109 580
109 654
109 659
109 700
109 733
109 739
109 753
109 759
109 798
109 802
109 804
109 805
109 806
109 816
109 820
109 835
109 893
109 899
109 1328
109 1329
109 1331
109 1336
109 1340
109 1341
109 1343
109 1344
109 1345
109 1346
109 1355
109 1356
109 1567
109 1568
109 1569
109 1711
109 1721
109 2508
109 2759
109 2767
109 2792
109 2953
109 3151
109 3236
109 3312
110 56
110 64
110 92
110 159
110 192
110 196
110 201
110 273
110 371
110 392
110 397
110 410
110 431
110 436
110 439
110 443
110 522
110 565
110 588
110 796
110 865
110 879
110 1152
110 1172
110 1225
110 1264
110 1307
110 1323
110 1344
110 1374
110 1470
110 1491
110 1502
110 2003
110 2169
110 2313
110 2343
110 2391
110 2432
110 2805
110 2811
110 2818
110 2927
110 3072
110 3079
110 3086
110 3093
110 3125
111 92
111 106
111 107
111 113
111 115
111 128
111 129
111 139
111 172
111 173
111 178
111 189
111 191
111 194
111 196
111 197
111 198
111 200
111 201
111 371
111 392
111 397
111 410
111 431
111 436
111 439
111 443
111 588
111 879
111 883
111 1049
111 1050
111 1152
111 1172
111 1225
111 1264
111 1307
111 1323
111 1344
111 1374
111 1470
111 1491
111 1502
111 1529
111 1563
111 1773
111 1788
111 1825
111 2003
111 2169
111 2313
111 2343
111 2391
111 2432
112 65
112 120
112 150
112 161
112 166
112 171
112 180
112 312
112 401
112 422
112 496
112 534
112 570
112 585
112 587
112 623
112 624
112 700
112 708
112 709
112 719
112 733
112 741
112 753
112 759
112 769
112 770
112 816
112 820
112 834
112 835
112 862
112 893
112 899
112 1448
112 1455
112 1456
112 1461
112 1470
112 1474
112 1570
112 1571
112 1572
112 1819
112 2508
112 2759
112 2767
112 2792
112 2953
112 3151
112 3236
112 3312
113 48
113 92
113 106
113 107
113 111
113 115
113 128
113 194
113 196
113 197
113 198
113 200
113 201
113 364
113 371
113 392
113 397
113 410
113 431
113 436
113 439
113 443
113 480
113 588
113 879
113 997
113 998
113 1035
113 1049
113 1050
113 1152
113 1172
113 1200
113 1202
113 1225
113 1264
113 1307
113 1323
113 1344
113 1360
113 1374
113 1470
113 1491
113 1502
113 1529
113 1563
113 1573
113 1773
113 1788
113 1825
113 2003
113 2169
113 2313
113 2343
113 2391
113 2432
114 28
114 39
114 77
114 119
114 145
114 147
114 154
114 181
114 182
114 184
114 195
114 196
114 197
114 198
114 199
114 200
114 201
114 315
114 501
114 540
114 807
114 921
114 954
114 955
114 1015
114 1036
114 1037
114 1038
114 1050
114 1055
114 1091
114 1125
114 1126
114 1158
114 1410
114 1574
114 1575
114 1576
114 1577
114 2297
114 2422
114 2439
114 2495
114 2697
114 2704
114 2738
114 2890
114 2897
114 2944
114 2989
114 3104
114 3142
114 3364
114 3419
115 48
115 92
115 106
115 107
115 111
115 113
115 128
115 194
115 196
115 197
115 198
115 200
115 201
115 364
115 371
115 392
115 397
115 410
115 431
115 436
115 439
115 443
115 480
115 588
115 786
115 879
115 997
115 998
115 1035
115 1049
115 1050
115 1152
115 1172
115 1200
115 1202
115 1225
115 1264
115 1307
115 1323
115 1344
115 1374
115 1470
115 1491
115 1502
115 1529
115 1563
115 1573
115 1578
115 1773
115 1788
115 1825
115 2003
115 2009
115 2169
115 2313
115 2343
115 2391
115 2432
116 60
116 61
116 62
116 66
116 68
116 118
116 209
116 242
116 933
116 937
116 1422
116 1423
116 1424
116 1586
117 33
117 39
117 67
117 92
117 117
117 189
117 196
117 199
117 200
117 201
117 371
117 392
117 397
117 410
117 431
117 436
117 439
117 443
117 588
117 879
117 882
117 910
117 938
117 1111
117 1112
117 1113
117 1114
117 1152
117 1172
117 1225
117 1264
117 1307
117 1323
117 1344
117 1374
117 1470
117 1491
117 1502
117 1574
117 2003
117 2169
117 2313
117 2343
117 2391
117 2432
118 60
118 61
118 62
118 66
118 68
118 116
118 162
118 201
118 209
118 212
118 242
118 933
118 937
118 1422
118 1423
118 1424
118 1586
119 21
119 28
119 30
119 36
119 41
119 43
119 45
119 100
119 102
119 103
119 104
119 114
119 121
119 145
119 147
119 154
119 181
119 182
119 184
119 195
119 196
119 197
119 198
119 199
119 200
119 201
119 202
119 225
119 237
119 238
119 250
119 272
119 315
119 391
119 406
119 499
119 1020
119 1030
119 1109
119 1130
119 1131
119 1132
119 1133
119 1134
119 1163
119 1164
119 1165
119 1166
119 1167
119 1168
119 1169
119 1170
119 1179
119 1180
119 1544
119 1579
119 1580
119 1581
119 1582
119 1599
119 1707
119 1766
119 1767
119 1785
119 2726
120 84
120 88
120 95
120 109
120 112
120 120
120 142
120 149
120 150
120 174
120 194
120 197
120 201
120 253
120 322
120 333
120 334
120 335
120 338
120 344
120 353
120 396
120 399
120 412
120 425
120 432
120 437
120 440
120 444
120 460
120 481
120 485
120 490
120 506
120 552
120 576
120 661
120 762
120 929
120 984
120 1065
120 1135
120 1362
120 1363
120 1425
120 1583
120 1584
120 1585
120 1586
120 1587
120 1588
120 1589
120 1590
120 1591
120 1770
120 1930
120 2021
120 2089
120 2144
120 2196
120 2206
120 2400
120 2666
120 2729
120 2836
121 21
121 28
121 30
121 36
121 41
121 43
121 45
121 100
121 102
121 103
121 104
121 119
121 145
121 147
121 154
121 181
121 182
121 184
121 195
121 196
121 197
121 198
121 199
121 200
121 201
121 202
121 225
121 237
121 238
121 250
121 272
121 315
121 391
121 406
121 499
121 930
121 1020
121 1030
121 1109
121 1130
121 1131
121 1132
121 1133
121 1134
121 1163
121 1164
121 1165
121 1166
121 1167
121 1168
121 1169
121 1170
121 1179
121 1180
121 1579
121 1580
121 1581
121 1582
121 1592
121 1593
121 1599
121 1707
121 1766
121 1767
121 1785
121 2726
122 37
122 47
122 52
122 53
122 57
122 65
122 69
122 70
122 99
122 159
122 197
122 264
122 266
122 267
122 268
122 269
122 270
122 297
122 304
122 306
122 307
122 356
122 445
122 522
122 564
122 613
122 698
122 779
122 831
122 853
122 856
122 866
122 867
122 1162
122 1220
122 1361
122 1594
122 1595
122 1873
122 2164
122 2338
122 2694
122 2710
122 2736
122 2751
122 2807
122 2809
122 2813
122 2815
122 2820
122 2822
122 2906
122 2924
122 2929
122 2931
122 3074
122 3076
122 3081
122 3083
122 3088
122 3090
122 3091
122 3095
122 3097
122 3098
122 3123
122 3127
122 3129
122 3270
122 3303
123 35
123 38
123 49
123 92
123 108
123 124
123 125
123 126
123 148
123 164
123 169
123 196
123 200
123 201
123 214
123 371
123 392
123 397
123 410
123 431
123 436
123 439
123 443
123 521
123 588
123 636
123 852
123 858
123 879
123 915
123 916
123 935
123 941
123 949
123 957
123 958
123 959
123 1059
123 1060
123 1123
123 1124
123 1125
123 1126
123 1127
123 1128
123 1129
123 1152
123 1156
123 1157
123 1172
123 1204
123 1205
123 1206
123 1207
123 1225
123 1264
123 1307
123 1323
123 1344
123 1374
123 1470
123 1491
123 1502
123 1564
123 1565
123 1566
123 2003
123 2169
123 2313
123 2343
123 2391
123 2432
123 2616
123 2851
123 2862
124 35
124 38
124 49
124 92
124 108
124 123
124 125
124 126
124 148
124 164
124 169
124 196
124 200
124 201
124 214
124 249
124 371
124 392
124 397
124 410
124 431
124 436
124 439
124 443
124 521
124 588
124 636
124 852
124 858
124 879
124 915
124 916
124 935
124 941
124 949
124 957
124 958
124 959
124 1059
124 1060
124 1123
124 1124
124 1125
124 1126
124 1127
124 1128
124 1129
124 1152
124 1156
124 1157
124 1172
124 1203
124 1204
124 1205
124 1206
124 1207
124 1225
124 1264
124 1307
124 1323
124 1344
124 1374
124 1470
124 1491
124 1502
124 1564
124 1565
124 1566
124 1596
124 2003
124 2169
124 2313
124 2343
124 2391
124 2432
124 2616
124 2851
124 2862
125 35
125 38
125 49
125 92
125 108
125 123
125 124
125 126
125 148
125 164
125 169
125 192
125 196
125 200
125 201
125 214
125 249
125 317
125 319
125 320
125 371
125 392
125 397
125 410
125 431
125 436
125 439
125 443
125 521
125 588
125 636
125 852
125 858
125 879
125 915
125 916
125 935
125 941
125 949
125 957
125 958
125 959
125 1059
125 1060
125 1123
125 1124
125 1125
125 1126
125 1127
125 1128
125 1129
125 1152
125 1156
125 1157
125 1172
125 1203
125 1204
125 1205
125 1206
125 1207
125 1225
125 1264
125 1307
125 1323
125 1344
125 1374
125 1470
125 1491
125 1502
125 1564
125 1565
125 1566
125 2003
125 2169
125 2313
125 2343
125 2391
125 2432
125 2616
125 2851
125 2862
126 35
126 38
126 49
126 92
126 108
126 123
126 124
126 125
126 148
126 164
126 169
126 196
126 200
126 201
126 214
126 249
126 371
126 392
126 397
126 410
126 431
126 436
126 439
126 443
126 521
126 588
126 636
126 852
126 858
126 879
126 915
126 916
126 935
126 941
126 949
126 957
126 958
126 959
126 1059
126 1060
126 1123
126 1124
126 1125
126 1126
126 1127
126 1128
126 1129
126 1152
126 1156
126 1157
126 1172
126 1203
126 1204
126 1205
126 1206
126 1207
126 1225
126 1264
126 1307
126 1323
126 1344
126 1374
126 1470
126 1491
126 1502
126 1564
126 1565
126 1566
126 1579
126 1580
126 1597
126 1598
126 1599
126 2003
126 2169
126 2313
126 2343
126 2391
126 2432
126 2616
126 2851
126 2862
127 63
127 92
127 96
127 127
127 157
127 173
127 190
127 196
127 197
127 371
127 375
127 376
127 392
127 397
127 410
127 431
127 436
127 439
127 443
127 459
127 468
127 469
127 501
127 513
127 514
127 515
127 588
127 632
127 879
127 880
127 1152
127 1161
127 1172
127 1225
127 1264
127 1307
127 1323
127 1344
127 1374
127 1427
127 1429
127 1430
127 1431
127 1432
127 1470
127 1491
127 1502
127 1577
127 1600
127 1601
127 1719
127 1720
127 1734
127 2003
127 2169
127 2313
127 2343
127 2391
127 2432
127 2609
127 2610
127 2611
127 2612
127 2613
127 2617
127 2618
127 2636
127 2637
127 2638
127 2650
127 2727
128 48
128 90
128 92
128 94
128 102
128 103
128 104
128 105
128 106
128 107
128 111
128 113
128 115
128 140
128 153
128 155
128 158
128 160
128 162
128 164
128 166
128 173
128 178
128 184
128 189
128 194
128 196
128 197
128 198
128 200
128 201
128 238
128 364
128 370
128 371
128 392
128 397
128 410
128 431
128 436
128 439
128 443
128 449
128 480
128 498
128 499
128 528
128 588
128 879
128 997
128 998
128 1035
128 1049
128 1050
128 1152
128 1167
128 1172
128 1200
128 1202
128 1225
128 1264
128 1307
128 1323
128 1344
128 1374
128 1393
128 1470
128 1491
128 1502
128 1529
128 1549
128 1555
128 1563
128 1573
128 1602
128 1773
128 1788
128 1825
128 2003
128 2169
128 2313
128 2343
128 2391
128 2432
129 111
129 187
129 190
129 327
129 376
129 841
129 922
129 975
129 976
129 1017
129 1040
129 1041
129 1042
129 1057
129 1078
129 1093
129 1219
129 1258
129 1397
129 1412
129 1603
129 2163
129 2337
129 2424
129 2441
129 2641
129 2662
129 2699
129 2706
129 2740
129 2892
129 2899
129 2905
129 2947
129 2992
129 3029
129 3108
129 3145
129 3257
129 3269
129 3366
129 3421
130 17
130 18
130 44
130 46
130 48
130 56
130 130
130 154
130 185
130 584
130 678
130 707
130 967
130 977
130 1003
130 1004
130 1082
130 1103
130 1148
130 1215
130 1241
130 1254
130 1280
130 1303
130 1349
130 1385
130 1404
130 1416
130 1466
130 1516
130 2011
130 2036
130 2105
130 2159
130 2189
130 2264
130 2333
130 2363
130 2543
130 2630
130 2904
130 3214
130 3265
130 3294
130 3302
131 191
131 194
131 196
131 199
131 200
131 201
131 331
131 340
131 404
131 451
131 529
131 564
131 577
131 644
131 656
131 657
131 663
131 794
131 799
131 808
131 1211
131 1221
131 1250
131 1259
131 1332
131 1603
131 1604
131 1605
131 1606
131 1607
131 1608
131 1609
131 1610
131 2155
131 2165
131 2329
131 2339
131 2732
131 2789
131 2799
131 2849
131 2850
131 2937
131 3221
131 3261
131 3271
131 3304
132 191
132 196
132 199
132 200
132 201
132 360
132 391
132 411
132 571
132 1073
132 1116
132 1151
132 1173
132 1200
132 1226
132 1265
132 1306
132 1375
132 1469
132 1503
132 1611
132 1612
132 1613
132 2004
132 2039
132 2170
132 2344
132 2466
132 2487
132 2527
132 2532
132 2575
132 2913
132 2922
132 2935
132 2936
132 2939
132 2976
132 3010
132 3025
132 3041
132 3059
132 3064
132 3122
132 3130
132 3173
132 3208
132 3228
132 3275
132 3323
132 3332
132 3436
133 44
133 46
133 48
133 56
133 150
133 154
133 166
133 167
133 171
133 174
133 176
133 180
133 200
133 576
133 967
133 977
133 1003
133 1004
133 1082
133 1103
133 1148
133 1206
133 1241
133 1280
133 1303
133 1349
133 1385
133 1404
133 1416
133 1466
133 1516
133 1614
133 1615
133 1616
133 1617
133 1618
133 1619
133 1838
133 2011
133 2036
133 2105
133 2182
133 2189
133 2264
133 2356
133 2363
133 2472
133 2541
133 2543
133 3205
133 3214
133 3287
133 3294
134 83
134 92
134 135
134 161
134 170
134 185
134 192
134 196
134 199
134 200
134 201
134 218
134 224
134 371
134 383
134 392
134 393
134 397
134 403
134 410
134 426
134 431
134 436
134 439
134 443
134 588
134 726
134 879
134 1152
134 1172
134 1213
134 1225
134 1252
134 1264
134 1307
134 1323
134 1344
134 1374
134 1470
134 1491
134 1502
134 1620
134 1621
134 2003
134 2157
134 2169
134 2313
134 2331
134 2343
134 2391
134 2432
134 2756
134 3233
134 3263
135 83
135 92
135 134
135 161
135 170
135 185
135 192
135 196
135 199
135 200
135 201
135 218
135 224
135 371
135 383
135 392
135 393
135 397
135 403
135 410
135 426
135 431
135 436
135 439
135 443
135 588
135 612
135 726
135 879
135 1152
135 1172
135 1213
135 1225
135 1252
135 1264
135 1307
135 1323
135 1344
135 1374
135 1470
135 1491
135 1502
135 1620
135 1621
135 2003
135 2157
135 2169
135 2313
135 2331
135 2343
135 2391
135 2432
135 2756
135 3233
135 3263
136 20
136 22
136 194
136 196
136 199
136 200
136 201
136 283
136 288
136 331
136 340
136 451
136 564
136 577
136 644
136 656
136 657
136 794
136 799
136 808
136 1066
136 1221
136 1259
136 1332
136 1560
136 1604
136 1606
136 1607
136 1608
136 1610
136 1622
136 1623
136 1624
136 1625
136 2165
136 2316
136 2339
136 2387
136 2394
136 2399
136 2435
136 2444
136 3136
136 3271
136 3304
137 63
137 92
137 98
137 191
137 195
137 196
137 198
137 199
137 200
137 201
137 371
137 392
137 397
137 404
137 410
137 431
137 436
137 439
137 443
137 451
137 515
137 529
137 588
137 663
137 773
137 792
137 879
137 988
137 1152
137 1172
137 1211
137 1225
137 1250
137 1264
137 1307
137 1323
137 1344
137 1374
137 1470
137 1491
137 1502
137 1604
137 1623
137 2003
137 2155
137 2169
137 2313
137 2329
137 2343
137 2391
137 2432
137 2732
137 2789
137 2799
137 2849
137 2850
137 2937
137 3221
137 3261
138 56
138 92
138 159
138 170
138 192
138 196
138 201
138 218
138 273
138 331
138 340
138 371
138 383
138 392
138 393
138 397
138 403
138 410
138 426
138 431
138 436
138 439
138 443
138 522
138 564
138 565
138 577
138 588
138 612
138 615
138 644
138 656
138 657
138 799
138 879
138 1152
138 1172
138 1213
138 1225
138 1252
138 1264
138 1307
138 1323
138 1332
138 1344
138 1374
138 1470
138 1491
138 1502
138 1606
138 1610
138 2003
138 2157
138 2169
138 2313
138 2331
138 2343
138 2391
138 2432
138 2756
138 3233
138 3263
139 111
139 148
139 156
139 157
139 164
139 187
139 196
139 199
139 200
139 201
139 540
139 921
139 922
139 954
139 955
139 975
139 976
139 1015
139 1017
139 1036
139 1037
139 1038
139 1040
139 1041
139 1042
139 1050
139 1055
139 1057
139 1078
139 1091
139 1093
139 1397
139 1410
139 1412
139 1525
139 1626
139 2422
139 2424
139 2439
139 2441
139 2641
139 2662
139 2697
139 2699
139 2704
139 2706
139 2738
139 2740
139 2890
139 2892
139 2897
139 2899
139 2944
139 2947
139 2989
139 2992
139 3029
139 3104
139 3108
139 3142
139 3145
139 3364
139 3366
139 3419
139 3421
140 44
140 46
140 48
140 58
140 59
140 128
140 154
140 166
140 182
140 201
140 311
140 341
140 350
140 359
140 418
140 539
140 868
140 871
140 923
140 965
140 966
140 967
140 977
140 980
140 983
140 1003
140 1004
140 1011
140 1043
140 1044
140 1079
140 1082
140 1095
140 1103
140 1148
140 1182
140 1241
140 1280
140 1303
140 1349
140 1385
140 1404
140 1416
140 1466
140 1516
140 1627
140 2011
140 2036
140 2105
140 2189
140 2264
140 2363
140 2485
140 2520
140 2543
140 2574
140 2701
140 2878
140 2949
140 2994
140 3031
140 3047
140 3147
140 3214
140 3226
140 3294
140 3410
141 44
141 46
141 48
141 145
141 154
141 160
141 194
141 197
141 201
141 253
141 254
141 948
141 953
141 967
141 977
141 986
141 998
141 1000
141 1001
141 1002
141 1003
141 1004
141 1082
141 1083
141 1103
141 1104
141 1148
141 1149
141 1241
141 1242
141 1280
141 1281
141 1303
141 1304
141 1349
141 1350
141 1385
141 1386
141 1404
141 1405
141 1416
141 1417
141 1466
141 1467
141 1516
141 1517
141 1614
141 1628
141 1629
141 1630
141 1631
141 2011
141 2012
141 2036
141 2037
141 2105
141 2106
141 2189
141 2190
141 2264
141 2265
141 2363
141 2364
141 2543
141 2544
141 3214
141 3215
141 3294
141 3295
142 17
142 18
142 44
142 46
142 48
142 56
142 120
142 150
142 154
142 165
142 166
142 171
142 180
142 185
142 245
142 323
142 359
142 418
142 452
142 539
142 584
142 618
142 678
142 707
142 834
142 840
142 841
142 842
142 855
142 862
142 868
142 869
142 870
142 871
142 872
142 967
142 977
142 1003
142 1004
142 1082
142 1103
142 1148
142 1215
142 1241
142 1254
142 1280
142 1303
142 1349
142 1385
142 1404
142 1416
142 1466
142 1473
142 1516
142 1616
142 2011
142 2036
142 2105
142 2159
142 2189
142 2264
142 2333
142 2363
142 2543
142 2630
142 2904
142 3214
142 3265
142 3294
142 3302
143 17
143 18
143 44
143 46
143 48
143 56
143 154
143 158
143 185
143 584
143 678
143 707
143 718
143 722
143 727
143 730
143 777
143 778
143 860
143 861
143 863
143 887
143 888
143 890
143 895
143 897
143 898
143 967
143 977
143 1003
143 1004
143 1082
143 1103
143 1148
143 1215
143 1241
143 1254
143 1280
143 1303
143 1349
143 1385
143 1404
143 1416
143 1466
143 1516
143 1632
143 1633
143 1634
143 2011
143 2036
143 2105
143 2159
143 2189
143 2264
143 2333
143 2363
143 2543
143 2615
143 2630
143 2754
143 2755
143 2904
143 3214
143 3265
143 3294
143 3302
144 92
144 99
144 148
144 159
144 164
144 187
144 189
144 196
144 199
144 200
144 201
144 371
144 392
144 397
144 410
144 431
144 436
144 439
144 443
144 522
144 588
144 599
144 689
144 779
144 805
144 806
144 824
144 831
144 867
144 879
144 1152
144 1161
144 1162
144 1172
144 1220
144 1225
144 1264
144 1307
144 1323
144 1344
144 1356
144 1374
144 1470
144 1491
144 1502
144 1594
144 1635
144 1873
144 2003
144 2164
144 2169
144 2313
144 2338
144 2343
144 2391
144 2432
144 2807
144 2809
144 2813
144 2815
144 2820
144 2822
144 2906
144 2929
144 2931
144 3074
144 3076
144 3081
144 3083
144 3088
144 3090
144 3095
144 3097
144 3127
144 3129
144 3270
144 3303
145 21
145 28
145 30
145 36
145 41
145 43
145 45
145 92
145 100
145 102
145 103
145 104
145 114
145 119
145 121
145 141
145 147
145 154
145 181
145 182
145 184
145 195
145 196
145 197
145 198
145 199
145 200
145 201
145 202
145 225
145 237
145 238
145 250
145 272
145 315
145 371
145 391
145 392
145 397
145 406
145 410
145 431
145 436
145 439
145 443
145 499
145 588
145 879
145 930
145 1020
145 1030
145 1109
145 1130
145 1131
145 1132
145 1133
145 1134
145 1152
145 1163
145 1164
145 1165
145 1166
145 1167
145 1168
145 1169
145 1170
145 1172
145 1179
145 1180
145 1225
145 1264
145 1307
145 1323
145 1344
145 1374
145 1470
145 1491
145 1502
145 1579
145 1580
145 1581
145 1582
145 1593
145 1599
145 1707
145 1766
145 1767
145 1785
145 2003
145 2169
145 2313
145 2343
145 2391
145 2432
145 2726
146 44
146 46
146 48
146 92
146 154
146 159
146 196
146 197
146 273
146 371
146 392
146 397
146 410
146 431
146 436
146 439
146 443
146 564
146 582
146 588
146 613
146 631
146 797
146 866
146 879
146 967
146 977
146 1003
146 1004
146 1082
146 1103
146 1148
146 1152
146 1172
146 1225
146 1241
146 1260
146 1264
146 1280
146 1303
146 1307
146 1323
146 1344
146 1349
146 1361
146 1374
146 1385
146 1404
146 1416
146 1435
146 1436
146 1437
146 1438
146 1439
146 1440
146 1441
146 1442
146 1466
146 1470
146 1491
146 1502
146 1516
146 1614
146 1636
146 1879
146 2003
146 2011
146 2036
146 2105
146 2169
146 2189
146 2264
146 2291
146 2313
146 2343
146 2363
146 2391
146 2432
146 2543
146 2634
146 2655
146 2691
146 2803
146 2810
146 2816
146 2817
146 2925
146 3070
146 3077
146 3084
146 3214
146 3294
147 21
147 28
147 30
147 36
147 41
147 43
147 45
147 92
147 100
147 102
147 103
147 104
147 114
147 119
147 121
147 145
147 154
147 181
147 182
147 184
147 195
147 196
147 197
147 198
147 199
147 200
147 201
147 202
147 225
147 237
147 238
147 250
147 272
147 315
147 371
147 391
147 392
147 397
147 406
147 410
147 431
147 436
147 439
147 443
147 499
147 588
147 879
147 930
147 1020
147 1030
147 1109
147 1130
147 1131
147 1132
147 1133
147 1134
147 1152
147 1163
147 1164
147 1165
147 1166
147 1167
147 1168
147 1169
147 1170
147 1172
147 1179
147 1180
147 1225
147 1264
147 1307
147 1323
147 1344
147 1374
147 1410
147 1470
147 1491
147 1502
147 1579
147 1580
147 1581
147 1582
147 1593
147 1599
147 1637
147 1638
147 1707
147 1766
147 1767
147 1785
147 2003
147 2092
147 2169
147 2313
147 2343
147 2391
147 2432
147 2726
147 3104
147 3105
148 35
148 38
148 49
148 89
148 92
148 108
148 123
148 124
148 125
148 126
148 139
148 144
148 164
148 169
148 196
148 200
148 201
148 214
148 249
148 371
148 392
148 397
148 410
148 431
148 436
148 439
148 443
148 521
148 526
148 588
148 636
148 852
148 858
148 879
148 915
148 916
148 935
148 941
148 949
148 957
148 958
148 959
148 996
148 1059
148 1060
148 1123
148 1124
148 1125
148 1126
148 1127
148 1128
148 1152
148 1156
148 1157
148 1172
148 1203
148 1204
148 1205
148 1206
148 1207
148 1225
148 1249
148 1264
148 1307
148 1323
148 1344
148 1374
148 1470
148 1491
148 1502
148 1564
148 1565
148 1566
148 1639
148 1640
148 1641
148 1642
148 2003
148 2169
148 2198
148 2313
148 2343
148 2371
148 2391
148 2432
148 2616
148 2801
148 2823
148 2851
148 2862
148 2973
148 3170
148 3230
148 3434
149 56
149 120
149 150
149 166
149 171
149 180
149 323
149 834
149 840
149 841
149 842
149 859
149 1229
149 1230
149 1231
149 1268
149 1269
149 1270
149 1643
149 1644
149 2141
149 2174
149 2175
149 2176
149 2320
149 2321
149 2348
149 2349
149 2350
149 2535
149 2536
149 2537
149 3189
149 3209
149 3210
149 3279
149 3280
149 3281
150 17
150 18
150 56
150 84
150 88
150 95
150 109
150 112
150 120
150 133
150 142
150 149
150 158
150 165
150 166
150 174
150 185
150 201
150 322
150 323
150 333
150 334
150 335
150 338
150 344
150 353
150 359
150 396
150 412
150 418
150 425
150 432
150 437
150 440
150 444
150 452
150 481
150 485
150 490
150 539
150 574
150 584
150 618
150 661
150 678
150 707
150 762
150 840
150 841
150 842
150 855
150 862
150 868
150 869
150 870
150 871
150 872
150 929
150 984
150 1135
150 1143
150 1193
150 1215
150 1254
150 1288
150 1362
150 1363
150 1473
150 1587
150 1588
150 1589
150 1591
150 1616
150 1645
150 1646
150 1647
150 1648
150 1649
150 1770
150 1930
150 2021
150 2031
150 2055
150 2070
150 2085
150 2089
150 2099
150 2118
150 2144
150 2159
150 2196
150 2206
150 2222
150 2241
150 2260
150 2286
150 2333
150 2400
150 2416
150 2460
150 2602
150 2630
150 2666
150 2729
150 2836
150 2904
150 3265
150 3302
151 152
151 156
151 172
151 178
151 187
151 190
151 196
151 199
151 200
151 201
151 859
151 1229
151 1230
151 1231
151 1268
151 1269
151 1270
151 1525
151 1544
151 1626
151 1643
151 1644
151 2141
151 2174
151 2175
151 2176
151 2320
151 2321
151 2348
151 2349
151 2350
151 2535
151 2536
151 2537
151 3189
151 3209
151 3210
151 3279
151 3280
151 3281
152 151
152 156
152 172
152 178
152 187
152 190
152 196
152 199
152 200
152 201
152 288
152 859
152 1229
152 1230
152 1231
152 1268
152 1269
152 1270
152 1525
152 1544
152 1626
152 1643
152 1644
152 1650
152 2141
152 2174
152 2175
152 2176
152 2320
152 2321
152 2348
152 2349
152 2350
152 2535
152 2536
152 2537
152 3189
152 3209
152 3210
152 3279
152 3280
152 3281
153 19
153 31
153 32
153 42
153 44
153 46
153 48
153 55
153 58
153 59
153 103
153 128
153 153
153 154
153 182
153 208
153 341
153 350
153 463
153 506
153 512
153 851
153 854
153 857
153 913
153 923
153 932
153 942
153 965
153 966
153 967
153 977
153 980
153 983
153 990
153 1003
153 1004
153 1011
153 1021
153 1024
153 1025
153 1029
153 1043
153 1044
153 1079
153 1082
153 1095
153 1103
153 1110
153 1148
153 1182
153 1241
153 1280
153 1303
153 1349
153 1385
153 1404
153 1416
153 1466
153 1516
153 1651
153 2011
153 2036
153 2105
153 2189
153 2264
153 2363
153 2485
153 2520
153 2543
153 2574
153 2614
153 2701
153 2878
153 2949
153 2994
153 3031
153 3047
153 3147
153 3214
153 3226
153 3294
153 3410
154 21
154 28
154 30
154 36
154 41
154 43
154 45
154 91
154 92
154 100
154 102
154 103
154 104
154 114
154 119
154 121
154 130
154 133
154 140
154 141
154 142
154 143
154 145
154 146
154 147
154 153
154 154
154 158
154 160
154 165
154 167
154 168
154 170
154 173
154 180
154 181
154 182
154 184
154 193
154 195
154 196
154 197
154 198
154 199
154 200
154 201
154 202
154 225
154 237
154 238
154 241
154 250
154 251
154 272
154 315
154 343
154 371
154 391
154 392
154 397
154 406
154 410
154 431
154 436
154 439
154 443
154 499
154 552
154 588
154 879
154 930
154 1020
154 1030
154 1053
154 1109
154 1130
154 1131
154 1132
154 1133
154 1134
154 1152
154 1163
154 1164
154 1165
154 1166
154 1167
154 1168
154 1169
154 1170
154 1171
154 1172
154 1179
154 1180
154 1225
154 1264
154 1307
154 1323
154 1344
154 1374
154 1470
154 1491
154 1502
154 1579
154 1580
154 1581
154 1582
154 1593
154 1599
154 1707
154 1766
154 1767
154 1785
154 2003
154 2169
154 2313
154 2343
154 2391
154 2432
154 2726
155 58
155 59
155 128
155 182
155 199
155 200
155 201
155 341
155 350
155 827
155 885
155 923
155 928
155 965
155 966
155 980
155 983
155 1011
155 1043
155 1044
155 1079
155 1095
155 1182
155 1236
155 1275
155 1527
155 1837
155 2181
155 2355
155 2471
155 2485
155 2492
155 2520
155 2540
155 2574
155 2585
155 2631
155 2635
155 2701
155 2878
155 2949
155 2983
155 2994
155 3016
155 3022
155 3031
155 3047
155 3147
155 3180
155 3203
155 3226
155 3249
155 3285
155 3362
155 3410
155 3438
156 139
156 151
156 152
156 172
156 178
156 187
156 190
156 194
156 196
156 199
156 200
156 201
156 288
156 289
156 331
156 332
156 340
156 416
156 564
156 577
156 616
156 644
156 656
156 657
156 794
156 799
156 808
156 1221
156 1259
156 1332
156 1525
156 1544
156 1606
156 1610
156 1641
156 1650
156 1652
156 1653
156 1654
156 2165
156 2198
156 2339
156 2371
156 2375
156 2379
156 2550
156 2801
156 2823
156 2961
156 2973
156 3159
156 3170
156 3220
156 3230
156 3271
156 3304
156 3308
156 3434
157 63
157 92
157 96
157 127
157 139
157 190
157 196
157 197
157 289
157 332
157 349
157 371
157 375
157 376
157 392
157 397
157 410
157 431
157 436
157 439
157 443
157 556
157 588
157 879
157 1152
157 1172
157 1225
157 1264
157 1307
157 1310
157 1323
157 1344
157 1374
157 1429
157 1462
157 1470
157 1491
157 1502
157 1607
157 1641
157 1655
157 1656
157 1657
157 2003
157 2169
157 2198
157 2219
157 2238
157 2313
157 2343
157 2371
157 2375
157 2379
157 2391
157 2413
157 2432
157 2457
157 2550
157 2801
157 2823
157 2961
157 2973
157 3159
157 3170
157 3220
157 3230
157 3308
157 3434
158 44
158 46
158 48
158 56
158 58
158 59
158 89
158 128
158 143
158 150
158 154
158 166
158 171
158 176
158 180
158 182
158 219
158 253
158 254
158 282
158 323
158 341
158 350
158 517
158 519
158 576
158 649
158 650
158 651
158 786
158 796
158 834
158 836
158 840
158 841
158 849
158 865
158 923
158 965
158 966
158 967
158 977
158 980
158 983
158 1003
158 1004
158 1011
158 1043
158 1044
158 1079
158 1082
158 1095
158 1103
158 1144
158 1148
158 1182
158 1241
158 1280
158 1303
158 1349
158 1385
158 1404
158 1416
158 1466
158 1516
158 1539
158 1540
158 1543
158 1545
158 1616
158 1658
158 1659
158 1660
158 1661
158 1662
158 1663
158 1664
158 1665
158 1666
158 1667
158 1673
158 1735
158 1748
158 1844
158 2011
158 2032
158 2036
158 2105
158 2189
158 2223
158 2264
158 2363
158 2418
158 2485
158 2520
158 2543
158 2574
158 2604
158 2701
158 2794
158 2804
158 2805
158 2808
158 2811
158 2814
158 2818
158 2821
158 2825
158 2878
158 2926
158 2927
158 2930
158 2949
158 2994
158 3031
158 3047
158 3071
158 3072
158 3075
158 3078
158 3079
158 3082
158 3085
158 3086
158 3089
158 3092
158 3093
158 3096
158 3124
158 3125
158 3128
158 3147
158 3183
158 3214
158 3226
158 3294
158 3410
159 47
159 50
159 57
159 64
159 69
159 70
159 97
159 99
159 110
159 122
159 138
159 144
159 146
159 191
159 200
159 201
159 259
159 273
159 286
159 297
159 304
159 323
159 324
159 356
159 404
159 413
159 522
159 523
159 526
159 529
159 558
159 565
159 582
159 603
159 613
159 616
159 631
159 663
159 689
159 859
159 866
159 881
159 1062
159 1113
159 1161
159 1211
159 1229
159 1249
159 1250
159 1268
159 1311
159 1357
159 1359
159 1361
159 1443
159 1525
159 1639
159 1652
159 1653
159 1654
159 1667
159 1668
159 2155
159 2174
159 2310
159 2320
159 2329
159 2348
159 2386
159 2388
159 2535
159 2678
159 2732
159 2789
159 2799
159 2849
159 2850
159 2937
159 3054
159 3209
159 3221
159 3261
159 3279
160 17
160 18
160 44
160 46
160 48
160 56
160 58
160 59
160 128
160 141
160 154
160 179
160 182
160 185
160 197
160 200
160 201
160 341
160 350
160 584
160 678
160 707
160 771
160 829
160 923
160 965
160 966
160 967
160 977
160 980
160 983
160 986
160 987
160 988
160 1003
160 1004
160 1011
160 1043
160 1044
160 1079
160 1082
160 1095
160 1103
160 1148
160 1182
160 1215
160 1241
160 1254
160 1280
160 1303
160 1349
160 1385
160 1404
160 1416
160 1466
160 1516
160 1629
160 1669
160 1670
160 1671
160 1672
160 2011
160 2036
160 2105
160 2159
160 2189
160 2264
160 2333
160 2363
160 2485
160 2520
160 2543
160 2574
160 2630
160 2701
160 2878
160 2904
160 2949
160 2994
160 3031
160 3047
160 3147
160 3214
160 3226
160 3265
160 3294
160 3302
160 3410
161 83
161 84
161 88
161 92
161 95
161 109
161 112
161 134
161 135
161 166
161 170
161 171
161 180
161 185
161 192
161 196
161 199
161 200
161 201
161 218
161 224
161 311
161 322
161 333
161 338
161 344
161 371
161 383
161 392
161 393
161 396
161 397
161 403
161 410
161 412
161 425
161 426
161 431
161 432
161 436
161 437
161 439
161 440
161 443
161 444
161 481
161 485
161 490
161 538
161 588
161 612
161 726
161 792
161 879
161 929
161 984
161 1135
161 1152
161 1172
161 1213
161 1225
161 1252
161 1264
161 1307
161 1323
161 1344
161 1374
161 1470
161 1491
161 1502
161 1587
161 1588
161 1589
161 1604
161 1620
161 1621
161 1623
161 1627
161 1645
161 1673
161 1674
161 1675
161 1770
161 2003
161 2021
161 2089
161 2144
161 2157
161 2169
161 2206
161 2313
161 2331
161 2343
161 2391
161 2400
161 2432
161 2756
161 3233
161 3263
162 58
162 59
162 92
162 118
162 128
162 182
162 196
162 197
162 199
162 201
162 341
162 350
162 371
162 392
162 397
162 410
162 431
162 436
162 439
162 443
162 465
162 532
162 582
162 588
162 731
162 766
162 776
162 781
162 817
162 829
162 879
162 900
162 902
162 923
162 965
162 966
162 980
162 983
162 1011
162 1043
162 1044
162 1079
162 1095
162 1152
162 1172
162 1182
162 1225
162 1264
162 1307
162 1323
162 1344
162 1374
162 1470
162 1491
162 1502
162 1676
162 1677
162 1678
162 2003
162 2169
162 2313
162 2343
162 2391
162 2432
162 2485
162 2506
162 2520
162 2551
162 2574
162 2701
162 2757
162 2764
162 2791
162 2878
162 2942
162 2949
162 2994
162 3031
162 3047
162 3140
162 3147
162 3226
162 3234
162 3310
162 3410
163 53
163 201
163 489
163 683
163 684
163 868
163 1679
164 35
164 38
164 49
164 58
164 59
164 92
164 108
164 123
164 124
164 125
164 126
164 128
164 139
164 144
164 148
164 169
164 182
164 196
164 200
164 201
164 214
164 249
164 341
164 350
164 371
164 392
164 397
164 410
164 431
164 436
164 439
164 443
164 521
164 526
164 588
164 636
164 852
164 858
164 879
164 915
164 916
164 923
164 935
164 941
164 949
164 957
164 958
164 959
164 965
164 966
164 980
164 983
164 1011
164 1043
164 1044
164 1059
164 1060
164 1079
164 1095
164 1123
164 1124
164 1125
164 1126
164 1127
164 1128
164 1129
164 1152
164 1156
164 1157
164 1172
164 1182
164 1203
164 1204
164 1205
164 1206
164 1207
164 1225
164 1249
164 1264
164 1307
164 1323
164 1344
164 1374
164 1470
164 1491
164 1502
164 1564
164 1565
164 1566
164 1579
164 1596
164 1639
164 1641
164 1642
164 1680
164 2003
164 2169
164 2198
164 2313
164 2343
164 2371
164 2391
164 2432
164 2485
164 2520
164 2574
164 2616
164 2701
164 2801
164 2823
164 2851
164 2862
164 2878
164 2949
164 2973
164 2994
164 3031
164 3047
164 3147
164 3170
164 3226
164 3230
164 3410
164 3434
165 17
165 18
165 44
165 46
165 48
165 56
165 84
165 88
165 142
165 150
165 154
165 166
165 185
165 322
165 323
165 333
165 335
165 338
165 344
165 353
165 359
165 418
165 425
165 452
165 505
165 539
165 584
165 585
165 618
165 678
165 707
165 723
165 741
165 832
165 840
165 841
165 842
165 855
165 862
165 868
165 869
165 870
165 871
165 872
165 905
165 967
165 977
165 1003
165 1004
165 1082
165 1103
165 1135
165 1146
165 1148
165 1215
165 1241
165 1254
165 1280
165 1288
165 1303
165 1337
165 1349
165 1377
165 1385
165 1404
165 1416
165 1466
165 1516
165 1587
165 1588
165 1589
165 1681
165 1682
165 1683
165 1684
165 1685
165 1686
165 1687
165 1688
165 1689
165 1690
165 1691
165 1692
165 1693
165 1770
165 2011
165 2021
165 2027
165 2034
165 2036
165 2063
165 2073
165 2079
165 2088
165 2089
165 2095
165 2102
165 2105
165 2114
165 2121
165 2144
165 2159
165 2189
165 2206
165 2214
165 2225
165 2233
165 2243
165 2264
165 2281
165 2288
165 2333
165 2363
165 2400
165 2408
165 2420
165 2452
165 2463
165 2543
165 2598
165 2606
165 2630
165 2658
165 2904
165 3214
165 3265
165 3294
165 3302
166 58
166 59
166 84
166 88
166 95
166 109
166 112
166 128
166 133
166 140
166 142
166 149
166 150
166 158
166 161
166 165
166 174
166 180
166 182
166 200
166 201
166 322
166 333
166 334
166 335
166 338
166 341
166 344
166 350
166 353
166 396
166 412
166 425
166 432
166 437
166 440
166 444
166 481
166 485
166 490
166 538
166 574
166 610
166 659
166 661
166 700
166 733
166 736
166 742
166 753
166 755
166 757
166 759
166 762
166 770
166 795
166 801
166 803
166 816
166 820
166 835
166 893
166 899
166 903
166 923
166 929
166 965
166 966
166 980
166 983
166 984
166 1011
166 1043
166 1044
166 1079
166 1095
166 1135
166 1182
166 1186
166 1362
166 1363
166 1367
166 1544
166 1587
166 1588
166 1589
166 1591
166 1646
166 1647
166 1675
166 1694
166 1695
166 1696
166 1697
166 1698
166 1699
166 1700
166 1701
166 1770
166 1930
166 2021
166 2024
166 2060
166 2077
166 2089
166 2093
166 2111
166 2144
166 2196
166 2206
166 2211
166 2222
166 2230
166 2241
166 2279
166 2400
166 2405
166 2416
166 2449
166 2485
166 2508
166 2520
166 2574
166 2596
166 2602
166 2666
166 2701
166 2729
166 2759
166 2767
166 2792
166 2836
166 2878
166 2949
166 2953
166 2994
166 3031
166 3047
166 3147
166 3151
166 3226
166 3236
166 3312
166 3410
167 17
167 18
167 44
167 46
167 48
167 56
167 91
167 92
167 133
167 154
167 170
167 185
167 193
167 196
167 199
167 200
167 201
167 317
167 371
167 392
167 397
167 410
167 431
167 436
167 439
167 443
167 584
167 588
167 678
167 688
167 707
167 731
167 766
167 817
167 879
167 900
167 902
167 967
167 977
167 1003
167 1004
167 1053
167 1082
167 1103
167 1148
167 1152
167 1172
167 1215
167 1225
167 1241
167 1254
167 1264
167 1280
167 1303
167 1307
167 1323
167 1344
167 1349
167 1374
167 1385
167 1404
167 1416
167 1466
167 1470
167 1491
167 1502
167 1516
167 1702
167 2003
167 2011
167 2036
167 2105
167 2159
167 2169
167 2189
167 2264
167 2313
167 2333
167 2343
167 2363
167 2391
167 2432
167 2506
167 2543
167 2551
167 2630
167 2757
167 2764
167 2791
167 2904
167 2942
167 3140
167 3214
167 3234
167 3265
167 3294
167 3302
167 3310
168 17
168 18
168 44
168 46
168 48
168 56
168 92
168 154
168 168
168 185
168 194
168 196
168 197
168 201
168 253
168 254
168 359
168 371
168 379
168 392
168 397
168 410
168 418
168 431
168 436
168 439
168 443
168 452
168 539
168 576
168 584
168 588
168 651
168 678
168 707
168 731
168 766
168 817
168 855
168 862
168 868
168 872
168 879
168 900
168 902
168 967
168 977
168 1003
168 1004
168 1065
168 1082
168 1103
168 1148
168 1152
168 1172
168 1215
168 1225
168 1241
168 1254
168 1264
168 1280
168 1303
168 1307
168 1323
168 1344
168 1349
168 1374
168 1385
168 1404
168 1416
168 1464
168 1466
168 1470
168 1473
168 1491
168 1502
168 1516
168 1556
168 1662
168 1703
168 1748
168 1823
168 2003
168 2011
168 2036
168 2105
168 2159
168 2169
168 2189
168 2264
168 2313
168 2333
168 2343
168 2363
168 2391
168 2432
168 2506
168 2543
168 2551
168 2630
168 2757
168 2764
168 2791
168 2904
168 2942
168 3140
168 3214
168 3234
168 3265
168 3294
168 3302
168 3310
169 35
169 38
169 49
169 92
169 108
169 123
169 124
169 125
169 126
169 148
169 164
169 187
169 191
169 196
169 200
169 201
169 249
169 327
169 371
169 392
169 397
169 404
169 410
169 431
169 436
169 439
169 443
169 521
169 529
169 588
169 636
169 663
169 841
169 852
169 858
169 879
169 915
169 916
169 935
169 941
169 949
169 957
169 958
169 959
169 1030
169 1059
169 1060
169 1123
169 1124
169 1125
169 1126
169 1127
169 1128
169 1129
169 1152
169 1156
169 1157
169 1172
169 1199
169 1203
169 1204
169 1205
169 1207
169 1211
169 1219
169 1225
169 1250
169 1258
169 1264
169 1307
169 1323
169 1344
169 1374
169 1470
169 1491
169 1502
169 1564
169 1565
169 1566
169 1598
169 1704
169 1705
169 1706
169 1707
169 1884
169 2003
169 2155
169 2163
169 2169
169 2313
169 2329
169 2337
169 2343
169 2391
169 2432
169 2515
169 2587
169 2607
169 2616
169 2669
169 2732
169 2789
169 2799
169 2849
169 2850
169 2851
169 2862
169 2883
169 2905
169 2937
169 2965
169 3002
169 3162
169 3221
169 3253
169 3257
169 3261
169 3269
169 3412
170 17
170 18
170 44
170 46
170 48
170 56
170 73
170 80
170 81
170 83
170 85
170 86
170 87
170 92
170 106
170 134
170 135
170 138
170 154
170 161
170 167
170 174
170 185
170 193
170 196
170 199
170 200
170 201
170 224
170 317
170 371
170 392
170 397
170 410
170 431
170 436
170 439
170 443
170 517
170 519
170 584
170 588
170 630
170 678
170 688
170 707
170 726
170 834
170 879
170 918
170 943
170 944
170 946
170 947
170 967
170 977
170 1003
170 1004
170 1031
170 1032
170 1033
170 1074
170 1082
170 1094
170 1103
170 1134
170 1148
170 1152
170 1172
170 1215
170 1225
170 1241
170 1254
170 1264
170 1280
170 1303
170 1307
170 1323
170 1344
170 1349
170 1374
170 1385
170 1398
170 1404
170 1413
170 1416
170 1466
170 1470
170 1491
170 1502
170 1516
170 1535
170 1620
170 1621
170 1708
170 1709
170 1710
170 1711
170 1712
170 1713
170 1714
170 2003
170 2011
170 2036
170 2105
170 2159
170 2169
170 2189
170 2264
170 2313
170 2333
170 2343
170 2363
170 2391
170 2425
170 2432
170 2442
170 2543
170 2619
170 2630
170 2642
170 2663
170 2700
170 2707
170 2741
170 2893
170 2900
170 2904
170 2948
170 2993
170 3030
170 3109
170 3146
170 3214
170 3265
170 3294
170 3302
170 3367
170 3422
171 84
171 88
171 91
171 95
171 109
171 112
171 133
171 142
171 149
171 158
171 161
171 174
171 193
171 201
171 224
171 322
171 323
171 333
171 334
171 335
171 338
171 344
171 353
171 396
171 412
171 425
171 432
171 437
171 440
171 444
171 481
171 485
171 490
171 505
171 574
171 585
171 637
171 661
171 682
171 700
171 723
171 728
171 733
171 734
171 741
171 753
171 759
171 762
171 767
171 770
171 816
171 820
171 832
171 835
171 876
171 893
171 894
171 899
171 905
171 929
171 984
171 1135
171 1143
171 1146
171 1171
171 1193
171 1341
171 1346
171 1362
171 1363
171 1377
171 1556
171 1587
171 1588
171 1589
171 1591
171 1620
171 1646
171 1647
171 1648
171 1649
171 1685
171 1691
171 1715
171 1716
171 1717
171 1718
171 1770
171 1930
171 2021
171 2031
171 2034
171 2055
171 2070
171 2073
171 2085
171 2088
171 2089
171 2099
171 2102
171 2118
171 2121
171 2144
171 2196
171 2206
171 2222
171 2225
171 2241
171 2243
171 2260
171 2286
171 2288
171 2307
171 2400
171 2416
171 2420
171 2460
171 2463
171 2508
171 2510
171 2513
171 2602
171 2606
171 2658
171 2666
171 2729
171 2759
171 2761
171 2767
171 2770
171 2792
171 2836
171 2953
171 2955
171 2958
171 3151
171 3153
171 3156
171 3236
171 3238
171 3312
171 3314
171 3330
171 3350
171 3430
172 111
172 151
172 152
172 156
172 187
172 197
172 540
172 714
172 859
172 921
172 922
172 954
172 955
172 975
172 976
172 1015
172 1017
172 1036
172 1037
172 1038
172 1040
172 1041
172 1042
172 1050
172 1055
172 1057
172 1078
172 1091
172 1093
172 1229
172 1230
172 1231
172 1268
172 1269
172 1270
172 1397
172 1410
172 1412
172 1525
172 1544
172 1626
172 1643
172 1644
172 1650
172 2141
172 2174
172 2175
172 2176
172 2320
172 2321
172 2348
172 2349
172 2350
172 2422
172 2424
172 2439
172 2441
172 2535
172 2536
172 2537
172 2641
172 2662
172 2697
172 2699
172 2704
172 2706
172 2738
172 2740
172 2890
172 2892
172 2897
172 2899
172 2944
172 2947
172 2989
172 2992
172 3029
172 3104
172 3108
172 3142
172 3145
172 3189
172 3209
172 3210
172 3279
172 3280
172 3281
172 3364
172 3366
172 3419
172 3421
173 44
173 46
173 47
173 48
173 51
173 58
173 59
173 63
173 111
173 127
173 128
173 154
173 182
173 197
173 264
173 266
173 268
173 341
173 350
173 375
173 376
173 416
173 496
173 502
173 587
173 592
173 614
173 616
173 617
173 625
173 673
173 709
173 828
173 843
173 921
173 922
173 923
173 954
173 955
173 965
173 966
173 967
173 975
173 976
173 977
173 979
173 980
173 983
173 1003
173 1004
173 1011
173 1015
173 1017
173 1036
173 1037
173 1038
173 1040
173 1041
173 1042
173 1043
173 1044
173 1050
173 1055
173 1057
173 1078
173 1079
173 1082
173 1091
173 1093
173 1095
173 1103
173 1148
173 1182
173 1184
173 1241
173 1280
173 1292
173 1303
173 1317
173 1349
173 1385
173 1397
173 1401
173 1404
173 1410
173 1412
173 1416
173 1426
173 1428
173 1430
173 1431
173 1448
173 1466
173 1496
173 1506
173 1516
173 1524
173 1652
173 1653
173 1654
173 1705
173 1706
173 1719
173 1720
173 1721
173 1722
173 1723
173 1724
173 1725
173 1726
173 1727
173 1728
173 1729
173 1730
173 1731
173 1732
173 1733
173 1734
173 1884
173 1896
173 2007
173 2011
173 2022
173 2036
173 2044
173 2045
173 2057
173 2090
173 2105
173 2110
173 2189
173 2264
173 2363
173 2422
173 2424
173 2439
173 2441
173 2485
173 2520
173 2543
173 2565
173 2574
173 2587
173 2607
173 2609
173 2611
173 2613
173 2624
173 2637
173 2638
173 2641
173 2659
173 2662
173 2677
173 2697
173 2699
173 2701
173 2704
173 2706
173 2709
173 2738
173 2740
173 2779
173 2878
173 2890
173 2892
173 2897
173 2899
173 2912
173 2923
173 2944
173 2947
173 2949
173 2989
173 2992
173 2994
173 3029
173 3031
173 3047
173 3104
173 3108
173 3116
173 3118
173 3131
173 3142
173 3145
173 3147
173 3214
173 3226
173 3294
173 3364
173 3366
173 3410
173 3419
173 3421
174 25
174 56
174 85
174 86
174 94
174 97
174 120
174 133
174 150
174 166
174 170
174 171
174 180
174 198
174 210
174 212
174 218
174 222
174 228
174 323
174 383
174 384
174 393
174 398
174 403
174 414
174 415
174 426
174 449
174 480
174 489
174 495
174 543
174 558
174 570
174 574
174 612
174 615
174 622
174 633
174 654
174 736
174 757
174 768
174 834
174 840
174 841
174 842
174 869
174 874
174 956
174 1080
174 1165
174 1213
174 1217
174 1252
174 1256
174 1286
174 1295
174 1367
174 1433
174 1434
174 1445
174 1446
174 1453
174 1454
174 1541
174 1542
174 1616
174 1677
174 1698
174 1735
174 1736
174 1737
174 1738
174 1739
174 1740
174 1858
174 1941
174 2145
174 2147
174 2157
174 2161
174 2201
174 2331
174 2335
174 2516
174 2519
174 2557
174 2560
174 2670
174 2673
174 2690
174 2711
174 2716
174 2719
174 2752
174 2756
174 2772
174 2785
174 2786
174 2795
174 2826
174 2841
174 2848
174 2853
174 2867
174 2880
174 2916
174 2919
174 2967
174 2970
174 2979
174 3004
174 3007
174 3013
174 3019
174 3042
174 3055
174 3065
174 3164
174 3167
174 3176
174 3224
174 3233
174 3241
174 3263
174 3267
174 3326
174 3335
174 3341
174 3344
174 3345
174 3348
174 3354
174 3357
174 3358
174 3361
174 3395
174 3405
174 3408
174 3414
174 3417
175 92
175 194
175 196
175 197
175 200
175 201
175 253
175 292
175 302
175 331
175 340
175 371
175 392
175 397
175 410
175 431
175 436
175 439
175 443
175 512
175 528
175 564
175 588
175 595
175 596
175 627
175 634
175 644
175 691
175 692
175 702
175 780
175 783
175 794
175 799
175 800
175 808
175 874
175 879
175 911
175 1034
175 1064
175 1152
175 1172
175 1218
175 1221
175 1225
175 1257
175 1259
175 1264
175 1307
175 1323
175 1330
175 1332
175 1344
175 1374
175 1470
175 1491
175 1502
175 1610
175 1741
175 1742
175 1743
175 1744
175 1745
175 1746
175 1747
175 2003
175 2162
175 2165
175 2169
175 2313
175 2336
175 2339
175 2343
175 2391
175 2432
175 2648
175 2649
175 2782
175 2783
175 2784
175 2962
175 2971
175 2972
175 2999
175 3008
175 3009
175 3160
175 3168
175 3169
175 3222
175 3268
175 3271
175 3304
175 3399
175 3400
175 3401
175 3402
175 3403
175 3404
176 92
176 133
176 158
176 194
176 196
176 197
176 200
176 201
176 253
176 292
176 302
176 331
176 340
176 371
176 392
176 397
176 410
176 431
176 436
176 439
176 443
176 512
176 564
176 574
176 577
176 586
176 588
176 595
176 596
176 627
176 634
176 640
176 642
176 644
176 650
176 691
176 692
176 702
176 780
176 783
176 794
176 799
176 800
176 808
176 874
176 879
176 911
176 1034
176 1063
176 1064
176 1141
176 1152
176 1172
176 1218
176 1221
176 1225
176 1257
176 1259
176 1264
176 1307
176 1323
176 1330
176 1332
176 1344
176 1374
176 1470
176 1491
176 1502
176 1610
176 1614
176 1741
176 1742
176 1743
176 1744
176 1745
176 1748
176 1749
176 2003
176 2162
176 2165
176 2169
176 2313
176 2336
176 2339
176 2343
176 2391
176 2432
176 2648
176 2649
176 2782
176 2783
176 2784
176 2962
176 2971
176 2972
176 2999
176 3008
176 3009
176 3160
176 3168
176 3169
176 3222
176 3268
176 3271
176 3304
176 3399
176 3400
176 3401
176 3402
176 3403
176 3404
177 177
177 192
177 194
177 197
177 263
177 292
177 293
177 296
177 299
177 302
177 317
177 319
177 320
177 330
177 331
177 340
177 345
177 388
177 482
177 492
177 510
177 512
177 525
177 532
177 551
177 561
177 562
177 563
177 580
177 595
177 596
177 627
177 634
177 656
177 676
177 679
177 691
177 692
177 693
177 699
177 701
177 702
177 703
177 704
177 705
177 731
177 732
177 745
177 747
177 751
177 766
177 769
177 780
177 783
177 794
177 799
177 800
177 808
177 817
177 874
177 900
177 902
177 911
177 919
177 1063
177 1064
177 1141
177 1218
177 1221
177 1257
177 1259
177 1318
177 1330
177 1332
177 1370
177 1391
177 1498
177 1625
177 1642
177 1741
177 1742
177 1745
177 1749
177 1750
177 1751
177 1752
177 1753
177 1754
177 1933
177 2162
177 2165
177 2336
177 2339
177 2506
177 2551
177 2576
177 2648
177 2649
177 2680
177 2757
177 2764
177 2782
177 2783
177 2784
177 2791
177 2942
177 2962
177 2971
177 2972
177 2999
177 3008
177 3009
177 3039
177 3062
177 3140
177 3160
177 3168
177 3169
177 3222
177 3234
177 3268
177 3271
177 3304
177 3310
177 3399
177 3400
177 3401
177 3402
177 3403
177 3404
178 58
178 59
178 111
178 128
178 151
178 152
178 156
178 182
178 200
178 201
178 202
178 229
178 341
178 350
178 540
178 859
178 921
178 922
178 923
178 954
178 955
178 965
178 966
178 975
178 976
178 980
178 983
178 1011
178 1015
178 1017
178 1030
178 1036
178 1037
178 1038
178 1040
178 1041
178 1042
178 1043
178 1044
178 1050
178 1055
178 1057
178 1078
178 1079
178 1091
178 1093
178 1095
178 1130
178 1168
178 1182
178 1229
178 1230
178 1231
178 1268
178 1269
178 1270
178 1397
178 1410
178 1412
178 1525
178 1544
178 1575
178 1626
178 1643
178 1644
178 1650
178 1755
178 2141
178 2174
178 2175
178 2176
178 2320
178 2321
178 2348
178 2349
178 2350
178 2422
178 2424
178 2439
178 2441
178 2485
178 2520
178 2535
178 2536
178 2537
178 2574
178 2641
178 2662
178 2697
178 2699
178 2701
178 2704
178 2706
178 2738
178 2740
178 2878
178 2890
178 2892
178 2897
178 2899
178 2944
178 2947
178 2949
178 2989
178 2992
178 2994
178 3029
178 3031
178 3047
178 3104
178 3108
178 3142
178 3145
178 3147
178 3189
178 3209
178 3210
178 3226
178 3279
178 3280
178 3281
178 3364
178 3366
178 3410
178 3419
178 3421
179 92
179 160
179 179
179 194
179 196
179 197
179 201
179 263
179 292
179 293
179 296
179 299
179 302
179 314
179 330
179 331
179 340
179 345
179 371
179 388
179 392
179 397
179 410
179 431
179 436
179 439
179 443
179 506
179 512
179 564
179 577
179 586
179 588
179 595
179 596
179 627
179 634
179 640
179 642
179 643
179 644
179 656
179 657
179 679
179 691
179 692
179 693
179 701
179 702
179 703
179 704
179 705
179 771
179 780
179 783
179 794
179 799
179 800
179 808
179 829
179 874
179 879
179 911
179 919
179 986
179 987
179 988
179 1034
179 1063
179 1064
179 1141
179 1152
179 1172
179 1218
179 1221
179 1225
179 1257
179 1259
179 1264
179 1307
179 1323
179 1330
179 1332
179 1344
179 1370
179 1374
179 1391
179 1470
179 1491
179 1498
179 1502
179 1606
179 1610
179 1629
179 1671
179 1672
179 1741
179 1742
179 1743
179 1744
179 1745
179 1749
179 1750
179 1751
179 1752
179 1756
179 1757
179 2003
179 2162
179 2165
179 2169
179 2313
179 2336
179 2339
179 2343
179 2391
179 2432
179 2576
179 2645
179 2646
179 2648
179 2649
179 2782
179 2783
179 2784
179 2962
179 2971
179 2972
179 2999
179 3008
179 3009
179 3039
179 3062
179 3160
179 3168
179 3169
179 3222
179 3268
179 3271
179 3304
179 3399
179 3400
179 3401
179 3402
179 3403
179 3404
180 17
180 18
180 44
180 46
180 48
180 56
180 84
180 88
180 92
180 95
180 109
180 112
180 133
180 142
180 149
180 154
180 158
180 161
180 166
180 174
180 185
180 196
180 201
180 322
180 323
180 333
180 334
180 335
180 338
180 344
180 353
180 359
180 371
180 392
180 396
180 397
180 410
180 412
180 418
180 425
180 431
180 432
180 436
180 437
180 439
180 440
180 443
180 444
180 452
180 481
180 485
180 490
180 539
180 574
180 584
180 588
180 661
180 678
180 700
180 707
180 731
180 733
180 753
180 759
180 762
180 766
180 816
180 817
180 820
180 835
180 855
180 862
180 868
180 879
180 893
180 899
180 900
180 902
180 929
180 967
180 977
180 984
180 1003
180 1004
180 1082
180 1103
180 1135
180 1148
180 1152
180 1172
180 1215
180 1225
180 1241
180 1254
180 1264
180 1280
180 1303
180 1307
180 1323
180 1344
180 1349
180 1362
180 1363
180 1374
180 1385
180 1404
180 1416
180 1466
180 1470
180 1473
180 1491
180 1502
180 1516
180 1587
180 1588
180 1589
180 1591
180 1770
180 1930
180 2003
180 2011
180 2021
180 2036
180 2089
180 2105
180 2144
180 2159
180 2169
180 2189
180 2196
180 2206
180 2264
180 2313
180 2333
180 2343
180 2363
180 2391
180 2400
180 2432
180 2506
180 2508
180 2543
180 2551
180 2630
180 2666
180 2729
180 2757
180 2759
180 2764
180 2767
180 2791
180 2792
180 2836
180 2904
180 2942
180 2953
180 3140
180 3151
180 3214
180 3234
180 3236
180 3265
180 3294
180 3302
180 3310
180 3312
181 21
181 28
181 30
181 36
181 41
181 43
181 45
181 92
181 100
181 102
181 103
181 104
181 105
181 114
181 119
181 121
181 145
181 147
181 154
181 182
181 184
181 194
181 196
181 197
181 198
181 200
181 201
181 202
181 225
181 237
181 238
181 250
181 272
181 315
181 371
181 391
181 392
181 397
181 406
181 410
181 431
181 436
181 439
181 443
181 499
181 588
181 754
181 807
181 879
181 930
181 937
181 986
181 1020
181 1030
181 1054
181 1055
181 1056
181 1057
181 1058
181 1100
181 1106
181 1109
181 1117
181 1121
181 1130
181 1131
181 1132
181 1133
181 1134
181 1152
181 1163
181 1164
181 1165
181 1166
181 1167
181 1168
181 1169
181 1170
181 1172
181 1175
181 1179
181 1180
181 1198
181 1199
181 1201
181 1225
181 1264
181 1307
181 1323
181 1344
181 1374
181 1400
181 1414
181 1470
181 1491
181 1502
181 1579
181 1580
181 1581
181 1582
181 1593
181 1597
181 1598
181 1599
181 1602
181 1630
181 1704
181 1707
181 1708
181 1758
181 1759
181 1760
181 1766
181 1767
181 1769
181 1785
181 2003
181 2169
181 2313
181 2343
181 2391
181 2427
181 2432
181 2514
181 2515
181 2522
181 2523
181 2554
181 2556
181 2563
181 2564
181 2653
181 2654
181 2668
181 2669
181 2675
181 2687
181 2688
181 2715
181 2726
181 2852
181 2863
181 2864
181 2865
181 2866
181 2869
181 2870
181 2872
181 2873
181 2875
181 2876
181 2881
181 2882
181 2883
181 2884
181 2885
181 2886
181 2887
181 2903
181 2914
181 2915
181 2920
181 2932
181 2934
181 2964
181 2965
181 2984
181 2985
181 3001
181 3002
181 3017
181 3018
181 3023
181 3024
181 3049
181 3051
181 3052
181 3058
181 3161
181 3162
181 3181
181 3182
181 3251
181 3252
181 3253
181 3254
181 3411
181 3412
181 3425
181 3426
182 21
182 28
182 30
182 36
182 41
182 43
182 45
182 90
182 92
182 94
182 100
182 102
182 103
182 104
182 105
182 114
182 119
182 121
182 140
182 145
182 147
182 153
182 154
182 155
182 158
182 160
182 162
182 164
182 166
182 173
182 178
182 181
182 184
182 189
182 194
182 196
182 197
182 198
182 200
182 201
182 202
182 225
182 237
182 238
182 250
182 272
182 315
182 370
182 371
182 391
182 392
182 397
182 406
182 410
182 431
182 436
182 439
182 443
182 449
182 498
182 499
182 528
182 588
182 754
182 807
182 879
182 930
182 1020
182 1030
182 1054
182 1055
182 1056
182 1057
182 1058
182 1100
182 1106
182 1109
182 1117
182 1121
182 1130
182 1131
182 1132
182 1133
182 1134
182 1152
182 1163
182 1164
182 1165
182 1166
182 1167
182 1168
182 1169
182 1170
182 1172
182 1175
182 1179
182 1180
182 1198
182 1199
182 1201
182 1225
182 1264
182 1307
182 1323
182 1344
182 1374
182 1393
182 1400
182 1414
182 1470
182 1491
182 1502
182 1549
182 1555
182 1576
182 1579
182 1580
182 1581
182 1582
182 1593
182 1597
182 1598
182 1599
182 1602
182 1704
182 1707
182 1708
182 1758
182 1759
182 1760
182 1766
182 1767
182 1769
182 1785
182 2003
182 2169
182 2313
182 2343
182 2391
182 2427
182 2432
182 2514
182 2515
182 2522
182 2523
182 2554
182 2556
182 2563
182 2564
182 2653
182 2654
182 2668
182 2669
182 2675
182 2687
182 2688
182 2715
182 2726
182 2852
182 2863
182 2864
182 2865
182 2866
182 2869
182 2870
182 2872
182 2873
182 2875
182 2876
182 2881
182 2882
182 2883
182 2884
182 2885
182 2886
182 2887
182 2903
182 2914
182 2915
182 2920
182 2932
182 2934
182 2964
182 2965
182 2984
182 2985
182 3001
182 3002
182 3017
182 3018
182 3023
182 3024
182 3049
182 3051
182 3052
182 3058
182 3161
182 3162
182 3181
182 3182
182 3251
182 3252
182 3253
182 3254
182 3411
182 3412
182 3425
182 3426
183 69
183 201
183 482
183 855
183 1476
183 1538
183 1761
184 21
184 28
184 30
184 36
184 41
184 43
184 45
184 58
184 59
184 86
184 92
184 100
184 102
184 103
184 104
184 105
184 114
184 119
184 121
184 128
184 145
184 147
184 154
184 181
184 182
184 194
184 196
184 197
184 198
184 200
184 201
184 202
184 225
184 237
184 238
184 250
184 272
184 315
184 341
184 350
184 371
184 391
184 392
184 397
184 406
184 410
184 431
184 436
184 439
184 443
184 499
184 588
184 688
184 754
184 807
184 879
184 923
184 930
184 965
184 966
184 980
184 983
184 1011
184 1020
184 1030
184 1043
184 1044
184 1054
184 1055
184 1056
184 1057
184 1058
184 1079
184 1095
184 1100
184 1106
184 1109
184 1117
184 1121
184 1130
184 1131
184 1132
184 1133
184 1134
184 1152
184 1163
184 1164
184 1165
184 1166
184 1167
184 1168
184 1169
184 1170
184 1172
184 1175
184 1179
184 1180
184 1182
184 1198
184 1199
184 1201
184 1225
184 1264
184 1307
184 1323
184 1344
184 1374
184 1400
184 1414
184 1470
184 1491
184 1502
184 1579
184 1580
184 1581
184 1582
184 1593
184 1597
184 1598
184 1599
184 1602
184 1704
184 1707
184 1708
184 1758
184 1759
184 1760
184 1766
184 1767
184 1769
184 1785
184 2003
184 2169
184 2313
184 2343
184 2391
184 2427
184 2432
184 2485
184 2514
184 2515
184 2520
184 2522
184 2523
184 2554
184 2556
184 2563
184 2564
184 2574
184 2653
184 2654
184 2668
184 2669
184 2675
184 2687
184 2688
184 2701
184 2715
184 2726
184 2852
184 2863
184 2864
184 2865
184 2866
184 2869
184 2870
184 2872
184 2873
184 2875
184 2876
184 2878
184 2881
184 2882
184 2883
184 2884
184 2885
184 2886
184 2887
184 2903
184 2914
184 2915
184 2920
184 2932
184 2934
184 2949
184 2964
184 2965
184 2984
184 2985
184 2994
184 3001
184 3002
184 3017
184 3018
184 3023
184 3024
184 3031
184 3047
184 3049
184 3051
184 3052
184 3058
184 3147
184 3161
184 3162
184 3181
184 3182
184 3226
184 3251
184 3252
184 3253
184 3254
184 3410
184 3411
184 3412
184 3425
184 3426
185 80
185 85
185 87
185 89
185 92
185 130
185 134
185 135
185 142
185 143
185 150
185 160
185 161
185 165
185 167
185 168
185 170
185 180
185 187
185 189
185 192
185 193
185 196
185 200
185 201
185 218
185 224
185 297
185 366
185 371
185 383
185 392
185 393
185 397
185 403
185 410
185 426
185 428
185 431
185 436
185 439
185 443
185 450
185 458
185 493
185 498
185 500
185 517
185 554
185 588
185 612
185 630
185 637
185 654
185 659
185 660
185 688
185 692
185 700
185 728
185 733
185 734
185 746
185 750
185 757
185 767
185 864
185 878
185 879
185 893
185 894
185 919
185 1061
185 1152
185 1170
185 1172
185 1213
185 1225
185 1238
185 1252
185 1264
185 1277
185 1300
185 1307
185 1323
185 1340
185 1341
185 1344
185 1346
185 1374
185 1470
185 1491
185 1502
185 1535
185 1620
185 1698
185 1699
185 1709
185 1714
185 1716
185 1717
185 1744
185 1762
185 1763
185 2003
185 2157
185 2169
185 2186
185 2307
185 2313
185 2331
185 2343
185 2360
185 2391
185 2432
185 2507
185 2508
185 2510
185 2513
185 2619
185 2756
185 2758
185 2759
185 2761
185 2766
185 2767
185 2770
185 2910
185 2952
185 2953
185 2955
185 2958
185 3150
185 3151
185 3153
185 3156
185 3212
185 3233
185 3235
185 3236
185 3238
185 3263
185 3291
185 3311
185 3312
185 3314
185 3330
185 3350
185 3430
186 56
186 188
186 201
186 320
186 323
186 426
186 430
186 431
186 1360
186 1764
186 1765
187 17
187 18
187 56
187 104
187 129
187 139
187 144
187 151
187 152
187 156
187 169
187 172
187 185
187 190
187 191
187 199
187 200
187 201
187 240
187 289
187 328
187 329
187 332
187 336
187 354
187 404
187 526
187 529
187 584
187 663
187 678
187 707
187 859
187 880
187 1211
187 1215
187 1229
187 1230
187 1231
187 1249
187 1250
187 1254
187 1268
187 1269
187 1270
187 1525
187 1544
187 1626
187 1639
187 1641
187 1643
187 1644
187 1650
187 1766
187 1767
187 2141
187 2142
187 2155
187 2159
187 2174
187 2175
187 2176
187 2198
187 2320
187 2321
187 2329
187 2333
187 2348
187 2349
187 2350
187 2371
187 2373
187 2374
187 2375
187 2378
187 2379
187 2535
187 2536
187 2537
187 2549
187 2550
187 2630
187 2732
187 2789
187 2799
187 2801
187 2823
187 2824
187 2849
187 2850
187 2904
187 2937
187 2960
187 2961
187 2973
187 2975
187 3158
187 3159
187 3170
187 3172
187 3189
187 3190
187 3209
187 3210
187 3220
187 3221
187 3230
187 3231
187 3261
187 3265
187 3279
187 3280
187 3281
187 3302
187 3307
187 3308
187 3383
187 3434
188 65
188 186
188 201
188 768
188 769
188 862
188 1473
188 1693
188 1768
189 17
189 18
189 33
189 39
189 56
189 58
189 59
189 88
189 111
189 117
189 128
189 144
189 182
189 185
189 190
189 191
189 200
189 201
189 229
189 240
189 259
189 297
189 341
189 350
189 404
189 416
189 437
189 521
189 526
189 529
189 584
189 616
189 645
189 663
189 678
189 707
189 716
189 720
189 726
189 754
189 793
189 798
189 845
189 882
189 901
189 910
189 922
189 923
189 938
189 965
189 966
189 975
189 976
189 980
189 983
189 1011
189 1017
189 1018
189 1040
189 1041
189 1042
189 1043
189 1044
189 1057
189 1078
189 1079
189 1093
189 1095
189 1111
189 1112
189 1113
189 1114
189 1132
189 1135
189 1182
189 1194
189 1211
189 1215
189 1233
189 1249
189 1250
189 1254
189 1272
189 1356
189 1378
189 1397
189 1412
189 1494
189 1507
189 1552
189 1574
189 1589
189 1635
189 1639
189 1652
189 1653
189 1769
189 1770
189 1771
189 1772
189 1773
189 1774
189 1775
189 1776
189 1777
189 1778
189 1779
189 1780
189 1781
189 1782
189 1783
189 1784
189 1785
189 1787
189 1788
189 1789
189 1791
189 1796
189 1799
189 1801
189 1934
189 2021
189 2089
189 2155
189 2159
189 2178
189 2315
189 2329
189 2333
189 2352
189 2393
189 2424
189 2426
189 2434
189 2441
189 2443
189 2485
189 2509
189 2520
189 2552
189 2574
189 2630
189 2641
189 2643
189 2644
189 2662
189 2664
189 2665
189 2699
189 2701
189 2702
189 2706
189 2708
189 2732
189 2740
189 2742
189 2760
189 2765
189 2768
189 2775
189 2780
189 2789
189 2793
189 2799
189 2849
189 2850
189 2878
189 2892
189 2894
189 2895
189 2899
189 2901
189 2902
189 2904
189 2937
189 2947
189 2949
189 2950
189 2951
189 2954
189 2992
189 2994
189 2995
189 2996
189 3029
189 3031
189 3032
189 3034
189 3047
189 3108
189 3110
189 3111
189 3145
189 3147
189 3148
189 3149
189 3152
189 3221
189 3226
189 3237
189 3261
189 3265
189 3302
189 3313
189 3366
189 3368
189 3369
189 3410
189 3421
189 3423
189 3424
190 63
190 65
190 96
190 127
190 129
190 151
190 152
190 156
190 157
190 187
190 189
190 197
190 289
190 327
190 328
190 329
190 332
190 336
190 354
190 375
190 376
190 445
190 509
190 544
190 623
190 626
190 725
190 754
190 840
190 841
190 843
190 859
190 1018
190 1131
190 1136
190 1219
190 1229
190 1230
190 1231
190 1258
190 1268
190 1269
190 1270
190 1365
190 1427
190 1481
190 1495
190 1525
190 1544
190 1567
190 1601
190 1626
190 1643
190 1644
190 1780
190 1786
190 1787
190 1788
190 1789
190 1790
190 1791
190 1792
190 1793
190 1794
190 1795
190 1796
190 1797
190 1798
190 1799
190 1800
190 1801
190 1802
190 1877
190 1878
190 1883
190 2141
190 2142
190 2163
190 2174
190 2175
190 2176
190 2208
190 2227
190 2272
190 2289
190 2320
190 2321
190 2328
190 2337
190 2348
190 2349
190 2350
190 2373
190 2374
190 2375
190 2378
190 2379
190 2385
190 2402
190 2446
190 2483
190 2535
190 2536
190 2537
190 2549
190 2550
190 2612
190 2622
190 2644
190 2665
190 2824
190 2895
190 2902
190 2905
190 2951
190 2960
190 2961
190 2975
190 2996
190 3034
190 3111
190 3112
190 3132
190 3133
190 3149
190 3158
190 3159
190 3172
190 3189
190 3190
190 3209
190 3210
190 3220
190 3231
190 3257
190 3269
190 3279
190 3280
190 3281
190 3300
190 3307
190 3308
190 3369
190 3383
190 3424
191 33
191 40
191 83
191 98
191 111
191 131
191 132
191 137
191 159
191 169
191 187
191 189
191 192
191 194
191 195
191 196
191 198
191 199
191 200
191 201
191 291
191 331
191 340
191 502
191 564
191 571
191 577
191 644
191 656
191 657
191 726
191 744
191 749
191 753
191 759
191 776
191 782
191 794
191 799
191 808
191 816
191 820
191 835
191 899
191 922
191 975
191 976
191 1017
191 1040
191 1041
191 1042
191 1057
191 1078
191 1093
191 1221
191 1259
191 1332
191 1397
191 1412
191 1562
191 1606
191 1610
191 1611
191 1612
191 1621
191 1772
191 1803
191 1804
191 1805
191 1806
191 1807
191 1830
191 1934
191 1936
191 2165
191 2306
191 2339
191 2424
191 2441
191 2509
191 2511
191 2552
191 2641
191 2662
191 2689
191 2699
191 2706
191 2740
191 2760
191 2762
191 2763
191 2765
191 2768
191 2769
191 2773
191 2774
191 2775
191 2780
191 2790
191 2792
191 2793
191 2839
191 2892
191 2899
191 2947
191 2954
191 2956
191 2963
191 2992
191 3000
191 3029
191 3035
191 3101
191 3102
191 3108
191 3114
191 3115
191 3145
191 3152
191 3154
191 3174
191 3186
191 3229
191 3237
191 3239
191 3271
191 3304
191 3313
191 3315
191 3324
191 3333
191 3351
191 3352
191 3366
191 3372
191 3373
191 3376
191 3377
191 3378
191 3379
191 3384
191 3385
191 3386
191 3387
191 3393
191 3421
191 3427
191 3428
191 3439
191 3440
191 3442
191 3443
192 17
192 18
192 47
192 50
192 52
192 53
192 56
192 57
192 64
192 65
192 69
192 70
192 92
192 97
192 99
192 110
192 125
192 134
192 135
192 138
192 161
192 177
192 185
192 191
192 192
192 196
192 200
192 201
192 207
192 224
192 259
192 269
192 270
192 286
192 297
192 304
192 307
192 311
192 317
192 319
192 320
192 323
192 324
192 356
192 363
192 371
192 379
192 392
192 397
192 404
192 410
192 413
192 431
192 436
192 439
192 443
192 445
192 502
192 518
192 529
192 558
192 560
192 570
192 584
192 585
192 588
192 615
192 637
192 646
192 659
192 660
192 663
192 669
192 675
192 678
192 689
192 700
192 707
192 730
192 733
192 734
192 741
192 750
192 770
192 771
192 830
192 832
192 835
192 848
192 857
192 864
192 875
192 876
192 877
192 879
192 893
192 894
192 1062
192 1152
192 1161
192 1172
192 1186
192 1192
192 1193
192 1211
192 1215
192 1223
192 1225
192 1250
192 1254
192 1262
192 1264
192 1285
192 1307
192 1311
192 1323
192 1340
192 1341
192 1344
192 1357
192 1359
192 1361
192 1364
192 1373
192 1374
192 1443
192 1455
192 1470
192 1473
192 1491
192 1502
192 1551
192 1568
192 1571
192 1572
192 1612
192 1699
192 1700
192 1718
192 1746
192 1763
192 1769
192 1771
192 1773
192 1774
192 1775
192 1776
192 1777
192 1778
192 1779
192 1781
192 1782
192 1783
192 1784
192 1808
192 1809
192 1810
192 1811
192 1812
192 1813
192 1814
192 1815
192 1816
192 1817
192 1818
192 1819
192 1820
192 2002
192 2003
192 2046
192 2076
192 2091
192 2155
192 2159
192 2167
192 2169
192 2254
192 2275
192 2310
192 2313
192 2317
192 2329
192 2333
192 2341
192 2343
192 2386
192 2388
192 2391
192 2426
192 2432
192 2443
192 2507
192 2508
192 2510
192 2530
192 2630
192 2643
192 2664
192 2678
192 2702
192 2708
192 2732
192 2742
192 2758
192 2759
192 2761
192 2766
192 2767
192 2787
192 2789
192 2799
192 2849
192 2850
192 2894
192 2901
192 2904
192 2937
192 2950
192 2952
192 2953
192 2955
192 2995
192 3032
192 3054
192 3110
192 3148
192 3150
192 3151
192 3153
192 3206
192 3221
192 3235
192 3236
192 3238
192 3261
192 3265
192 3273
192 3302
192 3311
192 3312
192 3314
192 3368
192 3423
193 44
193 46
193 48
193 92
193 154
193 167
193 170
193 171
193 185
193 196
193 199
193 200
193 201
193 245
193 317
193 371
193 392
193 397
193 410
193 431
193 436
193 439
193 443
193 588
193 688
193 731
193 766
193 817
193 879
193 900
193 902
193 967
193 977
193 1003
193 1004
193 1082
193 1103
193 1148
193 1152
193 1172
193 1225
193 1241
193 1264
193 1280
193 1303
193 1307
193 1323
193 1344
193 1349
193 1374
193 1385
193 1404
193 1416
193 1466
193 1470
193 1491
193 1502
193 1516
193 1765
193 1821
193 2003
193 2011
193 2036
193 2105
193 2169
193 2189
193 2264
193 2313
193 2343
193 2363
193 2391
193 2432
193 2506
193 2543
193 2551
193 2757
193 2764
193 2791
193 2942
193 3140
193 3214
193 3234
193 3294
193 3310
194 16
194 20
194 22
194 26
194 58
194 59
194 60
194 61
194 62
194 68
194 81
194 89
194 92
194 105
194 106
194 107
194 111
194 113
194 115
194 120
194 128
194 131
194 136
194 141
194 156
194 168
194 175
194 176
194 177
194 179
194 181
194 182
194 184
194 191
194 194
194 196
194 197
194 200
194 201
194 209
194 210
194 283
194 288
194 301
194 305
194 311
194 341
194 350
194 362
194 365
194 371
194 377
194 379
194 392
194 397
194 399
194 410
194 431
194 436
194 439
194 443
194 460
194 465
194 466
194 467
194 470
194 471
194 506
194 554
194 564
194 576
194 588
194 691
194 692
194 711
194 754
194 773
194 774
194 777
194 778
194 786
194 804
194 805
194 807
194 823
194 824
194 831
194 867
194 879
194 909
194 911
194 917
194 918
194 922
194 923
194 924
194 939
194 940
194 943
194 944
194 954
194 955
194 960
194 962
194 965
194 966
194 968
194 974
194 975
194 976
194 980
194 983
194 1011
194 1012
194 1014
194 1015
194 1016
194 1017
194 1018
194 1022
194 1026
194 1027
194 1028
194 1031
194 1032
194 1033
194 1036
194 1037
194 1038
194 1039
194 1040
194 1041
194 1042
194 1043
194 1044
194 1046
194 1047
194 1048
194 1050
194 1054
194 1055
194 1056
194 1057
194 1058
194 1065
194 1074
194 1075
194 1076
194 1077
194 1078
194 1079
194 1090
194 1091
194 1092
194 1093
194 1094
194 1095
194 1152
194 1161
194 1172
194 1174
194 1182
194 1183
194 1212
194 1225
194 1251
194 1264
194 1307
194 1323
194 1344
194 1374
194 1394
194 1395
194 1396
194 1397
194 1398
194 1399
194 1409
194 1411
194 1412
194 1413
194 1422
194 1423
194 1424
194 1425
194 1470
194 1491
194 1502
194 1528
194 1529
194 1532
194 1536
194 1560
194 1563
194 1583
194 1584
194 1585
194 1586
194 1590
194 1610
194 1622
194 1708
194 1713
194 1769
194 1771
194 1773
194 1774
194 1775
194 1776
194 1777
194 1778
194 1779
194 1781
194 1782
194 1783
194 1784
194 1787
194 1788
194 1789
194 1791
194 1796
194 1799
194 1801
194 1811
194 1822
194 1823
194 1824
194 1825
194 1826
194 1827
194 1828
194 1829
194 1963
194 2003
194 2156
194 2169
194 2313
194 2316
194 2330
194 2343
194 2387
194 2391
194 2394
194 2399
194 2421
194 2422
194 2423
194 2424
194 2425
194 2426
194 2432
194 2435
194 2438
194 2439
194 2440
194 2441
194 2442
194 2443
194 2444
194 2484
194 2485
194 2490
194 2520
194 2521
194 2561
194 2574
194 2639
194 2640
194 2641
194 2642
194 2643
194 2644
194 2660
194 2661
194 2662
194 2663
194 2664
194 2665
194 2696
194 2697
194 2698
194 2699
194 2700
194 2701
194 2702
194 2703
194 2704
194 2705
194 2706
194 2707
194 2708
194 2735
194 2738
194 2739
194 2740
194 2741
194 2742
194 2743
194 2806
194 2807
194 2812
194 2813
194 2819
194 2820
194 2874
194 2877
194 2878
194 2888
194 2889
194 2890
194 2891
194 2892
194 2893
194 2894
194 2895
194 2896
194 2897
194 2898
194 2899
194 2900
194 2901
194 2902
194 2921
194 2928
194 2929
194 2943
194 2944
194 2945
194 2946
194 2947
194 2948
194 2949
194 2950
194 2951
194 2988
194 2989
194 2990
194 2991
194 2992
194 2993
194 2994
194 2995
194 2996
194 3027
194 3028
194 3029
194 3030
194 3031
194 3032
194 3033
194 3034
194 3047
194 3048
194 3073
194 3074
194 3080
194 3081
194 3087
194 3088
194 3094
194 3095
194 3106
194 3107
194 3108
194 3109
194 3110
194 3111
194 3126
194 3127
194 3136
194 3141
194 3142
194 3143
194 3144
194 3145
194 3146
194 3147
194 3148
194 3149
194 3225
194 3226
194 3262
194 3301
194 3363
194 3364
194 3365
194 3366
194 3367
194 3368
194 3369
194 3409
194 3410
194 3418
194 3419
194 3420
194 3421
194 3422
194 3423
194 3424
195 21
195 28
195 30
195 36
195 41
195 43
195 44
195 45
195 46
195 48
195 92
195 98
195 100
195 102
195 103
195 104
195 114
195 119
195 121
195 137
195 145
195 147
195 154
195 191
195 196
195 198
195 199
195 200
195 201
195 202
195 225
195 226
195 231
195 233
195 237
195 238
195 250
195 272
195 291
195 315
195 318
195 342
195 346
195 351
195 352
195 360
195 364
195 371
195 384
195 385
195 391
195 392
195 394
195 397
195 398
195 400
195 404
195 406
195 410
195 411
195 431
195 434
195 436
195 439
195 443
195 480
195 499
195 529
195 538
195 543
195 588
195 622
195 663
195 879
195 884
195 930
195 948
195 953
195 961
195 967
195 969
195 977
195 989
195 991
195 992
195 997
195 998
195 1000
195 1001
195 1002
195 1003
195 1004
195 1005
195 1006
195 1007
195 1008
195 1009
195 1019
195 1020
195 1030
195 1035
195 1073
195 1080
195 1081
195 1082
195 1083
195 1084
195 1085
195 1086
195 1087
195 1100
195 1102
195 1103
195 1104
195 1105
195 1106
195 1107
195 1109
195 1116
195 1117
195 1120
195 1121
195 1122
195 1130
195 1131
195 1132
195 1133
195 1134
195 1147
195 1148
195 1149
195 1150
195 1151
195 1152
195 1153
195 1154
195 1163
195 1164
195 1165
195 1166
195 1167
195 1168
195 1169
195 1170
195 1172
195 1173
195 1175
195 1176
195 1177
195 1179
195 1180
195 1198
195 1199
195 1200
195 1201
195 1202
195 1211
195 1217
195 1225
195 1226
195 1240
195 1241
195 1242
195 1243
195 1244
195 1245
195 1250
195 1256
195 1264
195 1265
195 1279
195 1280
195 1281
195 1282
195 1283
195 1284
195 1302
195 1303
195 1304
195 1305
195 1306
195 1307
195 1308
195 1309
195 1323
195 1325
195 1344
195 1348
195 1349
195 1350
195 1351
195 1352
195 1354
195 1374
195 1375
195 1384
195 1385
195 1386
195 1387
195 1388
195 1390
195 1400
195 1403
195 1404
195 1405
195 1406
195 1407
195 1408
195 1414
195 1415
195 1416
195 1417
195 1418
195 1419
195 1420
195 1421
195 1465
195 1466
195 1467
195 1468
195 1469
195 1470
195 1471
195 1472
195 1491
195 1492
195 1493
195 1502
195 1503
195 1515
195 1516
195 1517
195 1518
195 1519
195 1521
195 1554
195 1573
195 1579
195 1580
195 1581
195 1582
195 1593
195 1597
195 1598
195 1599
195 1602
195 1628
195 1633
195 1634
195 1704
195 1707
195 1758
195 1759
195 1760
195 1766
195 1767
195 1785
195 1830
195 1831
195 1832
195 1833
195 1939
195 2003
195 2004
195 2010
195 2011
195 2012
195 2013
195 2014
195 2015
195 2035
195 2036
195 2037
195 2038
195 2039
195 2040
195 2041
195 2104
195 2105
195 2106
195 2107
195 2108
195 2109
195 2143
195 2155
195 2161
195 2169
195 2170
195 2188
195 2189
195 2190
195 2191
195 2192
195 2194
195 2197
195 2263
195 2264
195 2265
195 2266
195 2267
195 2268
195 2313
195 2329
195 2335
195 2343
195 2344
195 2362
195 2363
195 2364
195 2365
195 2366
195 2368
195 2391
195 2427
195 2428
195 2429
195 2432
195 2466
195 2476
195 2478
195 2486
195 2514
195 2515
195 2522
195 2523
195 2532
195 2542
195 2543
195 2544
195 2545
195 2546
195 2548
195 2554
195 2556
195 2563
195 2564
195 2653
195 2654
195 2668
195 2669
195 2675
195 2687
195 2688
195 2715
195 2726
195 2732
195 2752
195 2753
195 2774
195 2789
195 2799
195 2849
195 2850
195 2852
195 2853
195 2854
195 2863
195 2864
195 2865
195 2866
195 2867
195 2868
195 2869
195 2870
195 2872
195 2873
195 2875
195 2876
195 2879
195 2880
195 2881
195 2882
195 2883
195 2884
195 2885
195 2886
195 2887
195 2903
195 2914
195 2915
195 2920
195 2932
195 2934
195 2937
195 2964
195 2965
195 2966
195 2984
195 2985
195 3001
195 3002
195 3003
195 3017
195 3018
195 3023
195 3024
195 3049
195 3050
195 3051
195 3052
195 3058
195 3102
195 3115
195 3161
195 3162
195 3163
195 3181
195 3182
195 3191
195 3192
195 3208
195 3213
195 3214
195 3215
195 3216
195 3217
195 3219
195 3221
195 3224
195 3227
195 3251
195 3252
195 3253
195 3254
195 3261
195 3267
195 3275
195 3293
195 3294
195 3295
195 3296
195 3297
195 3299
195 3306
195 3316
195 3318
195 3319
195 3320
195 3352
195 3373
195 3377
195 3379
195 3385
195 3387
195 3411
195 3412
195 3413
195 3425
195 3426
195 3428
195 3440
195 3443
196 20
196 21
196 22
196 28
196 30
196 33
196 36
196 39
196 41
196 43
196 45
196 80
196 83
196 85
196 86
196 87
196 93
196 96
196 97
196 98
196 99
196 100
196 101
196 102
196 103
196 104
196 106
196 107
196 108
196 110
196 111
196 113
196 114
196 115
196 117
196 119
196 121
196 123
196 124
196 125
196 126
196 127
196 128
196 131
196 132
196 134
196 135
196 136
196 137
196 138
196 139
196 144
196 145
196 146
196 147
196 148
196 151
196 152
196 154
196 156
196 157
196 161
196 162
196 164
196 167
196 168
196 169
196 170
196 175
196 176
196 179
196 180
196 181
196 182
196 184
196 185
196 191
196 192
196 193
196 194
196 195
196 197
196 198
196 199
196 200
196 201
196 202
196 218
196 224
196 225
196 237
196 238
196 241
196 247
196 248
196 250
196 258
196 271
196 272
196 276
196 283
196 288
196 291
196 315
196 317
196 319
196 320
196 329
196 336
196 383
196 384
196 391
196 393
196 398
196 403
196 404
196 406
196 426
196 459
196 480
196 499
196 500
196 513
196 526
196 529
196 543
196 547
196 553
196 558
196 560
196 569
196 571
196 622
196 630
196 641
196 663
196 688
196 691
196 692
196 700
196 726
196 733
196 734
196 749
196 750
196 767
196 772
196 774
196 776
196 779
196 781
196 796
196 831
196 836
196 843
196 849
196 853
196 856
196 864
196 865
196 867
196 878
196 882
196 883
196 884
196 893
196 894
196 907
196 910
196 927
196 930
196 938
196 961
196 969
196 1005
196 1019
196 1020
196 1035
196 1049
196 1050
196 1072
196 1080
196 1084
196 1100
196 1106
196 1109
196 1111
196 1112
196 1113
196 1114
196 1117
196 1121
196 1130
196 1131
196 1132
196 1133
196 1134
196 1144
196 1161
196 1162
196 1163
196 1164
196 1165
196 1166
196 1167
196 1168
196 1169
196 1170
196 1175
196 1179
196 1180
196 1198
196 1199
196 1201
196 1211
196 1213
196 1217
196 1249
196 1250
196 1252
196 1256
196 1311
196 1359
196 1364
196 1400
196 1414
196 1418
196 1525
196 1529
196 1535
196 1539
196 1540
196 1543
196 1544
196 1545
196 1547
196 1548
196 1560
196 1562
196 1574
196 1579
196 1580
196 1581
196 1582
196 1592
196 1593
196 1597
196 1598
196 1599
196 1602
196 1605
196 1609
196 1611
196 1612
196 1620
196 1639
196 1641
196 1650
196 1658
196 1664
196 1678
196 1704
196 1707
196 1709
196 1710
196 1714
196 1716
196 1739
196 1746
196 1758
196 1759
196 1760
196 1763
196 1766
196 1767
196 1772
196 1773
196 1785
196 1788
196 1804
196 1805
196 1821
196 1825
196 1826
196 1830
196 1834
196 1835
196 1836
196 1837
196 1838
196 1839
196 1840
196 1841
196 1842
196 1843
196 1844
196 1857
196 1862
196 1934
196 1984
196 2032
196 2155
196 2157
196 2160
196 2161
196 2198
196 2223
196 2307
196 2316
196 2329
196 2331
196 2334
196 2335
196 2371
196 2374
196 2378
196 2387
196 2394
196 2399
196 2418
196 2427
196 2435
196 2444
196 2465
196 2486
196 2507
196 2508
196 2509
196 2510
196 2512
196 2513
196 2514
196 2515
196 2518
196 2522
196 2523
196 2552
196 2553
196 2554
196 2556
196 2559
196 2563
196 2564
196 2567
196 2569
196 2584
196 2604
196 2619
196 2652
196 2653
196 2654
196 2668
196 2669
196 2672
196 2675
196 2687
196 2688
196 2690
196 2694
196 2710
196 2711
196 2715
196 2718
196 2726
196 2732
196 2734
196 2736
196 2737
196 2751
196 2752
196 2753
196 2756
196 2758
196 2759
196 2760
196 2761
196 2765
196 2766
196 2767
196 2768
196 2770
196 2773
196 2774
196 2775
196 2780
196 2787
196 2789
196 2793
196 2799
196 2801
196 2805
196 2806
196 2807
196 2808
196 2809
196 2811
196 2812
196 2813
196 2814
196 2815
196 2818
196 2819
196 2820
196 2821
196 2822
196 2823
196 2824
196 2827
196 2838
196 2839
196 2849
196 2850
196 2852
196 2853
196 2854
196 2863
196 2864
196 2865
196 2866
196 2867
196 2868
196 2869
196 2870
196 2872
196 2873
196 2875
196 2876
196 2879
196 2880
196 2881
196 2882
196 2883
196 2884
196 2885
196 2886
196 2887
196 2903
196 2914
196 2915
196 2918
196 2920
196 2924
196 2927
196 2928
196 2929
196 2930
196 2931
196 2932
196 2934
196 2937
196 2938
196 2941
196 2952
196 2953
196 2954
196 2955
196 2957
196 2958
196 2963
196 2964
196 2965
196 2966
196 2969
196 2973
196 2975
196 2984
196 2985
196 2987
196 2997
196 3000
196 3001
196 3002
196 3003
196 3006
196 3017
196 3018
196 3023
196 3024
196 3035
196 3040
196 3049
196 3050
196 3051
196 3052
196 3058
196 3063
196 3072
196 3073
196 3074
196 3075
196 3076
196 3079
196 3080
196 3081
196 3082
196 3083
196 3086
196 3087
196 3088
196 3089
196 3090
196 3091
196 3093
196 3094
196 3095
196 3096
196 3097
196 3098
196 3099
196 3101
196 3102
196 3114
196 3115
196 3121
196 3123
196 3125
196 3126
196 3127
196 3128
196 3129
196 3136
196 3139
196 3150
196 3151
196 3152
196 3153
196 3155
196 3156
196 3161
196 3162
196 3163
196 3166
196 3170
196 3172
196 3174
196 3181
196 3182
196 3186
196 3195
196 3221
196 3223
196 3224
196 3227
196 3229
196 3230
196 3231
196 3233
196 3235
196 3236
196 3237
196 3238
196 3251
196 3252
196 3253
196 3254
196 3261
196 3263
196 3266
196 3267
196 3311
196 3312
196 3313
196 3314
196 3324
196 3330
196 3333
196 3343
196 3347
196 3349
196 3350
196 3351
196 3352
196 3356
196 3360
196 3372
196 3373
196 3376
196 3377
196 3378
196 3379
196 3383
196 3384
196 3385
196 3386
196 3387
196 3392
196 3393
196 3407
196 3411
196 3412
196 3413
196 3416
196 3425
196 3426
196 3427
196 3428
196 3429
196 3430
196 3431
196 3434
196 3439
196 3440
196 3442
196 3443
197 16
197 21
197 26
197 28
197 30
197 36
197 41
197 43
197 44
197 45
197 46
197 48
197 58
197 59
197 60
197 61
197 62
197 63
197 67
197 68
197 79
197 81
197 89
197 92
197 96
197 100
197 102
197 103
197 104
197 105
197 106
197 107
197 111
197 113
197 114
197 115
197 119
197 120
197 121
197 122
197 127
197 128
197 141
197 145
197 146
197 147
197 154
197 157
197 160
197 162
197 168
197 172
197 173
197 175
197 176
197 177
197 179
197 181
197 182
197 184
197 190
197 194
197 196
197 197
197 198
197 200
197 201
197 202
197 205
197 207
197 208
197 209
197 210
197 211
197 225
197 226
197 228
197 231
197 233
197 237
197 238
197 240
197 250
197 253
197 254
197 271
197 272
197 273
197 275
197 277
197 279
197 281
197 283
197 288
197 301
197 305
197 309
197 310
197 311
197 314
197 315
197 318
197 340
197 341
197 342
197 343
197 346
197 350
197 351
197 352
197 360
197 362
197 364
197 365
197 368
197 369
197 371
197 375
197 379
197 384
197 385
197 391
197 392
197 394
197 397
197 398
197 399
197 400
197 406
197 410
197 411
197 417
197 431
197 434
197 436
197 439
197 443
197 451
197 455
197 456
197 459
197 460
197 465
197 466
197 467
197 468
197 469
197 470
197 471
197 480
197 499
197 501
197 506
197 513
197 514
197 515
197 523
197 527
197 538
197 543
197 553
197 564
197 565
197 571
197 572
197 576
197 582
197 588
197 593
197 603
197 613
197 622
197 631
197 632
197 644
197 657
197 691
197 692
197 711
197 714
197 718
197 754
197 772
197 775
197 777
197 778
197 792
197 794
197 799
197 807
197 808
197 846
197 866
197 879
197 880
197 881
197 889
197 895
197 909
197 911
197 917
197 918
197 922
197 923
197 924
197 930
197 939
197 940
197 943
197 944
197 948
197 953
197 954
197 955
197 960
197 961
197 962
197 965
197 966
197 967
197 968
197 969
197 974
197 975
197 976
197 977
197 980
197 983
197 989
197 991
197 992
197 994
197 995
197 997
197 998
197 1000
197 1001
197 1002
197 1003
197 1004
197 1005
197 1006
197 1007
197 1008
197 1009
197 1011
197 1012
197 1014
197 1015
197 1016
197 1017
197 1018
197 1019
197 1020
197 1022
197 1026
197 1027
197 1028
197 1030
197 1031
197 1032
197 1033
197 1035
197 1036
197 1037
197 1038
197 1039
197 1040
197 1041
197 1042
197 1043
197 1044
197 1046
197 1047
197 1048
197 1050
197 1054
197 1055
197 1056
197 1057
197 1058
197 1065
197 1073
197 1074
197 1075
197 1076
197 1077
197 1078
197 1079
197 1080
197 1081
197 1082
197 1083
197 1084
197 1085
197 1086
197 1087
197 1090
197 1091
197 1092
197 1093
197 1094
197 1095
197 1100
197 1102
197 1103
197 1104
197 1105
197 1106
197 1107
197 1109
197 1116
197 1117
197 1120
197 1121
197 1122
197 1130
197 1131
197 1132
197 1133
197 1134
197 1147
197 1148
197 1149
197 1150
197 1151
197 1152
197 1153
197 1154
197 1158
197 1159
197 1160
197 1163
197 1164
197 1165
197 1166
197 1167
197 1168
197 1169
197 1170
197 1172
197 1173
197 1174
197 1175
197 1176
197 1177
197 1179
197 1180
197 1182
197 1183
197 1198
197 1199
197 1200
197 1201
197 1202
197 1212
197 1217
197 1221
197 1225
197 1226
197 1240
197 1241
197 1242
197 1243
197 1244
197 1245
197 1251
197 1256
197 1259
197 1264
197 1265
197 1279
197 1280
197 1281
197 1282
197 1283
197 1284
197 1302
197 1303
197 1304
197 1305
197 1306
197 1307
197 1308
197 1309
197 1323
197 1325
197 1344
197 1348
197 1349
197 1350
197 1351
197 1352
197 1354
197 1374
197 1375
197 1384
197 1385
197 1386
197 1387
197 1388
197 1390
197 1394
197 1395
197 1396
197 1397
197 1398
197 1399
197 1400
197 1403
197 1404
197 1405
197 1406
197 1407
197 1408
197 1409
197 1411
197 1412
197 1413
197 1414
197 1415
197 1416
197 1417
197 1418
197 1419
197 1420
197 1421
197 1422
197 1423
197 1424
197 1425
197 1427
197 1429
197 1430
197 1431
197 1432
197 1433
197 1434
197 1444
197 1445
197 1446
197 1465
197 1466
197 1467
197 1468
197 1469
197 1470
197 1471
197 1472
197 1475
197 1491
197 1492
197 1493
197 1502
197 1503
197 1515
197 1516
197 1517
197 1518
197 1519
197 1521
197 1528
197 1529
197 1532
197 1554
197 1560
197 1563
197 1573
197 1577
197 1579
197 1580
197 1581
197 1582
197 1583
197 1584
197 1585
197 1586
197 1590
197 1593
197 1597
197 1598
197 1599
197 1600
197 1601
197 1602
197 1606
197 1608
197 1610
197 1622
197 1628
197 1633
197 1634
197 1636
197 1663
197 1672
197 1677
197 1704
197 1707
197 1708
197 1713
197 1719
197 1720
197 1734
197 1747
197 1758
197 1759
197 1760
197 1766
197 1767
197 1769
197 1771
197 1773
197 1774
197 1775
197 1776
197 1777
197 1778
197 1779
197 1781
197 1782
197 1783
197 1784
197 1785
197 1787
197 1788
197 1789
197 1791
197 1796
197 1799
197 1801
197 1811
197 1820
197 1822
197 1823
197 1824
197 1825
197 1827
197 1828
197 1831
197 1833
197 1845
197 1846
197 1847
197 1848
197 1849
197 1850
197 1901
197 1931
197 1939
197 1963
197 1973
197 1980
197 2003
197 2004
197 2010
197 2011
197 2012
197 2013
197 2014
197 2015
197 2035
197 2036
197 2037
197 2038
197 2039
197 2040
197 2041
197 2104
197 2105
197 2106
197 2107
197 2108
197 2109
197 2128
197 2131
197 2132
197 2137
197 2139
197 2156
197 2161
197 2165
197 2169
197 2170
197 2188
197 2189
197 2190
197 2191
197 2192
197 2194
197 2204
197 2263
197 2264
197 2265
197 2266
197 2267
197 2268
197 2295
197 2296
197 2297
197 2299
197 2313
197 2316
197 2330
197 2335
197 2339
197 2343
197 2344
197 2362
197 2363
197 2364
197 2365
197 2366
197 2368
197 2387
197 2391
197 2394
197 2399
197 2421
197 2422
197 2423
197 2424
197 2425
197 2426
197 2427
197 2428
197 2429
197 2432
197 2435
197 2438
197 2439
197 2440
197 2441
197 2442
197 2443
197 2444
197 2466
197 2476
197 2478
197 2484
197 2485
197 2486
197 2490
197 2495
197 2496
197 2498
197 2514
197 2515
197 2520
197 2521
197 2522
197 2523
197 2532
197 2542
197 2543
197 2544
197 2545
197 2546
197 2548
197 2554
197 2556
197 2561
197 2563
197 2564
197 2574
197 2608
197 2609
197 2610
197 2611
197 2612
197 2613
197 2617
197 2618
197 2636
197 2637
197 2638
197 2639
197 2640
197 2641
197 2642
197 2643
197 2644
197 2647
197 2650
197 2653
197 2654
197 2660
197 2661
197 2662
197 2663
197 2664
197 2665
197 2668
197 2669
197 2675
197 2687
197 2688
197 2691
197 2692
197 2696
197 2697
197 2698
197 2699
197 2700
197 2701
197 2702
197 2703
197 2704
197 2705
197 2706
197 2707
197 2708
197 2715
197 2726
197 2727
197 2735
197 2738
197 2739
197 2740
197 2741
197 2742
197 2743
197 2752
197 2753
197 2788
197 2852
197 2853
197 2854
197 2863
197 2864
197 2865
197 2866
197 2867
197 2868
197 2869
197 2870
197 2872
197 2873
197 2874
197 2875
197 2876
197 2877
197 2878
197 2879
197 2880
197 2881
197 2882
197 2883
197 2884
197 2885
197 2886
197 2887
197 2888
197 2889
197 2890
197 2891
197 2892
197 2893
197 2894
197 2895
197 2896
197 2897
197 2898
197 2899
197 2900
197 2901
197 2902
197 2903
197 2914
197 2915
197 2920
197 2921
197 2932
197 2934
197 2943
197 2944
197 2945
197 2946
197 2947
197 2948
197 2949
197 2950
197 2951
197 2964
197 2965
197 2966
197 2984
197 2985
197 2988
197 2989
197 2990
197 2991
197 2992
197 2993
197 2994
197 2995
197 2996
197 3001
197 3002
197 3003
197 3017
197 3018
197 3023
197 3024
197 3027
197 3028
197 3029
197 3030
197 3031
197 3032
197 3033
197 3034
197 3047
197 3048
197 3049
197 3050
197 3051
197 3052
197 3058
197 3106
197 3107
197 3108
197 3109
197 3110
197 3111
197 3136
197 3141
197 3142
197 3143
197 3144
197 3145
197 3146
197 3147
197 3148
197 3149
197 3161
197 3162
197 3163
197 3181
197 3182
197 3208
197 3213
197 3214
197 3215
197 3216
197 3217
197 3219
197 3224
197 3225
197 3226
197 3227
197 3251
197 3252
197 3253
197 3254
197 3262
197 3267
197 3271
197 3275
197 3293
197 3294
197 3295
197 3296
197 3297
197 3299
197 3301
197 3304
197 3363
197 3364
197 3365
197 3366
197 3367
197 3368
197 3369
197 3409
197 3410
197 3411
197 3412
197 3413
197 3418
197 3419
197 3420
197 3421
197 3422
197 3423
197 3424
197 3425
197 3426
198 16
198 21
198 26
198 28
198 30
198 36
198 41
198 43
198 44
198 45
198 46
198 48
198 58
198 59
198 92
198 98
198 100
198 102
198 103
198 104
198 105
198 106
198 107
198 111
198 113
198 114
198 115
198 119
198 121
198 128
198 137
198 145
198 147
198 154
198 174
198 181
198 182
198 184
198 191
198 195
198 196
198 197
198 199
198 200
198 201
198 202
198 220
198 225
198 237
198 238
198 250
198 272
198 291
198 315
198 341
198 350
198 360
198 371
198 391
198 392
198 397
198 404
198 406
198 410
198 411
198 423
198 429
198 431
198 436
198 439
198 443
198 449
198 499
198 529
198 588
198 621
198 663
198 708
198 749
198 754
198 807
198 879
198 909
198 917
198 918
198 922
198 923
198 924
198 930
198 939
198 940
198 943
198 944
198 948
198 953
198 954
198 955
198 960
198 961
198 962
198 963
198 964
198 965
198 966
198 967
198 968
198 969
198 970
198 972
198 974
198 975
198 976
198 977
198 980
198 983
198 989
198 991
198 992
198 997
198 998
198 999
198 1000
198 1001
198 1002
198 1003
198 1004
198 1005
198 1008
198 1009
198 1011
198 1012
198 1013
198 1014
198 1015
198 1016
198 1017
198 1018
198 1019
198 1020
198 1022
198 1023
198 1026
198 1027
198 1028
198 1030
198 1031
198 1032
198 1033
198 1035
198 1036
198 1037
198 1038
198 1039
198 1040
198 1041
198 1042
198 1043
198 1044
198 1045
198 1046
198 1047
198 1048
198 1049
198 1050
198 1051
198 1052
198 1054
198 1055
198 1056
198 1057
198 1058
198 1073
198 1074
198 1075
198 1076
198 1077
198 1078
198 1079
198 1081
198 1082
198 1083
198 1084
198 1086
198 1087
198 1089
198 1090
198 1091
198 1092
198 1093
198 1094
198 1095
198 1100
198 1102
198 1103
198 1104
198 1106
198 1107
198 1109
198 1116
198 1117
198 1120
198 1121
198 1122
198 1130
198 1131
198 1132
198 1133
198 1134
198 1147
198 1148
198 1149
198 1151
198 1152
198 1153
198 1154
198 1163
198 1164
198 1165
198 1166
198 1167
198 1168
198 1169
198 1170
198 1172
198 1173
198 1174
198 1175
198 1176
198 1177
198 1179
198 1180
198 1181
198 1182
198 1183
198 1198
198 1199
198 1200
198 1201
198 1202
198 1211
198 1212
198 1225
198 1226
198 1227
198 1240
198 1241
198 1242
198 1244
198 1245
198 1250
198 1251
198 1264
198 1265
198 1266
198 1279
198 1280
198 1281
198 1283
198 1284
198 1302
198 1303
198 1304
198 1306
198 1307
198 1308
198 1309
198 1323
198 1325
198 1344
198 1348
198 1349
198 1350
198 1352
198 1354
198 1374
198 1375
198 1384
198 1385
198 1386
198 1388
198 1390
198 1394
198 1395
198 1396
198 1397
198 1398
198 1399
198 1400
198 1403
198 1404
198 1405
198 1407
198 1408
198 1409
198 1410
198 1411
198 1412
198 1413
198 1414
198 1415
198 1416
198 1417
198 1418
198 1420
198 1421
198 1465
198 1466
198 1467
198 1469
198 1470
198 1471
198 1472
198 1491
198 1492
198 1493
198 1502
198 1503
198 1505
198 1515
198 1516
198 1517
198 1519
198 1521
198 1528
198 1529
198 1532
198 1554
198 1562
198 1563
198 1573
198 1579
198 1580
198 1581
198 1582
198 1593
198 1597
198 1598
198 1599
198 1602
198 1613
198 1628
198 1637
198 1638
198 1704
198 1707
198 1708
198 1713
198 1758
198 1759
198 1760
198 1766
198 1767
198 1769
198 1771
198 1773
198 1774
198 1775
198 1776
198 1777
198 1778
198 1779
198 1781
198 1782
198 1783
198 1784
198 1785
198 1787
198 1788
198 1789
198 1791
198 1796
198 1799
198 1801
198 1804
198 1805
198 1824
198 1825
198 1827
198 1828
198 1830
198 1831
198 1833
198 1851
198 1852
198 1853
198 1854
198 1855
198 1856
198 1857
198 1858
198 1947
198 1963
198 2003
198 2004
198 2006
198 2010
198 2011
198 2012
198 2014
198 2015
198 2035
198 2036
198 2037
198 2039
198 2040
198 2041
198 2049
198 2064
198 2080
198 2092
198 2104
198 2105
198 2106
198 2108
198 2109
198 2155
198 2156
198 2169
198 2170
198 2171
198 2188
198 2189
198 2190
198 2192
198 2194
198 2215
198 2234
198 2263
198 2264
198 2265
198 2267
198 2268
198 2282
198 2313
198 2329
198 2330
198 2343
198 2344
198 2345
198 2362
198 2363
198 2364
198 2366
198 2368
198 2391
198 2409
198 2421
198 2422
198 2423
198 2424
198 2425
198 2426
198 2427
198 2428
198 2429
198 2432
198 2438
198 2439
198 2440
198 2441
198 2442
198 2443
198 2453
198 2466
198 2476
198 2478
198 2484
198 2485
198 2486
198 2487
198 2514
198 2515
198 2520
198 2521
198 2522
198 2523
198 2527
198 2532
198 2542
198 2543
198 2544
198 2546
198 2548
198 2554
198 2556
198 2561
198 2563
198 2564
198 2574
198 2575
198 2599
198 2639
198 2640
198 2641
198 2642
198 2643
198 2644
198 2653
198 2654
198 2660
198 2661
198 2662
198 2663
198 2664
198 2665
198 2668
198 2669
198 2675
198 2687
198 2688
198 2696
198 2697
198 2698
198 2699
198 2700
198 2701
198 2702
198 2703
198 2704
198 2705
198 2706
198 2707
198 2708
198 2712
198 2715
198 2726
198 2730
198 2732
198 2735
198 2738
198 2739
198 2740
198 2741
198 2742
198 2743
198 2753
198 2773
198 2774
198 2789
198 2799
198 2839
198 2849
198 2850
198 2852
198 2854
198 2863
198 2864
198 2865
198 2866
198 2868
198 2869
198 2870
198 2872
198 2873
198 2874
198 2875
198 2876
198 2877
198 2878
198 2879
198 2881
198 2882
198 2883
198 2884
198 2885
198 2886
198 2887
198 2888
198 2889
198 2890
198 2891
198 2892
198 2893
198 2894
198 2895
198 2896
198 2897
198 2898
198 2899
198 2900
198 2901
198 2902
198 2903
198 2913
198 2914
198 2915
198 2920
198 2921
198 2922
198 2932
198 2934
198 2935
198 2936
198 2937
198 2939
198 2943
198 2944
198 2945
198 2946
198 2947
198 2948
198 2949
198 2950
198 2951
198 2963
198 2964
198 2965
198 2966
198 2976
198 2984
198 2985
198 2988
198 2989
198 2990
198 2991
198 2992
198 2993
198 2994
198 2995
198 2996
198 3000
198 3001
198 3002
198 3003
198 3010
198 3017
198 3018
198 3023
198 3024
198 3025
198 3027
198 3028
198 3029
198 3030
198 3031
198 3032
198 3033
198 3034
198 3035
198 3041
198 3046
198 3047
198 3048
198 3049
198 3050
198 3051
198 3052
198 3058
198 3059
198 3064
198 3101
198 3102
198 3104
198 3105
198 3106
198 3107
198 3108
198 3109
198 3110
198 3111
198 3114
198 3115
198 3122
198 3130
198 3141
198 3142
198 3143
198 3144
198 3145
198 3146
198 3147
198 3148
198 3149
198 3161
198 3162
198 3163
198 3173
198 3174
198 3181
198 3182
198 3186
198 3208
198 3213
198 3214
198 3215
198 3217
198 3219
198 3221
198 3225
198 3226
198 3227
198 3228
198 3229
198 3251
198 3252
198 3253
198 3254
198 3261
198 3262
198 3275
198 3276
198 3293
198 3294
198 3295
198 3297
198 3299
198 3301
198 3305
198 3323
198 3324
198 3332
198 3333
198 3351
198 3352
198 3363
198 3364
198 3365
198 3366
198 3367
198 3368
198 3369
198 3372
198 3373
198 3376
198 3377
198 3378
198 3379
198 3384
198 3385
198 3386
198 3387
198 3393
198 3409
198 3410
198 3411
198 3412
198 3413
198 3418
198 3419
198 3420
198 3421
198 3422
198 3423
198 3424
198 3425
198 3426
198 3427
198 3428
198 3436
198 3439
198 3440
198 3442
198 3443
199 20
199 21
199 22
199 26
199 28
199 30
199 33
199 36
199 39
199 41
199 43
199 45
199 76
199 80
199 83
199 85
199 86
199 87
199 92
199 93
199 94
199 98
199 100
199 102
199 103
199 104
199 107
199 114
199 117
199 119
199 121
199 131
199 132
199 134
199 135
199 136
199 137
199 139
199 144
199 145
199 147
199 151
199 152
199 154
199 155
199 156
199 161
199 162
199 167
199 170
199 187
199 191
199 193
199 195
199 196
199 198
199 200
199 201
199 202
199 210
199 218
199 224
199 225
199 237
199 238
199 247
199 248
199 250
199 272
199 276
199 283
199 288
199 291
199 315
199 327
199 329
199 336
199 366
199 370
199 371
199 383
199 384
199 391
199 392
199 393
199 397
199 398
199 403
199 404
199 406
199 407
199 410
199 426
199 427
199 428
199 431
199 436
199 439
199 441
199 443
199 457
199 458
199 465
199 466
199 467
199 470
199 480
199 491
199 493
199 498
199 499
199 500
199 526
199 529
199 530
199 537
199 543
199 547
199 550
199 569
199 571
199 588
199 591
199 622
199 629
199 630
199 641
199 663
199 688
199 700
199 711
199 726
199 733
199 734
199 749
199 750
199 767
199 774
199 776
199 779
199 781
199 796
199 831
199 836
199 841
199 849
199 853
199 856
199 864
199 865
199 867
199 878
199 879
199 882
199 883
199 884
199 893
199 894
199 909
199 910
199 930
199 938
199 960
199 961
199 968
199 969
199 974
199 1005
199 1016
199 1019
199 1020
199 1026
199 1027
199 1028
199 1030
199 1035
199 1047
199 1048
199 1056
199 1072
199 1076
199 1080
199 1084
199 1092
199 1100
199 1106
199 1109
199 1111
199 1112
199 1113
199 1114
199 1117
199 1121
199 1130
199 1131
199 1132
199 1133
199 1134
199 1144
199 1152
199 1162
199 1163
199 1164
199 1165
199 1166
199 1167
199 1168
199 1169
199 1170
199 1172
199 1174
199 1175
199 1179
199 1180
199 1183
199 1198
199 1199
199 1201
199 1211
199 1213
199 1217
199 1219
199 1225
199 1238
199 1249
199 1250
199 1252
199 1256
199 1258
199 1264
199 1277
199 1300
199 1307
199 1323
199 1344
199 1374
199 1393
199 1395
199 1400
199 1409
199 1414
199 1418
199 1470
199 1491
199 1502
199 1525
199 1527
199 1535
199 1539
199 1540
199 1543
199 1544
199 1545
199 1547
199 1548
199 1555
199 1560
199 1562
199 1574
199 1579
199 1580
199 1581
199 1582
199 1592
199 1593
199 1597
199 1598
199 1599
199 1602
199 1605
199 1609
199 1611
199 1612
199 1620
199 1622
199 1639
199 1641
199 1650
199 1658
199 1664
199 1678
199 1704
199 1707
199 1709
199 1710
199 1714
199 1716
199 1739
199 1758
199 1759
199 1760
199 1763
199 1766
199 1767
199 1772
199 1785
199 1804
199 1805
199 1821
199 1826
199 1827
199 1828
199 1830
199 1834
199 1835
199 1836
199 1837
199 1838
199 1839
199 1840
199 1841
199 1842
199 1843
199 1844
199 1857
199 1859
199 1860
199 1861
199 1862
199 1863
199 1864
199 1865
199 1866
199 1867
199 1868
199 1869
199 1870
199 1871
199 1872
199 1934
199 1963
199 1984
199 2003
199 2032
199 2056
199 2155
199 2157
199 2160
199 2161
199 2163
199 2169
199 2185
199 2186
199 2187
199 2198
199 2223
199 2307
199 2313
199 2316
199 2322
199 2323
199 2324
199 2329
199 2331
199 2334
199 2335
199 2337
199 2343
199 2359
199 2360
199 2361
199 2371
199 2374
199 2378
199 2387
199 2391
199 2394
199 2399
199 2418
199 2423
199 2427
199 2432
199 2435
199 2440
199 2444
199 2465
199 2475
199 2486
199 2491
199 2492
199 2507
199 2508
199 2509
199 2510
199 2512
199 2513
199 2514
199 2515
199 2518
199 2521
199 2522
199 2523
199 2552
199 2553
199 2554
199 2556
199 2559
199 2563
199 2564
199 2567
199 2569
199 2584
199 2585
199 2586
199 2604
199 2619
199 2631
199 2635
199 2640
199 2652
199 2653
199 2654
199 2661
199 2668
199 2669
199 2672
199 2675
199 2687
199 2688
199 2690
199 2694
199 2698
199 2705
199 2710
199 2711
199 2715
199 2718
199 2726
199 2732
199 2734
199 2736
199 2737
199 2739
199 2751
199 2752
199 2753
199 2756
199 2758
199 2759
199 2760
199 2761
199 2765
199 2766
199 2767
199 2768
199 2770
199 2773
199 2774
199 2775
199 2780
199 2789
199 2793
199 2799
199 2801
199 2805
199 2806
199 2807
199 2808
199 2809
199 2811
199 2812
199 2813
199 2814
199 2815
199 2818
199 2819
199 2820
199 2821
199 2822
199 2823
199 2824
199 2827
199 2838
199 2839
199 2849
199 2850
199 2852
199 2853
199 2854
199 2863
199 2864
199 2865
199 2866
199 2867
199 2868
199 2869
199 2870
199 2871
199 2872
199 2873
199 2874
199 2875
199 2876
199 2879
199 2880
199 2881
199 2882
199 2883
199 2884
199 2885
199 2886
199 2887
199 2891
199 2898
199 2903
199 2905
199 2909
199 2910
199 2911
199 2914
199 2915
199 2918
199 2920
199 2921
199 2924
199 2927
199 2928
199 2929
199 2930
199 2931
199 2932
199 2934
199 2937
199 2938
199 2941
199 2945
199 2952
199 2953
199 2954
199 2955
199 2957
199 2958
199 2959
199 2963
199 2964
199 2965
199 2966
199 2969
199 2973
199 2975
199 2983
199 2984
199 2985
199 2987
199 2990
199 2997
199 2998
199 3000
199 3001
199 3002
199 3003
199 3006
199 3016
199 3017
199 3018
199 3022
199 3023
199 3024
199 3028
199 3035
199 3040
199 3049
199 3050
199 3051
199 3052
199 3058
199 3063
199 3072
199 3073
199 3074
199 3075
199 3076
199 3079
199 3080
199 3081
199 3082
199 3083
199 3086
199 3087
199 3088
199 3089
199 3090
199 3091
199 3093
199 3094
199 3095
199 3096
199 3097
199 3098
199 3099
199 3101
199 3102
199 3107
199 3114
199 3115
199 3121
199 3123
199 3125
199 3126
199 3127
199 3128
199 3129
199 3136
199 3139
199 3143
199 3150
199 3151
199 3152
199 3153
199 3155
199 3156
199 3157
199 3161
199 3162
199 3163
199 3166
199 3170
199 3172
199 3174
199 3180
199 3181
199 3182
199 3186
199 3195
199 3211
199 3212
199 3221
199 3223
199 3224
199 3227
199 3229
199 3230
199 3231
199 3233
199 3235
199 3236
199 3237
199 3238
199 3248
199 3249
199 3250
199 3251
199 3252
199 3253
199 3254
199 3257
199 3261
199 3263
199 3266
199 3267
199 3269
199 3290
199 3291
199 3292
199 3311
199 3312
199 3313
199 3314
199 3324
199 3330
199 3333
199 3340
199 3343
199 3347
199 3349
199 3350
199 3351
199 3352
199 3356
199 3360
199 3362
199 3365
199 3372
199 3373
199 3376
199 3377
199 3378
199 3379
199 3383
199 3384
199 3385
199 3386
199 3387
199 3391
199 3392
199 3393
199 3407
199 3411
199 3412
199 3413
199 3416
199 3420
199 3425
199 3426
199 3427
199 3428
199 3429
199 3430
199 3431
199 3434
199 3438
199 3439
199 3440
199 3442
199 3443
200 13
200 15
200 16
200 17
200 18
200 20
200 21
200 22
200 26
200 28
200 29
200 30
200 33
200 35
200 36
200 38
200 39
200 40
200 41
200 43
200 44
200 45
200 46
200 48
200 49
200 56
200 58
200 59
200 60
200 61
200 62
200 68
200 74
200 75
200 76
200 80
200 83
200 85
200 86
200 87
200 92
200 93
200 94
200 98
200 100
200 102
200 103
200 104
200 105
200 106
200 107
200 108
200 111
200 113
200 114
200 115
200 117
200 119
200 121
200 123
200 124
200 125
200 126
200 128
200 131
200 132
200 133
200 134
200 135
200 136
200 137
200 139
200 144
200 145
200 147
200 148
200 151
200 152
200 154
200 155
200 156
200 159
200 160
200 161
200 164
200 166
200 167
200 169
200 170
200 175
200 176
200 178
200 181
200 182
200 184
200 185
200 187
200 189
200 191
200 192
200 193
200 194
200 195
200 196
200 197
200 198
200 199
200 201
200 202
200 203
200 209
200 212
200 213
200 214
200 215
200 216
200 217
200 218
200 224
200 225
200 226
200 228
200 229
200 230
200 231
200 232
200 233
200 234
200 235
200 237
200 238
200 241
200 247
200 248
200 249
200 250
200 253
200 254
200 255
200 256
200 272
200 273
200 276
200 282
200 283
200 288
200 289
200 291
200 292
200 293
200 301
200 302
200 305
200 308
200 313
200 315
200 317
200 318
200 319
200 320
200 327
200 328
200 329
200 331
200 332
200 336
200 337
200 340
200 341
200 342
200 346
200 347
200 350
200 351
200 352
200 354
200 357
200 360
200 364
200 366
200 371
200 377
200 383
200 384
200 385
200 388
200 391
200 392
200 393
200 394
200 397
200 398
200 400
200 403
200 404
200 406
200 410
200 411
200 414
200 415
200 416
200 420
200 423
200 426
200 427
200 428
200 431
200 433
200 434
200 436
200 439
200 442
200 443
200 457
200 458
200 474
200 480
200 491
200 493
200 495
200 498
200 499
200 500
200 503
200 507
200 509
200 512
200 516
200 517
200 518
200 519
200 520
200 521
200 526
200 528
200 529
200 530
200 537
200 540
200 541
200 543
200 544
200 547
200 550
200 552
200 560
200 564
200 566
200 568
200 569
200 571
200 574
200 577
200 578
200 579
200 582
200 583
200 584
200 586
200 588
200 591
200 592
200 593
200 594
200 595
200 596
200 597
200 598
200 599
200 612
200 613
200 614
200 616
200 621
200 622
200 623
200 625
200 626
200 627
200 629
200 630
200 631
200 634
200 636
200 637
200 641
200 643
200 644
200 649
200 650
200 651
200 652
200 653
200 656
200 657
200 660
200 663
200 667
200 676
200 677
200 678
200 679
200 681
200 682
200 683
200 684
200 688
200 691
200 692
200 693
200 695
200 696
200 697
200 698
200 700
200 701
200 702
200 703
200 704
200 705
200 707
200 708
200 715
200 717
200 721
200 724
200 725
200 726
200 728
200 729
200 731
200 733
200 734
200 737
200 744
200 746
200 749
200 750
200 753
200 754
200 759
200 763
200 764
200 766
200 767
200 774
200 776
200 779
200 780
200 781
200 782
200 783
200 786
200 789
200 794
200 796
200 797
200 799
200 800
200 807
200 808
200 816
200 817
200 820
200 822
200 823
200 824
200 831
200 833
200 835
200 836
200 840
200 841
200 844
200 846
200 847
200 849
200 850
200 852
200 853
200 856
200 858
200 859
200 864
200 865
200 867
200 874
200 877
200 878
200 879
200 882
200 883
200 884
200 889
200 893
200 894
200 896
200 899
200 900
200 902
200 908
200 909
200 910
200 911
200 912
200 915
200 916
200 917
200 918
200 919
200 920
200 921
200 922
200 923
200 924
200 930
200 931
200 935
200 936
200 938
200 939
200 940
200 941
200 943
200 944
200 946
200 947
200 948
200 949
200 950
200 951
200 952
200 953
200 954
200 955
200 956
200 957
200 958
200 959
200 960
200 961
200 962
200 963
200 964
200 965
200 966
200 967
200 968
200 969
200 970
200 972
200 974
200 975
200 976
200 977
200 978
200 980
200 983
200 985
200 989
200 991
200 992
200 993
200 994
200 995
200 997
200 998
200 999
200 1000
200 1001
200 1002
200 1003
200 1004
200 1005
200 1006
200 1007
200 1008
200 1009
200 1011
200 1012
200 1013
200 1014
200 1015
200 1016
200 1017
200 1018
200 1019
200 1020
200 1022
200 1026
200 1027
200 1028
200 1030
200 1031
200 1032
200 1033
200 1034
200 1035
200 1036
200 1037
200 1038
200 1039
200 1040
200 1041
200 1042
200 1043
200 1044
200 1045
200 1046
200 1047
200 1048
200 1050
200 1052
200 1054
200 1055
200 1056
200 1057
200 1058
200 1059
200 1060
200 1063
200 1064
200 1072
200 1073
200 1074
200 1075
200 1076
200 1077
200 1078
200 1079
200 1080
200 1081
200 1082
200 1083
200 1084
200 1085
200 1086
200 1087
200 1089
200 1090
200 1091
200 1092
200 1093
200 1094
200 1095
200 1100
200 1101
200 1102
200 1103
200 1104
200 1105
200 1106
200 1107
200 1109
200 1111
200 1112
200 1113
200 1114
200 1116
200 1117
200 1120
200 1121
200 1122
200 1123
200 1124
200 1125
200 1126
200 1128
200 1129
200 1130
200 1131
200 1132
200 1133
200 1134
200 1136
200 1141
200 1144
200 1147
200 1148
200 1149
200 1150
200 1151
200 1152
200 1153
200 1154
200 1156
200 1157
200 1162
200 1163
200 1164
200 1165
200 1166
200 1167
200 1168
200 1169
200 1170
200 1172
200 1173
200 1174
200 1175
200 1176
200 1177
200 1179
200 1180
200 1181
200 1182
200 1183
200 1191
200 1192
200 1196
200 1197
200 1198
200 1199
200 1200
200 1201
200 1202
200 1203
200 1204
200 1205
200 1206
200 1207
200 1211
200 1212
200 1213
200 1215
200 1217
200 1218
200 1219
200 1221
200 1222
200 1223
200 1224
200 1225
200 1226
200 1229
200 1230
200 1231
200 1238
200 1240
200 1241
200 1242
200 1243
200 1244
200 1245
200 1249
200 1250
200 1251
200 1252
200 1254
200 1256
200 1257
200 1258
200 1259
200 1261
200 1262
200 1263
200 1264
200 1265
200 1268
200 1269
200 1270
200 1277
200 1279
200 1280
200 1281
200 1282
200 1283
200 1284
200 1300
200 1302
200 1303
200 1304
200 1305
200 1306
200 1307
200 1308
200 1309
200 1323
200 1325
200 1330
200 1332
200 1344
200 1345
200 1348
200 1349
200 1350
200 1351
200 1352
200 1354
200 1364
200 1365
200 1372
200 1373
200 1374
200 1375
200 1384
200 1385
200 1386
200 1387
200 1388
200 1390
200 1393
200 1394
200 1395
200 1396
200 1397
200 1398
200 1399
200 1400
200 1403
200 1404
200 1405
200 1406
200 1407
200 1408
200 1409
200 1410
200 1411
200 1412
200 1413
200 1414
200 1415
200 1416
200 1417
200 1418
200 1419
200 1420
200 1421
200 1422
200 1423
200 1424
200 1433
200 1434
200 1437
200 1438
200 1439
200 1440
200 1442
200 1445
200 1446
200 1465
200 1466
200 1467
200 1468
200 1469
200 1470
200 1471
200 1472
200 1489
200 1491
200 1492
200 1493
200 1494
200 1495
200 1500
200 1502
200 1503
200 1505
200 1515
200 1516
200 1517
200 1518
200 1519
200 1521
200 1525
200 1527
200 1528
200 1529
200 1530
200 1532
200 1535
200 1536
200 1539
200 1540
200 1543
200 1544
200 1545
200 1547
200 1548
200 1550
200 1551
200 1554
200 1555
200 1560
200 1562
200 1563
200 1564
200 1565
200 1573
200 1574
200 1578
200 1579
200 1580
200 1581
200 1582
200 1586
200 1592
200 1593
200 1595
200 1597
200 1598
200 1599
200 1602
200 1605
200 1606
200 1609
200 1610
200 1611
200 1612
200 1613
200 1620
200 1621
200 1626
200 1628
200 1635
200 1636
200 1637
200 1638
200 1639
200 1641
200 1643
200 1644
200 1650
200 1651
200 1652
200 1653
200 1654
200 1658
200 1659
200 1660
200 1661
200 1662
200 1663
200 1664
200 1666
200 1667
200 1673
200 1674
200 1677
200 1678
200 1683
200 1699
200 1704
200 1706
200 1707
200 1708
200 1709
200 1710
200 1712
200 1713
200 1714
200 1716
200 1717
200 1728
200 1731
200 1735
200 1736
200 1739
200 1741
200 1742
200 1743
200 1744
200 1745
200 1746
200 1747
200 1748
200 1749
200 1750
200 1752
200 1756
200 1757
200 1758
200 1759
200 1760
200 1763
200 1766
200 1767
200 1769
200 1771
200 1772
200 1773
200 1774
200 1775
200 1776
200 1777
200 1778
200 1779
200 1781
200 1782
200 1783
200 1784
200 1785
200 1787
200 1788
200 1789
200 1791
200 1792
200 1794
200 1795
200 1796
200 1797
200 1798
200 1799
200 1800
200 1801
200 1803
200 1804
200 1805
200 1806
200 1807
200 1808
200 1809
200 1814
200 1815
200 1821
200 1824
200 1825
200 1826
200 1827
200 1828
200 1829
200 1830
200 1831
200 1833
200 1834
200 1835
200 1836
200 1837
200 1838
200 1839
200 1840
200 1841
200 1842
200 1843
200 1844
200 1845
200 1846
200 1850
200 1857
200 1859
200 1861
200 1862
200 1863
200 1865
200 1867
200 1868
200 1870
200 1871
200 1872
200 1873
200 1874
200 1875
200 1876
200 1877
200 1878
200 1879
200 1880
200 1881
200 1882
200 1883
200 1884
200 1885
200 1886
200 1887
200 1888
200 1889
200 1890
200 1891
200 1892
200 1893
200 1894
200 1895
200 1896
200 1897
200 1898
200 1899
200 1900
200 1901
200 1934
200 1936
200 1939
200 1963
200 1981
200 1984
200 1985
200 1993
200 2001
200 2002
200 2003
200 2004
200 2006
200 2008
200 2009
200 2010
200 2011
200 2012
200 2013
200 2014
200 2015
200 2032
200 2035
200 2036
200 2037
200 2038
200 2039
200 2040
200 2041
200 2045
200 2056
200 2092
200 2104
200 2105
200 2106
200 2107
200 2108
200 2109
200 2141
200 2142
200 2155
200 2156
200 2157
200 2159
200 2160
200 2161
200 2162
200 2163
200 2165
200 2166
200 2167
200 2168
200 2169
200 2170
200 2174
200 2175
200 2176
200 2186
200 2187
200 2188
200 2189
200 2190
200 2191
200 2192
200 2194
200 2198
200 2204
200 2208
200 2223
200 2227
200 2254
200 2263
200 2264
200 2265
200 2266
200 2267
200 2268
200 2272
200 2274
200 2275
200 2301
200 2306
200 2307
200 2313
200 2316
200 2317
200 2318
200 2320
200 2321
200 2323
200 2324
200 2328
200 2329
200 2330
200 2331
200 2333
200 2334
200 2335
200 2336
200 2337
200 2339
200 2340
200 2341
200 2342
200 2343
200 2344
200 2348
200 2349
200 2350
200 2360
200 2361
200 2362
200 2363
200 2364
200 2365
200 2366
200 2368
200 2371
200 2373
200 2374
200 2375
200 2378
200 2379
200 2381
200 2385
200 2387
200 2391
200 2394
200 2399
200 2402
200 2418
200 2421
200 2422
200 2423
200 2424
200 2425
200 2426
200 2427
200 2428
200 2429
200 2432
200 2435
200 2438
200 2439
200 2440
200 2441
200 2442
200 2443
200 2444
200 2446
200 2465
200 2466
200 2476
200 2478
200 2483
200 2484
200 2485
200 2486
200 2487
200 2491
200 2492
200 2506
200 2507
200 2508
200 2509
200 2510
200 2511
200 2512
200 2513
200 2514
200 2515
200 2518
200 2520
200 2521
200 2522
200 2523
200 2527
200 2529
200 2530
200 2531
200 2532
200 2535
200 2536
200 2537
200 2542
200 2543
200 2544
200 2545
200 2546
200 2548
200 2549
200 2550
200 2551
200 2552
200 2553
200 2554
200 2556
200 2559
200 2561
200 2563
200 2564
200 2567
200 2569
200 2574
200 2575
200 2576
200 2577
200 2578
200 2581
200 2582
200 2583
200 2584
200 2585
200 2586
200 2587
200 2591
200 2593
200 2604
200 2607
200 2616
200 2619
200 2622
200 2627
200 2630
200 2631
200 2634
200 2635
200 2639
200 2640
200 2641
200 2642
200 2643
200 2644
200 2645
200 2646
200 2647
200 2648
200 2649
200 2652
200 2653
200 2654
200 2655
200 2660
200 2661
200 2662
200 2663
200 2664
200 2665
200 2667
200 2668
200 2669
200 2672
200 2675
200 2686
200 2687
200 2688
200 2689
200 2690
200 2691
200 2692
200 2694
200 2695
200 2696
200 2697
200 2698
200 2699
200 2700
200 2701
200 2702
200 2703
200 2704
200 2705
200 2706
200 2707
200 2708
200 2710
200 2711
200 2715
200 2718
200 2720
200 2722
200 2723
200 2725
200 2726
200 2728
200 2731
200 2732
200 2734
200 2735
200 2736
200 2737
200 2738
200 2739
200 2740
200 2741
200 2742
200 2743
200 2745
200 2746
200 2748
200 2749
200 2751
200 2752
200 2753
200 2756
200 2757
200 2758
200 2759
200 2760
200 2761
200 2762
200 2763
200 2764
200 2765
200 2766
200 2767
200 2768
200 2769
200 2770
200 2773
200 2774
200 2775
200 2780
200 2782
200 2783
200 2784
200 2787
200 2788
200 2789
200 2790
200 2791
200 2792
200 2793
200 2794
200 2799
200 2801
200 2804
200 2805
200 2806
200 2807
200 2808
200 2809
200 2811
200 2812
200 2813
200 2814
200 2815
200 2816
200 2818
200 2819
200 2820
200 2821
200 2822
200 2823
200 2824
200 2825
200 2827
200 2838
200 2839
200 2849
200 2850
200 2851
200 2852
200 2853
200 2854
200 2862
200 2863
200 2864
200 2865
200 2866
200 2867
200 2868
200 2869
200 2870
200 2871
200 2872
200 2873
200 2874
200 2875
200 2876
200 2877
200 2878
200 2879
200 2880
200 2881
200 2882
200 2883
200 2884
200 2885
200 2886
200 2887
200 2888
200 2889
200 2890
200 2891
200 2892
200 2893
200 2894
200 2895
200 2896
200 2897
200 2898
200 2899
200 2900
200 2901
200 2902
200 2903
200 2904
200 2905
200 2910
200 2911
200 2913
200 2914
200 2915
200 2918
200 2920
200 2921
200 2922
200 2924
200 2925
200 2926
200 2927
200 2928
200 2929
200 2930
200 2931
200 2932
200 2934
200 2935
200 2936
200 2937
200 2938
200 2939
200 2941
200 2942
200 2943
200 2944
200 2945
200 2946
200 2947
200 2948
200 2949
200 2950
200 2951
200 2952
200 2953
200 2954
200 2955
200 2956
200 2957
200 2958
200 2959
200 2960
200 2961
200 2962
200 2963
200 2964
200 2965
200 2966
200 2969
200 2971
200 2972
200 2973
200 2975
200 2976
200 2983
200 2984
200 2985
200 2987
200 2988
200 2989
200 2990
200 2991
200 2992
200 2993
200 2994
200 2995
200 2996
200 2997
200 2998
200 2999
200 3000
200 3001
200 3002
200 3003
200 3006
200 3008
200 3009
200 3010
200 3016
200 3017
200 3018
200 3022
200 3023
200 3024
200 3025
200 3027
200 3028
200 3029
200 3030
200 3031
200 3032
200 3033
200 3034
200 3035
200 3038
200 3040
200 3041
200 3046
200 3047
200 3048
200 3049
200 3050
200 3051
200 3052
200 3058
200 3059
200 3061
200 3063
200 3064
200 3071
200 3072
200 3073
200 3074
200 3075
200 3076
200 3078
200 3079
200 3080
200 3081
200 3082
200 3083
200 3084
200 3085
200 3086
200 3087
200 3088
200 3089
200 3090
200 3091
200 3092
200 3093
200 3094
200 3095
200 3096
200 3097
200 3098
200 3099
200 3101
200 3102
200 3104
200 3105
200 3106
200 3107
200 3108
200 3109
200 3110
200 3111
200 3112
200 3113
200 3114
200 3115
200 3121
200 3122
200 3123
200 3124
200 3125
200 3126
200 3127
200 3128
200 3129
200 3130
200 3132
200 3133
200 3136
200 3139
200 3140
200 3141
200 3142
200 3143
200 3144
200 3145
200 3146
200 3147
200 3148
200 3149
200 3150
200 3151
200 3152
200 3153
200 3154
200 3155
200 3156
200 3157
200 3158
200 3159
200 3160
200 3161
200 3162
200 3163
200 3166
200 3168
200 3169
200 3170
200 3172
200 3173
200 3174
200 3180
200 3181
200 3182
200 3183
200 3186
200 3189
200 3190
200 3195
200 3196
200 3206
200 3207
200 3208
200 3209
200 3210
200 3211
200 3212
200 3213
200 3214
200 3215
200 3216
200 3217
200 3219
200 3220
200 3221
200 3222
200 3223
200 3224
200 3225
200 3226
200 3227
200 3228
200 3229
200 3230
200 3231
200 3233
200 3234
200 3235
200 3236
200 3237
200 3238
200 3239
200 3249
200 3250
200 3251
200 3252
200 3253
200 3254
200 3257
200 3261
200 3262
200 3263
200 3265
200 3266
200 3267
200 3268
200 3269
200 3271
200 3272
200 3273
200 3274
200 3275
200 3279
200 3280
200 3281
200 3291
200 3292
200 3293
200 3294
200 3295
200 3296
200 3297
200 3299
200 3300
200 3301
200 3302
200 3304
200 3307
200 3308
200 3310
200 3311
200 3312
200 3313
200 3314
200 3315
200 3323
200 3324
200 3330
200 3332
200 3333
200 3340
200 3343
200 3347
200 3349
200 3350
200 3351
200 3352
200 3356
200 3360
200 3362
200 3363
200 3364
200 3365
200 3366
200 3367
200 3368
200 3369
200 3372
200 3373
200 3376
200 3377
200 3378
200 3379
200 3383
200 3384
200 3385
200 3386
200 3387
200 3391
200 3392
200 3393
200 3399
200 3400
200 3401
200 3402
200 3403
200 3404
200 3407
200 3409
200 3410
200 3411
200 3412
200 3413
200 3416
200 3418
200 3419
200 3420
200 3421
200 3422
200 3423
200 3424
200 3425
200 3426
200 3427
200 3428
200 3429
200 3430
200 3431
200 3434
200 3436
200 3438
200 3439
200 3440
200 3442
200 3443
201 7
201 9
201 10
201 12
201 13
201 15
201 16
201 17
201 18
201 20
201 21
201 22
201 23
201 24
201 25
201 26
201 28
201 29
201 30
201 33
201 34
201 35
201 36
201 37
201 38
201 39
201 40
201 41
201 43
201 44
201 45
201 46
201 47
201 48
201 49
201 50
201 52
201 53
201 54
201 56
201 57
201 58
201 59
201 64
201 65
201 66
201 69
201 70
201 72
201 74
201 75
201 76
201 78
201 80
201 81
201 82
201 83
201 85
201 86
201 87
201 89
201 90
201 92
201 93
201 94
201 97
201 98
201 99
201 100
201 101
201 102
201 103
201 104
201 105
201 106
201 107
201 108
201 110
201 111
201 113
201 114
201 115
201 117
201 118
201 119
201 120
201 121
201 123
201 124
201 125
201 126
201 128
201 131
201 132
201 134
201 135
201 136
201 137
201 138
201 139
201 140
201 141
201 144
201 145
201 147
201 148
201 150
201 151
201 152
201 154
201 155
201 156
201 159
201 160
201 161
201 162
201 163
201 164
201 166
201 167
201 168
201 169
201 170
201 171
201 175
201 176
201 178
201 179
201 180
201 181
201 182
201 183
201 184
201 185
201 186
201 187
201 188
201 189
201 191
201 192
201 193
201 194
201 195
201 196
201 197
201 198
201 199
201 200
201 202
201 203
201 204
201 206
201 210
201 212
201 213
201 214
201 215
201 216
201 217
201 218
201 219
201 220
201 221
201 222
201 224
201 225
201 226
201 227
201 229
201 230
201 231
201 232
201 233
201 234
201 235
201 236
201 237
201 238
201 239
201 240
201 241
201 243
201 246
201 247
201 248
201 249
201 250
201 253
201 254
201 255
201 256
201 257
201 258
201 259
201 260
201 261
201 262
201 263
201 264
201 265
201 266
201 267
201 268
201 269
201 270
201 272
201 274
201 276
201 278
201 280
201 282
201 283
201 284
201 285
201 286
201 287
201 288
201 289
201 290
201 291
201 292
201 293
201 294
201 295
201 296
201 297
201 298
201 299
201 300
201 302
201 303
201 304
201 306
201 307
201 308
201 311
201 313
201 314
201 315
201 316
201 317
201 318
201 319
201 320
201 321
201 323
201 324
201 325
201 327
201 328
201 329
201 330
201 331
201 332
201 336
201 337
201 339
201 340
201 341
201 342
201 345
201 346
201 347
201 348
201 349
201 350
201 351
201 352
201 354
201 355
201 357
201 360
201 361
201 364
201 365
201 366
201 370
201 371
201 373
201 374
201 377
201 378
201 379
201 380
201 381
201 382
201 383
201 384
201 385
201 386
201 387
201 388
201 389
201 390
201 391
201 392
201 393
201 394
201 395
201 397
201 398
201 399
201 400
201 401
201 402
201 403
201 404
201 405
201 406
201 407
201 408
201 409
201 410
201 411
201 413
201 414
201 415
201 416
201 417
201 419
201 420
201 421
201 422
201 423
201 424
201 426
201 427
201 428
201 429
201 430
201 431
201 433
201 434
201 435
201 436
201 438
201 439
201 441
201 442
201 443
201 445
201 446
201 447
201 448
201 449
201 450
201 451
201 457
201 458
201 460
201 461
201 462
201 464
201 465
201 466
201 467
201 470
201 471
201 472
201 473
201 474
201 475
201 476
201 477
201 478
201 479
201 480
201 482
201 484
201 486
201 487
201 488
201 489
201 491
201 492
201 493
201 494
201 496
201 497
201 498
201 499
201 500
201 503
201 505
201 506
201 507
201 508
201 509
201 512
201 516
201 517
201 518
201 519
201 520
201 521
201 525
201 526
201 528
201 529
201 530
201 531
201 534
201 535
201 536
201 537
201 540
201 541
201 542
201 543
201 544
201 546
201 547
201 548
201 549
201 550
201 551
201 552
201 554
201 556
201 557
201 558
201 559
201 560
201 564
201 566
201 567
201 568
201 569
201 570
201 571
201 572
201 573
201 575
201 576
201 577
201 578
201 579
201 580
201 581
201 583
201 584
201 585
201 586
201 588
201 589
201 590
201 591
201 592
201 594
201 595
201 596
201 597
201 598
201 599
201 600
201 605
201 606
201 607
201 609
201 610
201 611
201 612
201 614
201 615
201 616
201 617
201 619
201 620
201 621
201 622
201 623
201 624
201 625
201 626
201 627
201 628
201 629
201 630
201 634
201 635
201 636
201 637
201 638
201 641
201 643
201 644
201 645
201 646
201 648
201 649
201 651
201 652
201 653
201 655
201 656
201 657
201 658
201 660
201 662
201 663
201 666
201 667
201 668
201 669
201 670
201 671
201 672
201 673
201 674
201 675
201 676
201 677
201 678
201 679
201 680
201 681
201 682
201 683
201 684
201 685
201 688
201 689
201 690
201 691
201 692
201 693
201 695
201 696
201 697
201 698
201 699
201 700
201 701
201 702
201 703
201 704
201 705
201 706
201 707
201 708
201 710
201 711
201 712
201 713
201 715
201 716
201 717
201 720
201 721
201 723
201 724
201 725
201 726
201 728
201 729
201 731
201 732
201 733
201 734
201 735
201 736
201 737
201 738
201 740
201 741
201 742
201 743
201 744
201 745
201 746
201 747
201 748
201 749
201 750
201 751
201 752
201 753
201 754
201 755
201 756
201 757
201 758
201 759
201 760
201 761
201 763
201 764
201 765
201 766
201 767
201 768
201 769
201 770
201 771
201 773
201 774
201 776
201 779
201 780
201 781
201 782
201 783
201 784
201 785
201 786
201 787
201 788
201 789
201 790
201 793
201 794
201 795
201 796
201 797
201 798
201 799
201 800
201 801
201 803
201 807
201 808
201 809
201 810
201 811
201 812
201 813
201 814
201 815
201 816
201 817
201 818
201 819
201 820
201 821
201 822
201 823
201 824
201 825
201 826
201 827
201 828
201 829
201 830
201 831
201 832
201 833
201 834
201 835
201 836
201 837
201 840
201 841
201 842
201 843
201 845
201 849
201 852
201 853
201 856
201 858
201 859
201 864
201 865
201 867
201 873
201 874
201 875
201 876
201 877
201 878
201 879
201 882
201 883
201 884
201 885
201 886
201 887
201 889
201 891
201 892
201 893
201 894
201 896
201 898
201 899
201 900
201 901
201 902
201 903
201 904
201 905
201 906
201 908
201 909
201 910
201 911
201 912
201 915
201 916
201 917
201 918
201 919
201 920
201 921
201 922
201 923
201 924
201 926
201 927
201 928
201 930
201 935
201 938
201 939
201 940
201 941
201 943
201 944
201 946
201 947
201 948
201 949
201 950
201 951
201 952
201 953
201 954
201 955
201 956
201 957
201 958
201 959
201 960
201 961
201 962
201 963
201 964
201 965
201 966
201 967
201 968
201 969
201 970
201 971
201 972
201 974
201 975
201 976
201 977
201 978
201 980
201 981
201 982
201 983
201 985
201 986
201 987
201 988
201 989
201 991
201 992
201 993
201 994
201 995
201 997
201 998
201 999
201 1000
201 1001
201 1002
201 1003
201 1004
201 1005
201 1006
201 1007
201 1008
201 1009
201 1010
201 1011
201 1012
201 1013
201 1014
201 1015
201 1016
201 1017
201 1018
201 1019
201 1020
201 1022
201 1023
201 1026
201 1027
201 1028
201 1029
201 1030
201 1031
201 1032
201 1033
201 1034
201 1035
201 1036
201 1037
201 1038
201 1039
201 1040
201 1041
201 1042
201 1043
201 1044
201 1045
201 1046
201 1047
201 1048
201 1049
201 1050
201 1051
201 1052
201 1053
201 1054
201 1055
201 1056
201 1057
201 1058
201 1059
201 1060
201 1062
201 1063
201 1064
201 1065
201 1067
201 1068
201 1069
201 1070
201 1071
201 1072
201 1073
201 1074
201 1075
201 1076
201 1077
201 1078
201 1079
201 1080
201 1081
201 1082
201 1083
201 1084
201 1085
201 1086
201 1087
201 1089
201 1090
201 1091
201 1092
201 1093
201 1094
201 1095
201 1096
201 1097
201 1098
201 1099
201 1100
201 1101
201 1102
201 1103
201 1104
201 1105
201 1106
201 1107
201 1109
201 1111
201 1112
201 1113
201 1114
201 1115
201 1116
201 1117
201 1118
201 1119
201 1120
201 1121
201 1122
201 1123
201 1124
201 1125
201 1126
201 1127
201 1128
201 1129
201 1130
201 1131
201 1132
201 1133
201 1134
201 1136
201 1137
201 1138
201 1139
201 1140
201 1141
201 1142
201 1143
201 1144
201 1145
201 1146
201 1147
201 1148
201 1149
201 1150
201 1151
201 1152
201 1153
201 1154
201 1155
201 1156
201 1157
201 1161
201 1162
201 1163
201 1164
201 1165
201 1166
201 1167
201 1168
201 1169
201 1170
201 1172
201 1173
201 1174
201 1175
201 1176
201 1177
201 1178
201 1179
201 1180
201 1181
201 1182
201 1183
201 1184
201 1185
201 1186
201 1187
201 1188
201 1189
201 1191
201 1192
201 1193
201 1194
201 1195
201 1196
201 1197
201 1198
201 1199
201 1200
201 1201
201 1202
201 1203
201 1204
201 1205
201 1206
201 1207
201 1209
201 1210
201 1211
201 1212
201 1213
201 1214
201 1215
201 1216
201 1217
201 1218
201 1219
201 1221
201 1222
201 1223
201 1224
201 1225
201 1226
201 1227
201 1228
201 1229
201 1230
201 1231
201 1232
201 1233
201 1234
201 1235
201 1236
201 1237
201 1238
201 1239
201 1240
201 1241
201 1242
201 1243
201 1244
201 1245
201 1247
201 1248
201 1249
201 1250
201 1251
201 1252
201 1253
201 1254
201 1255
201 1256
201 1257
201 1258
201 1259
201 1260
201 1261
201 1262
201 1263
201 1264
201 1265
201 1266
201 1267
201 1268
201 1269
201 1270
201 1271
201 1272
201 1273
201 1274
201 1275
201 1276
201 1277
201 1278
201 1279
201 1280
201 1281
201 1282
201 1283
201 1284
201 1285
201 1286
201 1287
201 1288
201 1289
201 1290
201 1293
201 1294
201 1295
201 1296
201 1297
201 1298
201 1299
201 1300
201 1301
201 1302
201 1303
201 1304
201 1305
201 1306
201 1307
201 1308
201 1309
201 1310
201 1311
201 1312
201 1313
201 1314
201 1318
201 1319
201 1320
201 1321
201 1322
201 1323
201 1324
201 1325
201 1326
201 1327
201 1328
201 1330
201 1332
201 1333
201 1334
201 1335
201 1337
201 1338
201 1339
201 1342
201 1344
201 1347
201 1348
201 1349
201 1350
201 1351
201 1352
201 1353
201 1354
201 1355
201 1357
201 1358
201 1359
201 1360
201 1361
201 1364
201 1365
201 1366
201 1367
201 1368
201 1369
201 1370
201 1372
201 1373
201 1374
201 1375
201 1376
201 1377
201 1378
201 1379
201 1380
201 1381
201 1382
201 1383
201 1384
201 1385
201 1386
201 1387
201 1388
201 1389
201 1390
201 1391
201 1392
201 1393
201 1394
201 1395
201 1396
201 1397
201 1398
201 1399
201 1400
201 1401
201 1402
201 1403
201 1404
201 1405
201 1406
201 1407
201 1408
201 1409
201 1410
201 1411
201 1412
201 1413
201 1414
201 1415
201 1416
201 1417
201 1418
201 1419
201 1420
201 1421
201 1425
201 1435
201 1436
201 1437
201 1438
201 1439
201 1440
201 1441
201 1442
201 1443
201 1447
201 1448
201 1449
201 1450
201 1451
201 1452
201 1453
201 1454
201 1455
201 1457
201 1458
201 1459
201 1460
201 1462
201 1463
201 1464
201 1465
201 1466
201 1467
201 1468
201 1469
201 1470
201 1471
201 1472
201 1476
201 1477
201 1479
201 1482
201 1483
201 1484
201 1485
201 1486
201 1487
201 1489
201 1490
201 1491
201 1492
201 1493
201 1494
201 1495
201 1496
201 1497
201 1498
201 1500
201 1501
201 1502
201 1503
201 1505
201 1507
201 1508
201 1509
201 1510
201 1511
201 1512
201 1513
201 1514
201 1515
201 1516
201 1517
201 1518
201 1519
201 1520
201 1521
201 1522
201 1523
201 1525
201 1526
201 1527
201 1528
201 1529
201 1530
201 1531
201 1532
201 1535
201 1536
201 1537
201 1538
201 1539
201 1540
201 1541
201 1542
201 1543
201 1544
201 1545
201 1547
201 1548
201 1550
201 1551
201 1552
201 1553
201 1554
201 1555
201 1558
201 1559
201 1560
201 1561
201 1562
201 1563
201 1564
201 1565
201 1566
201 1570
201 1571
201 1572
201 1573
201 1574
201 1578
201 1579
201 1580
201 1581
201 1582
201 1583
201 1584
201 1585
201 1590
201 1592
201 1593
201 1595
201 1597
201 1598
201 1599
201 1602
201 1605
201 1606
201 1607
201 1609
201 1610
201 1611
201 1612
201 1613
201 1614
201 1615
201 1617
201 1618
201 1619
201 1620
201 1621
201 1622
201 1623
201 1624
201 1626
201 1627
201 1628
201 1629
201 1630
201 1631
201 1635
201 1637
201 1638
201 1639
201 1641
201 1643
201 1644
201 1646
201 1647
201 1648
201 1649
201 1650
201 1651
201 1652
201 1653
201 1654
201 1655
201 1656
201 1657
201 1658
201 1659
201 1660
201 1661
201 1662
201 1663
201 1664
201 1665
201 1666
201 1667
201 1668
201 1671
201 1672
201 1673
201 1674
201 1675
201 1678
201 1681
201 1682
201 1683
201 1684
201 1685
201 1686
201 1687
201 1688
201 1689
201 1690
201 1691
201 1692
201 1693
201 1694
201 1695
201 1696
201 1697
201 1698
201 1699
201 1700
201 1701
201 1702
201 1703
201 1704
201 1705
201 1706
201 1707
201 1708
201 1709
201 1710
201 1711
201 1712
201 1713
201 1714
201 1716
201 1717
201 1718
201 1722
201 1723
201 1725
201 1726
201 1727
201 1728
201 1729
201 1730
201 1731
201 1732
201 1735
201 1736
201 1737
201 1738
201 1739
201 1740
201 1741
201 1742
201 1743
201 1744
201 1745
201 1746
201 1747
201 1748
201 1749
201 1750
201 1751
201 1752
201 1756
201 1757
201 1758
201 1759
201 1760
201 1762
201 1763
201 1764
201 1766
201 1767
201 1769
201 1771
201 1772
201 1773
201 1774
201 1775
201 1776
201 1777
201 1778
201 1779
201 1781
201 1782
201 1783
201 1784
201 1785
201 1786
201 1787
201 1788
201 1789
201 1790
201 1791
201 1792
201 1793
201 1794
201 1795
201 1796
201 1797
201 1798
201 1799
201 1800
201 1801
201 1802
201 1803
201 1804
201 1805
201 1806
201 1807
201 1808
201 1814
201 1815
201 1816
201 1817
201 1818
201 1819
201 1820
201 1821
201 1822
201 1823
201 1824
201 1825
201 1826
201 1827
201 1828
201 1830
201 1831
201 1833
201 1834
201 1835
201 1836
201 1837
201 1838
201 1839
201 1840
201 1841
201 1842
201 1843
201 1844
201 1845
201 1846
201 1849
201 1851
201 1852
201 1853
201 1854
201 1855
201 1856
201 1857
201 1858
201 1859
201 1860
201 1861
201 1862
201 1863
201 1864
201 1865
201 1866
201 1867
201 1868
201 1869
201 1870
201 1871
201 1872
201 1874
201 1875
201 1876
201 1877
201 1878
201 1879
201 1880
201 1881
201 1882
201 1883
201 1884
201 1885
201 1886
201 1887
201 1888
201 1889
201 1890
201 1891
201 1892
201 1893
201 1894
201 1895
201 1896
201 1897
201 1898
201 1899
201 1900
201 1901
201 1902
201 1903
201 1904
201 1905
201 1906
201 1907
201 1908
201 1909
201 1910
201 1911
201 1912
201 1913
201 1914
201 1921
201 1922
201 1933
201 1934
201 1936
201 1939
201 1940
201 1941
201 1947
201 1948
201 1963
201 1973
201 1976
201 1979
201 1980
201 1981
201 1982
201 1984
201 1985
201 1986
201 1987
201 1988
201 1990
201 1991
201 1993
201 1995
201 1996
201 1997
201 1998
201 2000
201 2001
201 2002
201 2003
201 2004
201 2006
201 2008
201 2009
201 2010
201 2011
201 2012
201 2013
201 2014
201 2015
201 2016
201 2018
201 2019
201 2022
201 2023
201 2024
201 2025
201 2026
201 2027
201 2028
201 2030
201 2031
201 2032
201 2033
201 2034
201 2035
201 2036
201 2037
201 2038
201 2039
201 2040
201 2041
201 2043
201 2044
201 2045
201 2046
201 2047
201 2048
201 2049
201 2050
201 2051
201 2053
201 2054
201 2055
201 2056
201 2057
201 2058
201 2059
201 2060
201 2061
201 2062
201 2063
201 2064
201 2065
201 2066
201 2068
201 2069
201 2070
201 2071
201 2072
201 2073
201 2074
201 2075
201 2076
201 2077
201 2078
201 2079
201 2080
201 2081
201 2082
201 2084
201 2085
201 2086
201 2087
201 2088
201 2090
201 2091
201 2092
201 2093
201 2094
201 2095
201 2096
201 2098
201 2099
201 2100
201 2101
201 2102
201 2103
201 2104
201 2105
201 2106
201 2107
201 2108
201 2109
201 2110
201 2111
201 2112
201 2113
201 2114
201 2115
201 2117
201 2118
201 2119
201 2120
201 2121
201 2122
201 2127
201 2130
201 2133
201 2134
201 2135
201 2136
201 2141
201 2142
201 2145
201 2146
201 2147
201 2149
201 2150
201 2151
201 2153
201 2154
201 2155
201 2156
201 2157
201 2158
201 2159
201 2160
201 2161
201 2162
201 2163
201 2165
201 2166
201 2167
201 2168
201 2169
201 2170
201 2171
201 2172
201 2173
201 2174
201 2175
201 2176
201 2177
201 2178
201 2179
201 2180
201 2181
201 2182
201 2183
201 2184
201 2185
201 2186
201 2187
201 2188
201 2189
201 2190
201 2191
201 2192
201 2193
201 2194
201 2195
201 2198
201 2201
201 2202
201 2204
201 2207
201 2208
201 2209
201 2210
201 2211
201 2212
201 2213
201 2214
201 2215
201 2216
201 2217
201 2218
201 2219
201 2220
201 2221
201 2222
201 2223
201 2224
201 2225
201 2226
201 2227
201 2228
201 2229
201 2230
201 2231
201 2232
201 2233
201 2234
201 2235
201 2236
201 2237
201 2238
201 2239
201 2240
201 2241
201 2242
201 2243
201 2245
201 2246
201 2247
201 2249
201 2250
201 2251
201 2252
201 2254
201 2255
201 2256
201 2257
201 2258
201 2259
201 2260
201 2261
201 2262
201 2263
201 2264
201 2265
201 2266
201 2267
201 2268
201 2269
201 2271
201 2272
201 2273
201 2274
201 2275
201 2277
201 2278
201 2279
201 2280
201 2281
201 2282
201 2283
201 2284
201 2285
201 2286
201 2287
201 2288
201 2289
201 2290
201 2291
201 2292
201 2293
201 2294
201 2300
201 2301
201 2302
201 2303
201 2304
201 2306
201 2307
201 2310
201 2312
201 2313
201 2314
201 2315
201 2316
201 2317
201 2318
201 2319
201 2320
201 2321
201 2322
201 2323
201 2324
201 2326
201 2327
201 2328
201 2329
201 2330
201 2331
201 2332
201 2333
201 2334
201 2335
201 2336
201 2337
201 2339
201 2340
201 2341
201 2342
201 2343
201 2344
201 2345
201 2346
201 2347
201 2348
201 2349
201 2350
201 2351
201 2352
201 2353
201 2354
201 2355
201 2356
201 2357
201 2358
201 2359
201 2360
201 2361
201 2362
201 2363
201 2364
201 2365
201 2366
201 2367
201 2368
201 2369
201 2371
201 2373
201 2374
201 2375
201 2378
201 2379
201 2381
201 2382
201 2385
201 2386
201 2387
201 2388
201 2390
201 2391
201 2392
201 2393
201 2394
201 2397
201 2398
201 2399
201 2401
201 2402
201 2403
201 2404
201 2405
201 2406
201 2407
201 2408
201 2409
201 2410
201 2411
201 2412
201 2413
201 2414
201 2415
201 2416
201 2417
201 2418
201 2419
201 2420
201 2421
201 2422
201 2423
201 2424
201 2425
201 2426
201 2427
201 2428
201 2429
201 2431
201 2432
201 2433
201 2434
201 2435
201 2437
201 2438
201 2439
201 2440
201 2441
201 2442
201 2443
201 2444
201 2445
201 2446
201 2447
201 2448
201 2449
201 2450
201 2451
201 2452
201 2453
201 2454
201 2455
201 2456
201 2457
201 2458
201 2459
201 2460
201 2461
201 2462
201 2463
201 2464
201 2465
201 2466
201 2467
201 2468
201 2469
201 2470
201 2471
201 2472
201 2473
201 2474
201 2475
201 2476
201 2477
201 2478
201 2483
201 2484
201 2485
201 2486
201 2487
201 2488
201 2489
201 2490
201 2491
201 2492
201 2493
201 2494
201 2501
201 2502
201 2503
201 2504
201 2505
201 2506
201 2507
201 2508
201 2509
201 2510
201 2511
201 2512
201 2513
201 2514
201 2515
201 2516
201 2517
201 2518
201 2519
201 2520
201 2521
201 2522
201 2523
201 2524
201 2525
201 2526
201 2527
201 2528
201 2529
201 2530
201 2531
201 2532
201 2533
201 2534
201 2535
201 2536
201 2537
201 2538
201 2539
201 2540
201 2541
201 2542
201 2543
201 2544
201 2545
201 2546
201 2547
201 2548
201 2549
201 2550
201 2551
201 2552
201 2553
201 2554
201 2556
201 2557
201 2558
201 2559
201 2560
201 2561
201 2562
201 2563
201 2564
201 2565
201 2566
201 2567
201 2568
201 2569
201 2570
201 2571
201 2574
201 2575
201 2576
201 2577
201 2578
201 2581
201 2582
201 2583
201 2584
201 2585
201 2586
201 2587
201 2588
201 2589
201 2590
201 2591
201 2592
201 2593
201 2594
201 2595
201 2596
201 2597
201 2598
201 2599
201 2600
201 2601
201 2602
201 2603
201 2604
201 2605
201 2606
201 2607
201 2616
201 2619
201 2620
201 2621
201 2622
201 2623
201 2624
201 2625
201 2626
201 2627
201 2628
201 2629
201 2630
201 2631
201 2633
201 2634
201 2635
201 2639
201 2640
201 2641
201 2642
201 2643
201 2644
201 2645
201 2646
201 2647
201 2648
201 2649
201 2652
201 2653
201 2654
201 2655
201 2656
201 2657
201 2658
201 2659
201 2660
201 2661
201 2662
201 2663
201 2664
201 2665
201 2667
201 2668
201 2669
201 2670
201 2671
201 2672
201 2673
201 2674
201 2675
201 2677
201 2678
201 2682
201 2683
201 2684
201 2685
201 2686
201 2687
201 2688
201 2689
201 2690
201 2693
201 2694
201 2695
201 2696
201 2697
201 2698
201 2699
201 2700
201 2701
201 2702
201 2703
201 2704
201 2705
201 2706
201 2707
201 2708
201 2709
201 2710
201 2711
201 2712
201 2713
201 2714
201 2715
201 2716
201 2717
201 2718
201 2719
201 2720
201 2722
201 2723
201 2725
201 2726
201 2730
201 2731
201 2732
201 2733
201 2734
201 2735
201 2736
201 2737
201 2738
201 2739
201 2740
201 2741
201 2742
201 2743
201 2744
201 2745
201 2746
201 2747
201 2748
201 2749
201 2751
201 2752
201 2753
201 2756
201 2757
201 2758
201 2759
201 2760
201 2761
201 2762
201 2763
201 2764
201 2765
201 2766
201 2767
201 2768
201 2769
201 2770
201 2772
201 2773
201 2774
201 2775
201 2777
201 2779
201 2780
201 2782
201 2783
201 2784
201 2785
201 2786
201 2787
201 2788
201 2789
201 2790
201 2791
201 2792
201 2793
201 2794
201 2795
201 2796
201 2797
201 2798
201 2799
201 2800
201 2801
201 2803
201 2804
201 2805
201 2806
201 2807
201 2808
201 2809
201 2810
201 2811
201 2812
201 2813
201 2814
201 2815
201 2816
201 2817
201 2818
201 2819
201 2820
201 2821
201 2822
201 2823
201 2824
201 2825
201 2826
201 2827
201 2828
201 2829
201 2830
201 2831
201 2832
201 2833
201 2834
201 2835
201 2838
201 2839
201 2840
201 2841
201 2843
201 2844
201 2845
201 2846
201 2848
201 2849
201 2850
201 2851
201 2852
201 2853
201 2854
201 2855
201 2856
201 2857
201 2858
201 2859
201 2860
201 2861
201 2862
201 2863
201 2864
201 2865
201 2866
201 2867
201 2868
201 2869
201 2870
201 2871
201 2872
201 2873
201 2874
201 2875
201 2876
201 2877
201 2878
201 2879
201 2880
201 2881
201 2882
201 2883
201 2884
201 2885
201 2886
201 2887
201 2888
201 2889
201 2890
201 2891
201 2892
201 2893
201 2894
201 2895
201 2896
201 2897
201 2898
201 2899
201 2900
201 2901
201 2902
201 2903
201 2904
201 2905
201 2907
201 2908
201 2909
201 2910
201 2911
201 2912
201 2913
201 2914
201 2915
201 2916
201 2917
201 2918
201 2919
201 2920
201 2921
201 2922
201 2923
201 2924
201 2925
201 2926
201 2927
201 2928
201 2929
201 2930
201 2931
201 2932
201 2934
201 2935
201 2936
201 2937
201 2938
201 2939
201 2940
201 2941
201 2942
201 2943
201 2944
201 2945
201 2946
201 2947
201 2948
201 2949
201 2950
201 2951
201 2952
201 2953
201 2954
201 2955
201 2956
201 2957
201 2958
201 2959
201 2960
201 2961
201 2962
201 2963
201 2964
201 2965
201 2966
201 2967
201 2968
201 2969
201 2970
201 2971
201 2972
201 2973
201 2975
201 2976
201 2977
201 2978
201 2979
201 2981
201 2982
201 2983
201 2984
201 2985
201 2986
201 2987
201 2988
201 2989
201 2990
201 2991
201 2992
201 2993
201 2994
201 2995
201 2996
201 2997
201 2998
201 2999
201 3000
201 3001
201 3002
201 3003
201 3004
201 3005
201 3006
201 3007
201 3008
201 3009
201 3010
201 3011
201 3012
201 3013
201 3015
201 3016
201 3017
201 3018
201 3019
201 3020
201 3021
201 3022
201 3023
201 3024
201 3025
201 3027
201 3028
201 3029
201 3030
201 3031
201 3032
201 3033
201 3034
201 3035
201 3036
201 3038
201 3039
201 3040
201 3041
201 3042
201 3043
201 3044
201 3046
201 3047
201 3048
201 3049
201 3050
201 3051
201 3052
201 3054
201 3055
201 3056
201 3057
201 3058
201 3059
201 3060
201 3061
201 3062
201 3063
201 3064
201 3065
201 3066
201 3067
201 3068
201 3069
201 3070
201 3071
201 3072
201 3073
201 3074
201 3075
201 3076
201 3077
201 3078
201 3079
201 3080
201 3081
201 3082
201 3083
201 3084
201 3085
201 3086
201 3087
201 3088
201 3089
201 3090
201 3091
201 3092
201 3093
201 3094
201 3095
201 3096
201 3097
201 3098
201 3099
201 3100
201 3101
201 3102
201 3104
201 3105
201 3106
201 3107
201 3108
201 3109
201 3110
201 3111
201 3112
201 3113
201 3114
201 3115
201 3116
201 3118
201 3121
201 3122
201 3123
201 3124
201 3125
201 3126
201 3127
201 3128
201 3129
201 3130
201 3131
201 3132
201 3133
201 3134
201 3136
201 3138
201 3139
201 3140
201 3141
201 3142
201 3143
201 3144
201 3145
201 3146
201 3147
201 3148
201 3149
201 3150
201 3151
201 3152
201 3153
201 3154
201 3155
201 3156
201 3157
201 3158
201 3159
201 3160
201 3161
201 3162
201 3163
201 3164
201 3165
201 3166
201 3167
201 3168
201 3169
201 3170
201 3172
201 3173
201 3174
201 3175
201 3176
201 3178
201 3179
201 3180
201 3181
201 3182
201 3183
201 3184
201 3185
201 3186
201 3187
201 3188
201 3189
201 3190
201 3193
201 3194
201 3195
201 3196
201 3197
201 3198
201 3199
201 3200
201 3201
201 3202
201 3203
201 3204
201 3205
201 3206
201 3207
201 3208
201 3209
201 3210
201 3211
201 3212
201 3213
201 3214
201 3215
201 3216
201 3217
201 3218
201 3219
201 3220
201 3221
201 3222
201 3223
201 3224
201 3225
201 3226
201 3227
201 3228
201 3229
201 3230
201 3231
201 3232
201 3233
201 3234
201 3235
201 3236
201 3237
201 3238
201 3239
201 3240
201 3241
201 3243
201 3244
201 3245
201 3246
201 3247
201 3248
201 3249
201 3250
201 3251
201 3252
201 3253
201 3254
201 3257
201 3260
201 3261
201 3262
201 3263
201 3264
201 3265
201 3266
201 3267
201 3268
201 3269
201 3271
201 3272
201 3273
201 3274
201 3275
201 3276
201 3277
201 3278
201 3279
201 3280
201 3281
201 3282
201 3283
201 3284
201 3285
201 3286
201 3287
201 3288
201 3289
201 3290
201 3291
201 3292
201 3293
201 3294
201 3295
201 3296
201 3297
201 3298
201 3299
201 3300
201 3301
201 3302
201 3304
201 3305
201 3307
201 3308
201 3309
201 3310
201 3311
201 3312
201 3313
201 3314
201 3315
201 3317
201 3321
201 3322
201 3323
201 3324
201 3325
201 3326
201 3328
201 3329
201 3330
201 3332
201 3333
201 3334
201 3335
201 3337
201 3340
201 3341
201 3342
201 3343
201 3344
201 3345
201 3346
201 3347
201 3348
201 3349
201 3350
201 3351
201 3352
201 3354
201 3355
201 3356
201 3357
201 3358
201 3359
201 3360
201 3361
201 3362
201 3363
201 3364
201 3365
201 3366
201 3367
201 3368
201 3369
201 3372
201 3373
201 3376
201 3377
201 3378
201 3379
201 3383
201 3384
201 3385
201 3386
201 3387
201 3390
201 3391
201 3392
201 3393
201 3394
201 3395
201 3397
201 3398
201 3399
201 3400
201 3401
201 3402
201 3403
201 3404
201 3405
201 3406
201 3407
201 3408
201 3409
201 3410
201 3411
201 3412
201 3413
201 3414
201 3415
201 3416
201 3417
201 3418
201 3419
201 3420
201 3421
201 3422
201 3423
201 3424
201 3425
201 3426
201 3427
201 3428
201 3429
201 3430
201 3431
201 3434
201 3435
201 3436
201 3437
201 3438
201 3439
201 3440
201 3442
201 3443
202 119
202 121
202 145
202 147
202 154
202 178
202 181
202 182
202 184
202 195
202 196
202 197
202 198
202 199
202 200
202 201
202 1204
202 1915
203 35
203 200
203 201
203 211
203 215
203 249
203 1916
203 1917
203 1918
204 69
204 85
204 201
204 482
204 855
204 1476
204 1919
205 67
205 197
205 275
205 1920
206 201
206 264
206 1921
206 1922
206 1923
207 192
207 197
207 1895
207 1924
208 19
208 31
208 32
208 42
208 55
208 153
208 197
208 463
208 512
208 851
208 854
208 857
208 913
208 932
208 942
208 990
208 1021
208 1024
208 1025
208 1029
208 1110
208 1925
208 2614
209 60
209 61
209 62
209 68
209 116
209 118
209 194
209 197
209 200
209 209
209 242
209 1424
209 1586
209 1926
210 174
210 194
210 197
210 199
210 201
210 210
210 212
210 465
210 466
210 467
210 470
210 711
210 958
210 1622
210 1927
210 1928
211 197
211 203
211 241
211 271
211 357
211 474
211 527
211 538
211 553
211 889
211 908
211 1608
211 1811
211 1929
211 1930
211 1931
212 118
212 174
212 200
212 201
212 210
212 465
212 467
212 1622
212 1932
213 200
213 201
213 297
213 728
213 746
213 759
213 902
213 1552
213 1698
213 1762
213 1933
213 1934
213 1935
213 1936
214 49
214 123
214 124
214 125
214 126
214 148
214 164
214 200
214 201
214 941
214 949
214 959
214 1207
214 1566
214 1937
215 200
215 201
215 203
215 217
215 249
215 941
215 949
215 1916
215 1938
216 200
216 201
216 226
216 227
216 421
216 423
216 925
216 1939
216 1940
216 1941
216 1942
217 35
217 200
217 201
217 215
217 249
217 1580
217 1916
217 1943
218 73
218 80
218 81
218 83
218 85
218 92
218 134
218 135
218 138
218 161
218 174
218 185
218 196
218 199
218 200
218 201
218 224
218 317
218 371
218 392
218 397
218 410
218 431
218 436
218 439
218 443
218 588
218 834
218 879
218 946
218 1152
218 1172
218 1225
218 1264
218 1307
218 1323
218 1344
218 1374
218 1470
218 1491
218 1502
218 1944
218 2003
218 2169
218 2313
218 2343
218 2391
218 2432
219 89
219 158
219 201
219 323
219 387
219 650
219 1660
219 1859
219 1945
220 198
220 201
220 236
220 270
220 1419
220 1637
220 3117
221 201
221 269
221 551
221 1947
221 1948
221 1949
222 86
222 174
222 201
222 1180
222 1950
223 3282
223 3444
224 83
224 92
224 134
224 135
224 161
224 170
224 171
224 185
224 192
224 196
224 199
224 200
224 201
224 218
224 371
224 383
224 392
224 393
224 397
224 403
224 410
224 426
224 431
224 436
224 439
224 443
224 588
224 612
224 726
224 879
224 1134
224 1152
224 1172
224 1213
224 1225
224 1252
224 1264
224 1307
224 1323
224 1344
224 1374
224 1470
224 1491
224 1502
224 1620
224 1621
224 1952
224 2003
224 2157
224 2169
224 2313
224 2331
224 2343
224 2391
224 2432
224 2756
224 3233
224 3263
225 41
225 119
225 121
225 145
225 147
225 154
225 181
225 182
225 184
225 195
225 196
225 197
225 198
225 199
225 200
225 201
225 1953
226 195
226 197
226 200
226 201
226 216
226 341
226 342
226 361
226 394
226 397
226 413
226 421
226 912
226 969
226 972
226 973
226 977
226 1628
226 1828
226 1833
226 1954
226 1955
227 201
227 216
227 413
227 421
227 480
227 912
227 934
227 969
227 973
227 1956
228 64
228 174
228 197
228 200
228 273
228 504
228 564
228 603
228 631
228 866
228 1434
228 1957
229 178
229 189
229 200
229 201
229 420
229 427
229 442
229 483
229 484
229 1018
229 1958
230 200
230 201
230 546
230 1959
231 34
231 46
231 92
231 195
231 197
231 200
231 201
231 297
231 318
231 337
231 347
231 434
231 604
231 668
231 670
231 1000
231 1120
231 1181
231 1182
231 1183
231 1960
231 1961
232 200
232 201
232 516
232 517
232 518
232 947
232 952
232 994
232 1962
233 29
233 53
233 195
233 197
233 200
233 201
233 303
233 350
233 351
233 487
233 597
233 687
233 963
233 1102
233 1103
233 1104
233 1105
233 1323
233 1963
233 1964
233 1965
234 29
234 53
234 200
234 201
234 234
234 480
234 487
234 597
234 686
234 687
234 1101
234 1966
235 200
235 201
235 304
235 480
235 694
235 695
235 696
235 985
235 1967
236 201
236 220
236 270
236 402
236 1968
237 119
237 121
237 145
237 147
237 154
237 181
237 182
237 184
237 195
237 196
237 197
237 198
237 199
237 200
237 201
237 315
237 807
237 1576
237 1969
238 58
238 59
238 119
238 121
238 128
238 145
238 147
238 154
238 181
238 182
238 184
238 195
238 196
238 197
238 198
238 199
238 200
238 201
238 341
238 350
238 923
238 965
238 966
238 980
238 983
238 1011
238 1043
238 1044
238 1079
238 1095
238 1182
238 1970
238 2485
238 2520
238 2574
238 2701
238 2878
238 2949
238 2994
238 3031
238 3047
238 3147
238 3226
238 3410
239 37
239 201
239 253
239 528
239 691
239 692
239 1063
239 1135
239 1141
239 1749
239 1971
240 187
240 189
240 197
240 201
240 253
240 254
240 1972
240 1973
241 44
241 46
241 48
241 92
241 154
241 196
241 200
241 201
241 211
241 241
241 271
241 357
241 371
241 392
241 397
241 410
241 431
241 436
241 439
241 443
241 474
241 527
241 553
241 588
241 879
241 889
241 907
241 908
241 967
241 977
241 1003
241 1004
241 1082
241 1103
241 1148
241 1152
241 1172
241 1225
241 1241
241 1264
241 1280
241 1303
241 1307
241 1323
241 1344
241 1349
241 1374
241 1385
241 1404
241 1416
241 1466
241 1470
241 1491
241 1502
241 1516
241 1974
241 2003
241 2011
241 2036
241 2105
241 2169
241 2189
241 2264
241 2313
241 2343
241 2363
241 2391
241 2432
241 2543
241 3214
241 3294
242 60
242 61
242 62
242 66
242 68
242 116
242 118
242 209
242 933
242 937
242 1422
242 1423
242 1424
242 1586
242 1975
243 74
243 101
243 201
243 258
243 285
243 323
243 430
243 431
243 927
243 928
243 1559
243 1561
243 1617
243 1862
243 1976
243 2832
244 8
244 362
244 363
244 453
244 454
244 633
244 887
244 898
244 1977
244 1978
245 91
245 142
245 193
245 323
245 574
245 645
245 716
245 720
245 726
245 733
245 734
245 793
245 798
245 845
245 901
245 1171
245 1194
245 1233
245 1272
245 1378
245 1507
245 1552
245 1715
245 2178
245 2315
245 2352
245 2393
245 2434
246 201
246 323
246 1808
246 1973
246 1979
246 1980
247 25
247 75
247 196
247 199
247 200
247 201
247 248
247 883
247 884
247 1072
247 1835
247 1837
247 1838
247 1876
247 1981
247 1982
247 1983
247 1984
247 1985
247 1986
247 2827
248 196
248 199
248 200
248 201
248 247
248 308
248 571
248 883
248 884
248 1072
248 1835
248 1837
248 1838
248 1984
248 1987
248 1988
248 2130
248 2195
248 2827
248 2977
248 3011
248 3100
248 3187
248 3188
248 3232
248 3309
248 3317
249 108
249 124
249 125
249 126
249 148
249 164
249 169
249 200
249 201
249 203
249 215
249 217
249 1917
249 1989
250 119
250 121
250 145
250 147
250 154
250 181
250 182
250 184
250 195
250 196
250 197
250 198
250 199
250 200
250 201
250 1020
250 1990
251 44
251 46
251 48
251 89
251 154
251 251
251 252
251 524
251 775
251 791
251 792
251 967
251 977
251 1003
251 1004
251 1082
251 1103
251 1148
251 1241
251 1280
251 1303
251 1349
251 1385
251 1404
251 1416
251 1466
251 1516
251 1546
251 1809
251 1991
251 1992
251 2011
251 2036
251 2105
251 2189
251 2264
251 2363
251 2543
251 3214
251 3294
252 251
252 524
252 775
252 791
252 792
252 1546
252 1991
252 1992
253 120
253 141
253 158
253 168
253 175
253 176
253 197
253 200
253 201
253 239
253 240
253 365
253 399
253 460
253 506
253 507
253 552
253 560
253 576
253 781
253 1357
253 1425
253 1583
253 1584
253 1585
253 1590
253 1808
253 1822
253 1845
253 1993
253 1994
253 2204
253 2490
254 141
254 158
254 168
254 197
254 200
254 201
254 240
254 365
254 399
254 460
254 506
254 552
254 560
254 781
254 1357
254 1590
254 1663
254 1808
254 1993
254 1994
255 200
255 201
255 255
255 256
255 413
255 598
255 717
255 721
255 724
255 729
255 896
255 1881
255 1995
256 82
256 200
256 201
256 255
256 413
256 598
256 717
256 721
256 724
256 729
256 896
256 1881
256 1996
257 53
257 82
257 201
257 262
257 284
257 488
257 658
257 669
257 685
257 1320
257 1997
257 2629
258 92
258 101
258 196
258 201
258 243
258 285
258 323
258 371
258 392
258 397
258 410
258 430
258 431
258 436
258 439
258 443
258 491
258 588
258 879
258 927
258 928
258 1152
258 1172
258 1225
258 1264
258 1307
258 1323
258 1344
258 1374
258 1470
258 1491
258 1502
258 1557
258 1561
258 1617
258 1862
258 1998
258 2003
258 2169
258 2313
258 2343
258 2391
258 2432
258 2832
259 9
259 159
259 189
259 192
259 201
259 261
259 263
259 296
259 380
259 386
259 405
259 416
259 432
259 433
259 539
259 567
259 575
259 581
259 600
259 664
259 665
259 667
259 712
259 747
259 748
259 752
259 755
259 756
259 901
259 978
259 1684
259 1685
259 1696
259 1725
259 1751
259 1999
259 2000
259 2001
259 2002
259 2003
259 2004
259 2005
259 2006
259 2007
259 2008
259 2009
259 2010
259 2011
259 2012
259 2013
259 2014
259 2015
259 2016
259 2524
259 2588
259 3113
260 201
260 337
260 347
260 449
260 670
260 2017
261 9
261 201
261 259
261 261
261 380
261 575
261 581
261 600
261 748
261 756
261 2018
262 53
262 201
262 257
262 262
262 284
262 488
262 658
262 669
262 685
262 1320
262 2019
262 2629
263 177
263 179
263 201
263 259
263 296
263 1751
263 2020
264 122
264 173
264 201
264 206
264 410
264 509
264 547
264 1530
264 1921
264 1922
264 2021
264 2022
264 2023
264 2024
264 2025
264 2026
264 2027
264 2028
264 2029
264 2030
264 2031
264 2032
264 2033
264 2034
264 2035
264 2036
264 2037
264 2038
264 2039
264 2040
264 2041
264 2494
264 2570
264 3116
265 201
265 306
265 2042
266 122
266 173
266 201
266 396
266 492
266 493
266 619
266 1691
266 1692
266 1701
266 1913
266 2043
266 2044
266 2045
266 2046
266 2047
266 2048
266 2049
266 2050
266 2051
266 2052
266 2053
266 2054
266 2055
266 2056
266 2566
266 3131
267 122
267 201
267 1071
267 1589
267 2057
267 2058
267 2059
267 2060
267 2061
267 2062
267 2063
267 2064
267 2065
267 2066
267 2067
267 2068
267 2069
267 2070
267 2071
267 2072
267 2073
267 2074
267 2075
267 2912
268 122
268 173
268 201
268 396
268 536
268 590
268 849
268 1070
268 1726
268 1896
268 2076
268 2077
268 2078
268 2079
268 2080
268 2081
268 2082
268 2083
268 2084
268 2085
268 2086
268 2087
268 2088
268 2659
269 122
269 192
269 201
269 221
269 443
269 446
269 551
269 1545
269 1947
269 1948
269 2089
269 2090
269 2091
269 2092
269 2093
269 2094
269 2095
269 2096
269 2097
269 2098
269 2099
269 2100
269 2101
269 2102
269 2103
269 2104
269 2105
269 2106
269 2107
269 2108
269 2109
269 2590
269 3118
270 122
270 192
270 201
270 220
270 236
270 402
270 447
270 879
270 1415
270 1416
270 1417
270 1419
270 1420
270 1421
270 1637
270 1818
270 2089
270 2110
270 2111
270 2112
270 2113
270 2114
270 2115
270 2116
270 2117
270 2118
270 2119
270 2120
270 2121
270 2122
270 2565
270 2594
271 92
271 196
271 197
271 211
271 241
271 271
271 320
271 357
271 371
271 392
271 397
271 410
271 431
271 436
271 439
271 443
271 474
271 527
271 538
271 553
271 588
271 879
271 889
271 908
271 1152
271 1172
271 1225
271 1264
271 1307
271 1323
271 1344
271 1374
271 1470
271 1491
271 1502
271 1608
271 1931
271 2003
271 2123
271 2124
271 2169
271 2313
271 2343
271 2391
271 2432
272 119
272 121
272 145
272 147
272 154
272 181
272 182
272 184
272 195
272 196
272 197
272 198
272 199
272 200
272 201
272 370
272 374
272 2125
273 64
273 97
273 99
273 110
273 138
273 146
273 159
273 197
273 200
273 228
273 301
273 504
273 558
273 564
273 593
273 603
273 689
273 1161
273 1311
273 1357
273 1359
273 1361
273 1434
273 1443
273 1850
273 2126
273 2678
273 2692
273 3054
274 201
274 306
274 473
274 547
274 2127
275 67
275 197
275 205
275 2128
275 2129
276 196
276 199
276 200
276 201
276 1072
276 2130
277 67
277 197
277 2131
277 2132
278 201
278 2134
278 2135
278 2136
278 3134
279 67
279 197
279 2137
280 201
280 293
280 304
280 2138
281 67
281 197
281 2139
282 158
282 200
282 201
282 362
282 465
282 517
282 519
282 649
282 650
282 786
282 1614
282 1659
282 1660
282 1661
282 1667
282 1673
282 1735
282 2140
282 2794
282 2804
282 2825
282 2926
282 3071
282 3078
282 3085
282 3092
282 3124
282 3183
283 136
283 194
283 196
283 197
283 199
283 200
283 201
283 283
283 884
283 1054
283 2196
283 3189
283 3190
283 3191
284 53
284 201
284 257
284 262
284 488
284 658
284 669
284 685
284 1320
284 2145
284 2629
285 75
285 101
285 201
285 243
285 258
285 323
285 430
285 431
285 927
285 928
285 1558
285 1561
285 1617
285 1862
285 2146
285 2147
285 2148
285 2149
285 2150
285 2151
285 2832
286 159
286 192
286 201
286 1883
286 2144
286 2152
286 2153
286 2154
286 2155
286 2156
286 2157
286 2158
286 2159
286 2160
286 2161
286 2162
286 2163
286 2164
286 2165
286 2166
286 2167
286 2168
286 2169
286 2170
286 2171
286 2172
286 2173
286 2174
286 2175
286 2176
286 2177
286 2178
286 2179
286 2180
286 2181
286 2182
286 2183
286 2184
286 2185
286 2186
286 2187
286 2188
286 2189
286 2190
286 2191
286 2192
286 2193
286 2194
286 2831
286 2858
287 201
287 356
287 371
287 425
287 906
287 2470
287 3187
288 136
288 152
288 156
288 194
288 196
288 197
288 199
288 200
288 201
288 288
288 884
288 1054
288 2197
289 156
289 157
289 187
289 190
289 200
289 201
289 2142
289 2432
289 3230
289 3264
289 3269
289 3280
289 3281
289 3381
289 3382
289 3383
290 69
290 201
290 825
290 826
290 827
290 1484
290 1485
290 1486
290 1487
290 1488
290 1816
290 2201
290 2202
290 2589
290 2683
291 98
291 191
291 195
291 196
291 198
291 199
291 200
291 201
291 362
291 1832
291 2143
291 2197
291 3191
291 3192
291 3306
291 3316
291 3318
291 3319
291 3320
292 69
292 175
292 176
292 177
292 179
292 200
292 201
292 292
292 302
292 1745
292 2203
293 177
293 179
293 200
293 201
293 280
293 679
293 693
293 869
293 2138
293 2204
293 2205
294 201
294 2206
294 2207
294 2208
294 2209
294 2210
294 2211
294 2212
294 2213
294 2214
294 2215
294 2216
294 2217
294 2218
294 2219
294 2220
294 2221
294 2222
294 2223
294 2224
294 2225
294 2502
295 201
295 2206
295 2226
295 2227
295 2228
295 2229
295 2230
295 2231
295 2232
295 2233
295 2234
295 2235
295 2236
295 2237
295 2238
295 2239
295 2240
295 2241
295 2242
295 2243
295 2503
296 177
296 179
296 201
296 259
296 263
296 539
296 1751
296 2016
296 2020
297 34
297 46
297 92
297 122
297 159
297 185
297 189
297 192
297 201
297 213
297 231
297 298
297 318
297 326
297 330
297 345
297 346
297 359
297 434
297 437
297 602
297 604
297 605
297 606
297 668
297 670
297 728
297 746
297 757
297 758
297 811
297 979
297 1000
297 1115
297 1116
297 1118
297 1119
297 1120
297 1122
297 1181
297 1526
297 1550
297 1551
297 1552
297 1553
297 1554
297 1653
297 1698
297 1727
297 1762
297 1866
297 1933
297 2244
297 2245
297 2246
297 2247
297 2248
297 2249
297 2250
297 2251
297 2252
297 2381
298 201
298 297
298 758
298 811
298 1115
298 1526
298 2245
298 2246
298 2247
298 2249
298 2250
298 2251
298 2252
299 70
299 177
299 179
299 201
299 1498
299 1499
299 1523
299 2253
299 3062
300 201
300 349
300 381
300 409
300 411
300 438
300 439
300 461
300 520
300 610
300 611
300 645
300 676
300 677
300 678
300 821
300 822
300 824
300 929
300 951
300 1635
300 1639
300 1689
300 1712
300 1790
300 1854
300 1887
300 1911
300 2254
300 2255
300 2256
300 2257
300 2258
300 2259
300 2260
300 2261
300 2262
300 2263
300 2264
300 2265
300 2266
300 2267
300 2268
300 2269
300 2437
300 2504
301 194
301 197
301 200
301 273
301 305
301 603
301 631
301 881
301 2270
302 175
302 176
302 177
302 179
302 200
302 201
302 292
302 718
302 855
302 1478
302 1745
302 2203
302 2271
303 53
303 201
303 233
303 351
303 352
303 686
303 687
303 1102
303 1103
303 1104
303 1105
303 1107
303 1316
303 1317
303 1318
303 1321
303 1324
303 1325
303 1868
304 44
304 122
304 159
304 192
304 201
304 235
304 280
304 313
304 385
304 486
304 490
304 679
304 690
304 694
304 695
304 696
304 697
304 698
304 735
304 745
304 765
304 784
304 785
304 788
304 793
304 801
304 803
304 814
304 828
304 833
304 869
304 904
304 905
304 948
304 985
304 999
304 1009
304 1172
304 1173
304 1176
304 1177
304 1537
304 1578
304 1595
304 1649
304 1651
304 1654
304 1666
304 1690
304 1780
304 1885
304 1894
304 1895
304 2138
304 2272
304 2273
304 2274
304 2275
304 2276
304 2277
304 2627
304 2684
304 2746
305 194
305 197
305 200
305 301
305 305
305 603
305 631
305 881
305 2270
306 122
306 201
306 265
306 274
306 473
306 478
306 1068
306 1543
306 1589
306 1730
306 2042
306 2127
306 2278
306 2279
306 2280
306 2281
306 2282
306 2283
306 2284
306 2285
306 2286
306 2287
306 2288
306 2571
306 2624
307 7
307 88
307 122
307 192
307 201
307 395
307 548
307 577
307 586
307 588
307 615
307 618
307 655
307 699
307 845
307 875
307 876
307 877
307 1099
307 1401
307 1402
307 1403
307 1404
307 1405
307 1406
307 1407
307 1408
307 1531
307 1639
307 1700
307 1718
307 2289
307 2290
307 2291
307 2292
307 2293
308 200
308 201
308 248
308 1981
309 67
309 197
309 2295
309 2296
310 67
310 197
310 1159
310 2297
310 2298
310 2299
311 140
311 161
311 192
311 194
311 197
311 201
311 317
311 319
311 320
311 379
311 689
311 836
311 849
311 1144
311 1539
311 1540
311 1543
311 1545
311 1620
311 1627
311 2032
311 2223
311 2418
311 2604
312 65
312 93
312 112
312 401
312 422
312 435
312 445
312 530
312 537
312 547
312 550
312 587
312 708
312 709
312 719
312 769
312 1447
312 1456
312 1461
312 1465
312 1466
312 1467
312 1468
312 1469
312 1471
312 1472
312 1474
312 1859
312 2300
312 2491
312 2871
312 2959
312 2998
312 3157
312 3211
312 3340
312 3391
313 200
313 201
313 304
313 480
313 694
313 695
313 696
313 985
313 2301
314 179
314 197
314 201
314 314
314 691
314 692
314 773
314 2302
314 2303
315 114
315 119
315 121
315 145
315 147
315 154
315 181
315 182
315 184
315 195
315 196
315 197
315 198
315 199
315 200
315 201
315 237
315 807
315 1410
315 1576
315 1637
315 1638
315 2092
315 3104
315 3105
316 89
316 201
316 572
316 1623
316 1810
316 2304
316 2305
317 64
317 80
317 83
317 85
317 86
317 87
317 125
317 167
317 170
317 177
317 192
317 193
317 196
317 200
317 201
317 218
317 311
317 363
317 379
317 383
317 393
317 403
317 426
317 502
317 518
317 612
317 630
317 681
317 682
317 688
317 726
317 730
317 771
317 857
317 1213
317 1252
317 1535
317 1620
317 1621
317 1709
317 1714
317 1808
317 1810
317 1811
317 1812
317 1813
317 1892
317 1893
317 2157
317 2331
317 2619
317 2756
317 3233
317 3263
318 34
318 46
318 92
318 195
318 197
318 200
318 201
318 231
318 297
318 337
318 346
318 347
318 434
318 604
318 668
318 670
318 1000
318 1120
318 1181
318 1182
318 1183
318 1960
319 64
319 75
319 125
319 177
319 192
319 196
319 200
319 201
319 311
319 363
319 379
319 414
319 415
319 502
319 518
319 730
319 771
319 857
319 1808
319 1810
319 1811
319 1812
319 1813
320 64
320 125
320 177
320 186
320 192
320 196
320 200
320 201
320 271
320 311
320 363
320 379
320 502
320 518
320 538
320 716
320 730
320 771
320 857
320 1358
320 1360
320 1808
320 1810
320 1811
320 1812
320 1813
320 2306
320 2307
320 2308
321 75
321 201
321 491
321 1876
321 1985
321 2309
322 120
322 150
322 161
322 165
322 166
322 171
322 180
322 700
322 733
322 753
322 759
322 816
322 820
322 835
322 893
322 899
322 2310
322 2311
322 2312
322 2313
322 2314
322 2315
322 2316
322 2508
322 2759
322 2767
322 2792
322 2953
322 3151
322 3236
322 3312
323 48
323 56
323 93
323 95
323 101
323 142
323 149
323 150
323 158
323 159
323 165
323 171
323 174
323 180
323 186
323 192
323 201
323 219
323 243
323 245
323 246
323 258
323 285
323 334
323 364
323 387
323 404
323 426
323 428
323 430
323 431
323 457
323 458
323 480
323 491
323 498
323 512
323 522
323 560
323 716
323 762
323 808
323 840
323 841
323 927
323 928
323 997
323 998
323 1049
323 1200
323 1202
323 1260
323 1358
323 1360
323 1362
323 1363
323 1364
323 1393
323 1435
323 1436
323 1529
323 1556
323 1557
323 1558
323 1559
323 1561
323 1573
323 1591
323 1617
323 1643
323 1645
323 1665
323 1746
323 1764
323 1859
323 1862
323 1868
323 1872
323 1930
323 2149
323 2150
323 2196
323 2317
323 2318
323 2319
323 2320
323 2321
323 2322
323 2323
323 2324
323 2489
323 2586
323 2666
323 2729
323 2787
323 2803
323 2810
323 2817
323 2832
323 2836
323 3070
323 3077
324 159
324 192
324 201
324 344
324 1786
324 2430
324 2431
324 2432
324 2433
324 2434
324 3260
324 3261
324 3262
324 3263
324 3264
324 3265
324 3266
324 3267
324 3268
324 3269
324 3270
324 3271
324 3272
324 3273
324 3274
324 3275
324 3276
324 3277
324 3278
324 3279
324 3280
324 3281
324 3282
324 3283
324 3284
324 3285
324 3286
324 3287
324 3288
324 3289
324 3290
324 3291
324 3292
324 3293
324 3294
324 3295
324 3296
324 3297
324 3298
324 3299
325 12
325 201
325 652
325 885
325 886
325 891
325 892
325 1615
325 2310
325 2311
325 2313
325 2733
325 2828
325 2838
325 2855
325 3321
326 297
326 437
326 811
326 1866
326 1933
327 129
327 169
327 190
327 199
327 200
327 201
327 2310
327 2373
327 2375
327 2823
327 2824
327 3255
328 187
328 190
328 200
328 201
328 430
328 431
328 841
328 1560
328 1643
328 2320
328 2376
328 2377
328 2378
328 2379
329 187
329 190
329 196
329 199
329 200
329 201
329 2199
329 2337
329 3189
329 3190
329 3209
329 3220
329 3374
330 177
330 179
330 201
330 297
330 345
330 2244
330 2381
331 131
331 136
331 138
331 156
331 175
331 176
331 177
331 179
331 191
331 200
331 201
331 800
331 1330
331 1332
331 1742
331 2382
332 156
332 157
332 187
332 190
332 200
332 201
332 336
332 354
332 1253
332 1258
332 1264
332 1269
332 1270
332 1641
332 2383
332 2384
333 120
333 150
333 161
333 165
333 166
333 171
333 180
333 700
333 733
333 753
333 759
333 816
333 820
333 835
333 893
333 899
333 2385
333 2386
333 2508
333 2759
333 2767
333 2792
333 2953
333 3151
333 3236
333 3312
334 56
334 120
334 150
334 166
334 171
334 180
334 323
334 834
334 840
334 841
334 842
334 1208
334 1210
334 1225
334 1232
334 1233
334 2387
335 120
335 150
335 165
335 166
335 171
335 180
335 2388
335 2389
335 2390
335 2391
335 2392
335 2393
335 2394
336 187
336 190
336 196
336 199
336 200
336 201
336 332
336 354
336 1258
336 1268
336 1269
336 2383
336 2384
337 34
337 200
337 201
337 231
337 260
337 318
337 346
337 605
337 670
337 2395
338 120
338 150
338 161
338 165
338 166
338 171
338 180
338 392
338 700
338 720
338 733
338 753
338 759
338 816
338 820
338 834
338 835
338 893
338 899
338 1062
338 1722
338 2396
338 2397
338 2398
338 2399
338 2508
338 2759
338 2767
338 2792
338 2953
338 3151
338 3236
338 3312
339 201
339 2400
339 2401
339 2402
339 2403
339 2404
339 2405
339 2406
339 2407
339 2408
339 2409
339 2410
339 2411
339 2412
339 2413
339 2414
339 2415
339 2416
339 2417
339 2418
339 2419
339 2420
340 37
340 131
340 136
340 138
340 156
340 175
340 176
340 177
340 179
340 191
340 197
340 200
340 201
340 799
340 1063
340 1141
340 1155
340 1749
341 14
341 90
341 94
341 102
341 103
341 104
341 105
341 140
341 153
341 155
341 158
341 160
341 162
341 164
341 166
341 173
341 178
341 184
341 189
341 194
341 197
341 198
341 200
341 201
341 226
341 238
341 342
341 370
341 394
341 449
341 498
341 499
341 528
341 934
341 969
341 972
341 973
341 977
341 1167
341 1393
341 1549
341 1555
341 1628
341 1724
341 1828
341 1833
341 1939
341 1954
341 2421
341 2422
341 2423
341 2424
341 2425
341 2426
341 2427
341 2428
341 2429
342 195
342 197
342 200
342 201
342 226
342 341
342 361
342 394
342 397
342 413
342 421
342 912
342 969
342 972
342 973
342 977
342 1628
342 1828
342 1833
342 1939
342 1954
343 44
343 46
343 48
343 154
343 197
343 651
343 967
343 977
343 1003
343 1004
343 1082
343 1103
343 1148
343 1241
343 1280
343 1303
343 1349
343 1385
343 1404
343 1416
343 1466
343 1516
343 1848
343 2011
343 2036
343 2105
343 2189
343 2264
343 2363
343 2543
343 3214
343 3294
344 120
344 150
344 161
344 165
344 166
344 171
344 180
344 324
344 700
344 733
344 753
344 759
344 816
344 820
344 835
344 893
344 899
344 1786
344 2430
344 2431
344 2432
344 2433
344 2434
344 2435
344 2508
344 2759
344 2767
344 2792
344 2953
344 3151
344 3236
344 3312
345 177
345 179
345 201
345 297
345 330
345 345
345 2244
346 34
346 46
346 92
346 195
346 197
346 200
346 201
346 297
346 318
346 337
346 347
346 434
346 604
346 668
346 670
346 1000
346 1120
346 1181
346 1182
346 1183
346 1960
347 34
347 200
347 201
347 231
347 260
347 318
347 346
347 605
347 670
347 2017
347 2395
348 27
348 57
348 70
348 201
348 480
348 666
348 674
348 762
348 982
348 2436
349 157
349 201
349 300
349 438
349 461
349 2437
350 90
350 94
350 102
350 103
350 104
350 105
350 140
350 153
350 155
350 158
350 160
350 162
350 164
350 166
350 173
350 178
350 184
350 189
350 194
350 197
350 198
350 200
350 201
350 233
350 238
350 351
350 352
350 370
350 449
350 498
350 499
350 528
350 686
350 687
350 963
350 1100
350 1102
350 1103
350 1104
350 1105
350 1107
350 1167
350 1316
350 1317
350 1325
350 1393
350 1549
350 1555
350 1963
350 1964
350 2438
350 2439
350 2440
350 2441
350 2442
350 2443
351 29
351 53
351 195
351 197
351 200
351 201
351 233
351 303
351 350
351 352
351 487
351 597
351 687
351 963
351 1102
351 1103
351 1104
351 1105
351 1323
351 1963
351 1964
352 29
352 53
352 195
352 197
352 200
352 201
352 303
352 350
352 351
352 487
352 597
352 687
352 963
352 1102
352 1103
352 1104
352 1105
352 1323
352 1963
352 1964
353 51
353 120
353 150
353 165
353 166
353 171
353 180
353 836
353 1246
353 1248
353 1264
353 1271
353 1272
353 2444
354 187
354 190
354 200
354 201
354 332
354 336
354 1253
354 1258
354 1264
354 1268
354 1269
354 2383
354 2384
354 2444
355 201
355 1587
355 2445
355 2446
355 2447
355 2448
355 2449
355 2450
355 2451
355 2452
355 2453
355 2454
355 2455
355 2456
355 2457
355 2458
355 2459
355 2460
355 2461
355 2462
355 2463
356 122
356 159
356 192
356 287
356 371
356 425
356 578
356 583
356 656
356 701
356 871
356 906
356 992
356 1002
356 1004
356 1007
356 1639
356 1793
356 1897
356 1898
356 1899
356 2294
356 2370
356 2464
356 2465
356 2466
356 2467
356 2468
356 2469
356 2470
356 2471
356 2472
356 2473
356 2474
356 2475
356 2476
356 2477
356 2478
356 2835
356 2861
357 200
357 201
357 211
357 241
357 271
357 474
357 527
357 553
357 907
357 908
357 1980
357 2479
358 8
358 362
358 363
358 453
358 454
358 633
358 640
358 642
358 647
358 844
358 1604
358 1977
358 1978
358 2480
358 2481
358 2728
359 11
359 140
359 142
359 150
359 165
359 168
359 180
359 297
359 437
359 1061
359 1698
359 1933
359 2482
359 2483
360 132
360 195
360 197
360 198
360 200
360 201
360 653
360 991
360 1001
360 1003
360 1006
360 2310
360 2313
360 2733
360 2877
360 2878
360 2879
360 2880
360 3332
361 14
361 201
361 226
361 342
361 394
361 413
361 537
361 751
361 934
361 973
361 977
361 1628
361 1724
361 1833
361 1939
361 2428
361 2429
361 2488
362 8
362 63
362 194
362 197
362 244
362 282
362 291
362 358
362 362
362 363
362 453
362 454
362 633
362 636
362 639
362 642
362 773
362 786
362 844
362 846
362 847
362 848
362 850
362 931
362 936
362 1604
362 1978
362 2480
362 2481
362 2728
363 192
363 244
363 317
363 319
363 320
363 358
363 362
363 453
363 454
363 633
363 639
363 640
363 642
363 647
363 844
363 846
363 847
363 850
363 931
363 936
363 1604
363 2480
363 2481
363 2728
364 48
364 113
364 115
364 128
364 195
364 197
364 200
364 201
364 323
364 430
364 431
364 480
364 997
364 998
364 1035
364 1198
364 1199
364 1200
364 1201
364 1202
364 1573
364 1597
364 1598
364 1602
364 2489
365 194
365 197
365 201
365 253
365 254
365 506
365 564
365 1584
365 1846
365 2490
366 185
366 199
366 200
366 201
366 1861
366 2310
366 2491
366 2733
366 3362
367 2035
367 2036
367 2037
367 2038
367 2039
367 2040
367 2041
367 2494
368 67
368 197
368 2495
368 2496
368 2497
369 67
369 197
369 1158
369 2498
370 58
370 59
370 128
370 182
370 199
370 201
370 272
370 341
370 350
370 370
370 373
370 374
370 923
370 965
370 966
370 980
370 983
370 1011
370 1043
370 1044
370 1079
370 1095
370 1166
370 1182
370 2485
370 2520
370 2574
370 2701
370 2878
370 2949
370 2994
370 3031
370 3047
370 3147
370 3226
370 3410
371 93
371 96
371 97
371 98
371 99
371 101
371 106
371 107
371 108
371 110
371 111
371 113
371 115
371 117
371 123
371 124
371 125
371 126
371 127
371 128
371 134
371 135
371 137
371 138
371 144
371 145
371 146
371 147
371 148
371 154
371 157
371 161
371 162
371 164
371 167
371 168
371 169
371 170
371 175
371 176
371 179
371 180
371 181
371 182
371 184
371 185
371 192
371 193
371 194
371 195
371 197
371 198
371 199
371 200
371 201
371 218
371 224
371 241
371 258
371 271
371 287
371 356
371 391
371 425
371 459
371 500
371 513
371 547
371 553
371 558
371 691
371 692
371 772
371 843
371 907
371 927
371 992
371 1002
371 1004
371 1007
371 1049
371 1050
371 1161
371 1311
371 1359
371 1529
371 1773
371 1788
371 1825
371 1862
371 1898
371 1899
371 2464
371 2466
371 2467
371 2468
371 2469
371 2470
371 2471
371 2472
371 2476
371 2477
371 2478
371 2835
371 2861
372 388
372 413
372 1750
372 1882
372 2576
373 201
373 370
373 373
373 374
374 201
374 272
374 370
374 373
374 374
374 1166
374 2301
375 63
375 96
375 127
375 157
375 173
375 190
375 197
375 375
375 376
375 459
375 468
375 469
375 501
375 513
375 514
375 515
375 632
375 843
375 880
375 1427
375 1429
375 1430
375 1431
375 1432
375 1577
375 1600
375 1601
375 1603
375 1719
375 1720
375 1734
375 2609
375 2610
375 2611
375 2612
375 2613
375 2617
375 2618
375 2636
375 2637
375 2638
375 2650
375 2727
376 63
376 96
376 127
376 129
376 157
376 173
376 190
376 375
376 459
376 468
376 469
376 501
376 502
376 513
376 514
376 515
376 632
376 877
376 880
376 1427
376 1429
376 1430
376 1431
376 1432
376 1568
376 1577
376 1600
376 1601
376 1603
376 1719
376 1720
376 1734
376 2254
376 2609
376 2610
376 2611
376 2612
376 2613
376 2617
376 2618
376 2636
376 2637
376 2638
376 2650
376 2727
377 194
377 200
377 201
377 507
377 552
377 2500
378 201
378 1852
378 2134
378 2135
378 2501
379 56
379 81
379 168
379 192
379 194
379 197
379 201
379 311
379 317
379 319
379 320
379 379
379 460
379 471
379 474
379 1536
380 9
380 201
380 259
380 261
380 433
380 567
380 575
380 581
380 600
380 748
380 756
380 2502
380 2503
381 201
381 300
381 411
381 430
381 645
381 2262
381 2263
381 2264
381 2265
381 2266
381 2267
381 2268
381 2269
381 2504
382 28
382 77
382 201
382 401
382 419
382 445
382 1703
382 2505
383 73
383 80
383 81
383 83
383 85
383 134
383 135
383 138
383 161
383 174
383 185
383 196
383 199
383 200
383 201
383 224
383 317
383 834
383 946
383 2310
383 2315
383 2506
383 2507
383 2508
383 2509
383 2510
383 2511
383 3330
383 3349
384 174
384 195
384 196
384 197
384 199
384 200
384 201
384 1062
384 2484
384 2485
384 2486
384 2514
384 2515
384 2532
384 2542
384 2543
384 2544
384 2545
384 3358
384 3359
384 3360
384 3361
385 44
385 195
385 197
385 200
385 201
385 304
385 690
385 695
385 948
385 985
385 999
385 1009
385 1172
385 1173
385 1176
385 1177
385 2277
385 2520
385 2521
385 2522
385 2523
386 201
386 259
386 416
386 558
386 581
386 1725
386 2524
387 201
387 219
387 323
387 387
387 512
387 786
387 1665
387 1859
387 2319
388 177
388 179
388 200
388 201
388 372
388 418
388 1750
388 1882
388 2576
389 52
389 201
389 424
389 429
389 559
389 1293
389 2525
390 201
390 491
390 720
390 1062
390 2398
390 2528
390 2529
390 2530
390 2531
390 2532
390 2533
390 2534
390 2535
390 2536
390 2537
390 2538
390 2539
390 2540
390 2541
390 2542
390 2543
390 2544
390 2545
390 2546
390 2547
390 2548
390 2549
390 2550
390 2830
390 2857
390 2910
390 3340
391 92
391 119
391 121
391 132
391 145
391 147
391 154
391 181
391 182
391 184
391 195
391 196
391 197
391 198
391 199
391 200
391 201
391 371
391 392
391 397
391 410
391 431
391 436
391 439
391 443
391 588
391 879
391 1152
391 1172
391 1225
391 1264
391 1307
391 1323
391 1344
391 1374
391 1470
391 1491
391 1502
391 2003
391 2169
391 2313
391 2343
391 2391
391 2432
391 2527
392 93
392 96
392 97
392 98
392 99
392 101
392 106
392 107
392 108
392 110
392 111
392 113
392 115
392 117
392 123
392 124
392 125
392 126
392 127
392 128
392 134
392 135
392 137
392 138
392 144
392 145
392 146
392 147
392 148
392 154
392 157
392 161
392 162
392 164
392 167
392 168
392 169
392 170
392 175
392 176
392 179
392 180
392 181
392 182
392 184
392 185
392 192
392 193
392 194
392 195
392 197
392 198
392 199
392 200
392 201
392 218
392 224
392 241
392 258
392 271
392 338
392 391
392 459
392 500
392 513
392 547
392 553
392 558
392 691
392 692
392 720
392 772
392 843
392 907
392 927
392 1049
392 1050
392 1062
392 1161
392 1311
392 1359
392 1529
392 1773
392 1788
392 1825
392 1862
392 2398
392 2528
392 2529
392 2530
392 2531
392 2532
392 2533
392 2534
392 2535
392 2536
392 2537
392 2538
392 2539
392 2540
392 2541
392 2542
392 2543
392 2544
392 2545
392 2546
392 2547
392 2548
392 2549
392 2550
392 2830
392 2857
393 73
393 80
393 81
393 83
393 85
393 134
393 135
393 138
393 161
393 174
393 185
393 196
393 199
393 200
393 201
393 224
393 317
393 782
393 834
393 946
393 1194
393 2551
393 2552
393 2553
394 195
394 197
394 200
394 201
394 226
394 341
394 342
394 361
394 397
394 413
394 421
394 969
394 972
394 977
394 1628
394 1828
394 1833
394 1939
394 2427
394 2428
394 2429
394 2488
394 2554
395 7
395 201
395 307
395 430
395 655
395 845
395 1403
395 1404
395 1405
395 1406
395 1407
395 1408
395 2293
395 2555
396 50
396 120
396 150
396 161
396 166
396 171
396 180
396 266
396 268
396 700
396 733
396 753
396 759
396 816
396 820
396 835
396 849
396 893
396 899
396 1731
396 2508
396 2759
396 2767
396 2792
396 2953
396 3151
396 3236
396 3312
397 93
397 96
397 97
397 98
397 99
397 101
397 106
397 107
397 108
397 110
397 111
397 113
397 115
397 117
397 123
397 124
397 125
397 126
397 127
397 128
397 134
397 135
397 137
397 138
397 144
397 145
397 146
397 147
397 148
397 154
397 157
397 161
397 162
397 164
397 167
397 168
397 169
397 170
397 175
397 176
397 179
397 180
397 181
397 182
397 184
397 185
397 192
397 193
397 194
397 195
397 197
397 198
397 199
397 200
397 201
397 218
397 224
397 226
397 241
397 258
397 271
397 342
397 391
397 394
397 412
397 413
397 459
397 500
397 513
397 547
397 553
397 558
397 691
397 692
397 772
397 843
397 907
397 927
397 977
397 1049
397 1050
397 1161
397 1311
397 1359
397 1529
397 1628
397 1773
397 1788
397 1825
397 1833
397 1862
397 1939
397 2428
397 2429
397 2488
398 174
398 195
398 196
398 197
398 199
398 200
398 201
398 1005
398 1043
398 1045
398 2035
398 2036
398 2037
398 2038
398 2039
398 2561
398 2886
398 3341
398 3342
398 3343
398 3344
399 8
399 120
399 194
399 197
399 201
399 253
399 254
399 454
399 467
399 506
399 552
399 1065
399 1556
399 1747
399 1808
399 1901
399 1978
399 2499
399 2500
399 2562
399 2647
399 2788
400 69
400 195
400 197
400 200
400 201
400 442
400 484
400 953
400 960
400 967
400 1008
400 1011
400 1013
400 1019
400 1491
400 1492
400 1493
400 1912
400 2563
400 2564
401 65
401 112
401 201
401 312
401 382
401 419
401 435
401 445
401 587
401 1474
401 1703
401 2505
402 201
402 236
402 270
402 1818
402 2112
402 2113
402 2117
402 2565
403 73
403 80
403 81
403 83
403 85
403 134
403 135
403 138
403 161
403 174
403 185
403 196
403 199
403 200
403 201
403 224
403 317
403 492
403 700
403 834
403 946
403 2566
403 2567
404 131
404 137
404 159
404 169
404 187
404 189
404 192
404 195
404 196
404 198
404 199
404 200
404 201
404 323
404 491
404 502
404 716
404 2058
404 2317
404 2318
404 2568
404 2569
404 2570
404 2571
405 201
405 259
405 433
405 537
405 664
405 665
405 747
405 901
405 2000
405 2001
405 2002
405 2004
405 2005
405 2007
405 2010
405 2011
405 2012
405 2013
405 2014
405 2015
405 2588
405 3113
406 45
406 119
406 121
406 145
406 147
406 154
406 181
406 182
406 184
406 195
406 196
406 197
406 198
406 199
406 200
406 201
406 2123
407 47
407 199
407 201
407 1073
407 1081
407 1082
407 1083
407 1085
407 1086
407 1087
407 1185
407 1191
407 1192
407 1194
407 2749
408 37
408 201
408 1138
408 1853
408 2572
409 201
409 300
409 1854
409 2259
409 2573
410 93
410 96
410 97
410 98
410 99
410 101
410 106
410 107
410 108
410 110
410 111
410 113
410 115
410 117
410 123
410 124
410 125
410 126
410 127
410 128
410 134
410 135
410 137
410 138
410 144
410 145
410 146
410 147
410 148
410 154
410 157
410 161
410 162
410 164
410 167
410 168
410 169
410 170
410 175
410 176
410 179
410 180
410 181
410 182
410 184
410 185
410 192
410 193
410 194
410 195
410 197
410 198
410 199
410 200
410 201
410 218
410 224
410 241
410 258
410 264
410 271
410 391
410 459
410 500
410 513
410 547
410 553
410 558
410 691
410 692
410 772
410 843
410 907
410 927
410 1049
410 1050
410 1161
410 1311
410 1359
410 1529
410 1773
410 1788
410 1825
410 1862
410 2021
410 2035
410 2036
410 2037
410 2038
410 2039
410 2040
410 2041
410 2494
411 132
411 195
411 197
411 198
411 200
411 201
411 300
411 381
411 439
411 543
411 951
411 962
411 1012
411 2263
411 2264
411 2265
411 2266
411 2574
411 2575
412 14
412 120
412 150
412 161
412 166
412 171
412 180
412 397
412 413
412 418
412 700
412 733
412 753
412 759
412 816
412 820
412 834
412 835
412 893
412 899
412 934
412 972
412 973
412 1705
412 1724
412 1792
412 2508
412 2759
412 2767
412 2792
412 2953
412 3151
412 3236
412 3312
413 14
413 159
413 192
413 201
413 226
413 227
413 255
413 256
413 342
413 361
413 372
413 394
413 397
413 412
413 414
413 418
413 421
413 592
413 598
413 717
413 721
413 724
413 751
413 896
413 934
413 972
413 973
413 977
413 1628
413 1652
413 1683
413 1705
413 1724
413 1792
413 1833
413 1881
413 1882
413 1939
413 2428
413 2429
413 2488
413 2576
413 2577
413 2578
413 2695
414 85
414 174
414 200
414 201
414 319
414 413
414 1683
414 2577
414 2579
414 2580
414 2581
414 2695
415 85
415 174
415 200
415 201
415 319
415 418
415 751
415 2579
415 2580
415 2582
416 156
416 173
416 189
416 200
416 201
416 259
416 386
416 581
416 689
416 1725
416 2524
417 197
417 201
417 450
417 451
417 691
417 692
417 1624
417 1906
417 1909
417 2499
417 2500
418 11
418 140
418 142
418 150
418 165
418 168
418 180
418 388
418 412
418 413
418 415
418 751
418 1061
418 1792
418 2482
419 201
419 382
419 401
419 445
419 497
419 1703
419 2505
420 4
420 200
420 201
420 229
420 427
420 442
420 483
420 484
420 737
420 763
420 2583
421 14
421 201
421 216
421 226
421 227
421 342
421 394
421 413
421 480
421 912
421 934
421 969
421 973
421 1724
421 1939
421 1940
421 1941
422 16
422 65
422 112
422 201
422 312
422 435
422 494
422 708
422 709
422 719
422 965
422 1026
422 1031
422 1036
422 1040
422 1449
422 1456
422 1461
422 1464
422 1570
422 1783
423 198
423 200
423 201
423 216
423 449
423 912
423 1940
423 1941
424 52
424 201
424 389
424 429
424 940
424 944
424 955
424 964
424 966
424 971
424 974
424 976
424 984
424 1291
424 1292
424 1293
424 1784
424 2525
425 120
425 150
425 161
425 165
425 166
425 171
425 180
425 287
425 356
425 371
425 700
425 733
425 753
425 759
425 816
425 820
425 834
425 835
425 871
425 893
425 899
425 1793
425 2294
425 2370
425 2508
425 2759
425 2767
425 2792
425 2953
425 3151
425 3236
425 3312
426 73
426 80
426 81
426 83
426 85
426 134
426 135
426 138
426 161
426 174
426 185
426 186
426 196
426 199
426 200
426 201
426 224
426 317
426 323
426 560
426 716
426 733
426 734
426 750
426 834
426 946
426 1358
426 1360
426 1364
426 1746
426 2306
426 2307
426 2584
426 2787
427 4
427 69
427 199
427 200
427 201
427 229
427 420
427 442
427 483
427 484
427 737
427 1489
428 185
428 199
428 200
428 201
428 323
428 430
428 537
428 629
428 2323
428 2585
428 2586
429 52
429 198
429 201
429 389
429 424
429 1291
429 1292
429 1293
429 2525
430 48
430 101
430 186
430 201
430 243
430 258
430 285
430 323
430 328
430 364
430 381
430 395
430 428
430 446
430 447
430 491
430 530
430 537
430 547
430 550
430 560
430 591
430 716
430 906
430 927
430 928
430 997
430 998
430 1200
430 1202
430 1343
430 1358
430 1360
430 1364
430 1559
430 1561
430 1573
430 1617
430 1643
430 1746
430 1764
430 2317
430 2318
430 2320
430 2321
430 2379
430 2489
430 2491
430 2787
430 2832
430 2871
430 2959
430 2998
430 3157
430 3211
430 3340
430 3391
431 48
431 93
431 95
431 96
431 97
431 98
431 99
431 101
431 106
431 107
431 108
431 110
431 111
431 113
431 115
431 117
431 123
431 124
431 125
431 126
431 127
431 128
431 134
431 135
431 137
431 138
431 144
431 145
431 146
431 147
431 148
431 154
431 157
431 161
431 162
431 164
431 167
431 168
431 169
431 170
431 175
431 176
431 179
431 180
431 181
431 182
431 184
431 185
431 186
431 192
431 193
431 194
431 195
431 197
431 198
431 199
431 200
431 201
431 218
431 224
431 241
431 243
431 258
431 271
431 285
431 323
431 328
431 364
431 391
431 459
431 491
431 500
431 513
431 547
431 553
431 558
431 691
431 692
431 716
431 772
431 843
431 907
431 927
431 928
431 997
431 998
431 1049
431 1050
431 1161
431 1200
431 1202
431 1311
431 1358
431 1359
431 1360
431 1529
431 1559
431 1561
431 1573
431 1617
431 1643
431 1764
431 1773
431 1788
431 1825
431 1862
431 2317
431 2318
431 2320
431 2321
431 2379
431 2489
431 2832
432 120
432 150
432 161
432 166
432 171
432 180
432 259
432 539
432 664
432 665
432 700
432 733
432 753
432 759
432 816
432 820
432 834
432 835
432 893
432 899
432 901
432 1795
432 2003
432 2005
432 2006
432 2007
432 2508
432 2587
432 2759
432 2767
432 2792
432 2953
432 3151
432 3236
432 3312
433 200
433 201
433 259
433 380
433 405
433 464
433 480
433 664
433 665
433 667
433 978
433 2005
433 2007
433 2008
433 2009
433 2013
433 2588
434 34
434 46
434 92
434 195
434 197
434 200
434 201
434 231
434 297
434 318
434 346
434 668
434 670
434 1000
434 1116
434 1117
434 1120
434 1121
434 1122
434 1181
434 1182
434 1183
434 1553
434 1554
435 65
435 201
435 312
435 401
435 422
435 494
435 587
435 709
435 719
435 1449
435 1456
435 1461
435 1464
435 1474
435 1570
436 47
436 93
436 96
436 97
436 98
436 99
436 101
436 106
436 107
436 108
436 110
436 111
436 113
436 115
436 117
436 123
436 124
436 125
436 126
436 127
436 128
436 134
436 135
436 137
436 138
436 144
436 145
436 146
436 147
436 148
436 154
436 157
436 161
436 162
436 164
436 167
436 168
436 169
436 170
436 175
436 176
436 179
436 180
436 181
436 182
436 184
436 185
436 192
436 193
436 194
436 195
436 197
436 198
436 199
436 200
436 201
436 218
436 224
436 241
436 258
436 271
436 391
436 444
436 459
436 500
436 513
436 547
436 553
436 558
436 691
436 692
436 772
436 843
436 907
436 927
436 1049
436 1050
436 1073
436 1081
436 1082
436 1083
436 1085
436 1086
436 1087
436 1161
436 1185
436 1191
436 1192
436 1194
436 1311
436 1359
436 1529
436 1773
436 1788
436 1825
436 1862
436 2749
437 92
437 120
437 150
437 161
437 166
437 171
437 180
437 189
437 297
437 326
437 359
437 602
437 604
437 700
437 733
437 753
437 759
437 816
437 820
437 834
437 835
437 893
437 899
437 979
437 1118
437 1181
437 1552
437 1884
437 2248
437 2508
437 2759
437 2767
437 2792
437 2953
437 3151
437 3236
437 3312
438 201
438 300
438 349
438 611
438 821
438 2255
438 2257
438 2258
438 2259
439 93
439 96
439 97
439 98
439 99
439 101
439 106
439 107
439 108
439 110
439 111
439 113
439 115
439 117
439 123
439 124
439 125
439 126
439 127
439 128
439 134
439 135
439 137
439 138
439 144
439 145
439 146
439 147
439 148
439 154
439 157
439 161
439 162
439 164
439 167
439 168
439 169
439 170
439 175
439 176
439 179
439 180
439 181
439 182
439 184
439 185
439 192
439 193
439 194
439 195
439 197
439 198
439 199
439 200
439 201
439 218
439 224
439 241
439 258
439 271
439 300
439 391
439 411
439 459
439 500
439 513
439 547
439 553
439 558
439 645
439 691
439 692
439 772
439 843
439 907
439 927
439 929
439 1049
439 1050
439 1161
439 1311
439 1359
439 1529
439 1773
439 1788
439 1825
439 1862
439 2262
439 2263
439 2264
439 2265
439 2266
439 2267
439 2268
439 2269
439 2504
440 69
440 120
440 150
440 161
440 166
440 171
440 180
440 483
440 544
440 545
440 700
440 733
440 753
440 759
440 816
440 820
440 834
440 835
440 842
440 855
440 893
440 899
440 1013
440 1479
440 1480
440 1481
440 1488
440 1491
440 2508
440 2589
440 2759
440 2767
440 2792
440 2953
440 3151
440 3236
440 3312
441 69
441 199
441 201
441 1486
441 1487
441 1488
442 69
442 200
442 201
442 229
442 400
442 420
442 427
442 482
442 483
442 484
442 545
442 737
442 763
442 953
442 967
442 1008
442 1480
442 1481
442 1489
442 1492
442 1493
442 1867
442 1889
442 1912
442 2583
443 93
443 96
443 97
443 98
443 99
443 101
443 106
443 107
443 108
443 110
443 111
443 113
443 115
443 117
443 123
443 124
443 125
443 126
443 127
443 128
443 134
443 135
443 137
443 138
443 144
443 145
443 146
443 147
443 148
443 154
443 157
443 161
443 162
443 164
443 167
443 168
443 169
443 170
443 175
443 176
443 179
443 180
443 181
443 182
443 184
443 185
443 192
443 193
443 194
443 195
443 197
443 198
443 199
443 200
443 201
443 218
443 224
443 241
443 258
443 269
443 271
443 391
443 459
443 500
443 513
443 547
443 553
443 558
443 691
443 692
443 772
443 843
443 907
443 927
443 1049
443 1050
443 1161
443 1311
443 1359
443 1529
443 1773
443 1788
443 1825
443 1862
443 2089
443 2104
443 2105
443 2106
443 2107
443 2108
443 2109
443 2590
444 47
444 120
444 150
444 161
444 166
444 171
444 180
444 436
444 700
444 733
444 753
444 759
444 816
444 820
444 835
444 870
444 893
444 899
444 1194
444 1197
444 1731
444 2508
444 2591
444 2759
444 2767
444 2792
444 2953
444 3151
444 3236
444 3312
445 10
445 122
445 190
445 192
445 201
445 312
445 382
445 401
445 419
445 496
445 497
445 554
445 556
445 557
445 570
445 585
445 624
445 625
445 638
445 646
445 648
445 710
445 787
445 810
445 812
445 813
445 1362
445 1473
445 1571
445 1572
445 1607
445 1703
445 1903
445 2505
445 2562
445 2592
445 2593
445 2633
446 201
446 269
446 430
446 551
446 2103
446 2104
446 2105
446 2106
446 2107
446 2108
446 2109
446 2590
447 201
447 270
447 430
447 1415
447 1416
447 1417
447 1419
447 1420
447 1421
447 2122
447 2594
448 201
448 472
448 475
448 643
448 706
448 1067
448 1606
448 1770
448 1802
448 2595
448 2596
448 2597
448 2598
448 2599
448 2600
448 2601
448 2602
448 2603
448 2604
448 2605
448 2606
448 2620
449 58
449 59
449 86
449 89
449 128
449 174
449 182
449 198
449 201
449 260
449 341
449 350
449 423
449 923
449 965
449 966
449 980
449 983
449 1011
449 1043
449 1044
449 1079
449 1095
449 1182
449 1856
449 1857
449 1858
449 2485
449 2520
449 2574
449 2701
449 2878
449 2949
449 2994
449 3031
449 3047
449 3147
449 3226
449 3410
450 185
450 201
450 417
450 451
450 1753
450 1906
450 1909
450 2499
451 131
451 136
451 137
451 197
451 201
451 417
451 450
451 1624
451 1849
451 1906
451 1909
451 2499
451 2500
452 11
452 70
452 142
452 150
452 165
452 168
452 180
452 481
452 732
452 742
452 1061
452 1495
452 2482
452 2607
453 244
453 358
453 362
453 363
453 453
453 633
453 639
453 844
453 846
453 847
453 848
453 850
453 931
453 936
453 2480
453 2481
453 2728
454 244
454 358
454 362
454 363
454 399
454 460
454 633
454 634
454 639
454 844
454 846
454 847
454 848
454 850
454 931
454 936
454 2481
454 2728
455 67
455 197
455 511
455 1160
455 2608
456 67
456 197
456 1160
456 1475
457 199
457 200
457 201
457 323
457 591
457 629
457 1665
457 2586
458 94
458 185
458 199
458 200
458 201
458 323
458 500
458 1863
459 63
459 92
459 127
459 196
459 197
459 371
459 375
459 376
459 392
459 397
459 410
459 431
459 436
459 439
459 443
459 588
459 879
459 1152
459 1172
459 1225
459 1264
459 1307
459 1323
459 1344
459 1374
459 1427
459 1470
459 1491
459 1502
459 2003
459 2169
459 2313
459 2343
459 2391
459 2432
459 2609
459 2610
459 2611
459 2612
459 2613
460 8
460 120
460 194
460 197
460 201
460 253
460 254
460 379
460 454
460 495
460 506
460 576
460 651
460 704
460 776
460 781
460 897
460 1610
460 1614
460 1662
460 1678
460 1748
460 1822
460 1823
460 1978
460 2614
460 2615
461 201
461 300
461 349
461 821
461 1790
461 2257
461 2258
462 54
462 201
462 1326
462 1334
462 1355
462 1567
462 1646
462 3036
463 19
463 31
463 32
463 42
463 55
463 153
463 208
463 463
463 512
463 851
463 854
463 857
463 913
463 932
463 942
463 990
463 1021
463 1024
463 1025
463 1029
463 1110
463 1834
463 2614
464 201
464 433
464 480
464 484
464 666
464 670
464 695
464 981
464 1542
464 1548
464 1740
465 162
465 194
465 197
465 199
465 201
465 210
465 212
465 282
465 465
465 466
465 467
465 470
465 649
465 711
465 786
465 958
465 1622
465 1659
465 1673
465 1735
465 1928
465 2616
466 194
466 197
466 199
466 201
466 210
466 465
466 466
466 467
466 470
466 711
466 958
466 1622
466 1928
467 194
467 197
467 199
467 201
467 210
467 212
467 399
467 465
467 466
467 467
467 470
467 711
467 958
467 1622
467 1928
468 63
468 127
468 197
468 375
468 376
468 843
468 1732
468 1733
468 2617
469 63
469 127
469 197
469 375
469 376
469 502
469 1426
469 1428
469 2618
470 194
470 197
470 199
470 201
470 210
470 465
470 466
470 467
470 1622
470 1928
471 81
471 194
471 197
471 201
471 379
471 471
472 201
472 448
472 706
472 1067
472 1802
472 2620
473 201
473 274
473 306
473 473
474 80
474 200
474 201
474 211
474 241
474 271
474 357
474 379
474 527
474 553
474 889
474 907
474 908
474 1710
474 2479
474 2619
475 201
475 448
475 706
475 1067
475 2595
475 2597
475 2601
475 2620
476 201
476 609
476 620
476 1655
476 2621
476 2622
476 2623
477 53
477 201
477 488
477 764
477 1312
477 1314
477 1893
478 201
478 306
478 1068
478 2058
478 2280
478 2284
478 2285
478 2571
478 2624
479 201
479 589
479 609
479 620
479 1655
479 2621
479 2623
479 2625
479 2626
480 34
480 48
480 113
480 115
480 128
480 174
480 195
480 196
480 197
480 199
480 200
480 201
480 227
480 234
480 235
480 313
480 323
480 348
480 364
480 421
480 433
480 464
480 484
480 487
480 546
480 605
480 666
480 667
480 670
480 672
480 674
480 695
480 696
480 978
480 981
480 982
480 985
480 997
480 998
480 1010
480 1035
480 1096
480 1097
480 1098
480 1101
480 1118
480 1119
480 1198
480 1199
480 1200
480 1482
480 1494
480 1501
480 1513
480 1514
480 1522
480 1542
480 1548
480 1578
480 1651
480 1666
480 1740
480 1890
480 1895
480 1922
480 2008
480 2009
480 2627
481 27
481 70
481 120
481 150
481 161
481 166
481 171
481 180
481 452
481 601
481 608
481 672
481 700
481 723
481 733
481 742
481 753
481 759
481 815
481 816
481 820
481 834
481 835
481 893
481 899
481 981
481 1010
481 1088
481 1089
481 1495
481 1501
481 1502
481 1504
481 1505
481 1506
481 1507
481 1512
481 1522
481 1524
481 2508
481 2607
481 2628
481 2759
481 2767
481 2792
481 2953
481 3151
481 3236
481 3312
482 64
482 69
482 177
482 183
482 201
482 204
482 442
482 855
482 1476
482 1483
482 1488
482 1538
483 69
483 229
483 420
483 427
483 440
483 442
483 484
483 545
483 546
483 737
483 763
483 1011
483 1013
483 1014
483 1015
483 1016
483 1017
483 1018
483 1480
483 1481
483 1482
483 1489
483 1494
483 1713
483 1779
483 1867
483 1889
483 1890
483 2583
484 69
484 201
484 229
484 400
484 420
484 427
484 442
484 464
484 480
484 483
484 545
484 546
484 737
484 763
484 1480
484 1481
484 1482
484 1489
484 1494
484 1867
484 1889
484 1890
484 2583
485 53
485 120
485 150
485 161
485 166
485 171
485 180
485 488
485 669
485 686
485 687
485 700
485 725
485 733
485 753
485 759
485 816
485 820
485 834
485 835
485 868
485 893
485 899
485 963
485 1312
485 1313
485 1314
485 1316
485 1317
485 1323
485 2508
485 2629
485 2759
485 2767
485 2792
485 2953
485 3151
485 3236
485 3312
486 201
486 304
486 735
486 765
486 784
486 785
486 788
486 814
486 1537
486 1894
486 2273
486 2684
487 29
487 53
487 201
487 233
487 234
487 351
487 352
487 480
487 597
487 686
487 687
487 1101
487 1105
487 1316
487 1317
487 1891
488 53
488 201
488 257
488 262
488 284
488 477
488 485
488 658
488 669
488 684
488 685
488 1312
488 1320
488 1322
488 1891
488 2629
489 1
489 53
489 163
489 174
489 201
489 681
489 682
489 683
489 684
489 868
489 1319
489 1892
489 1893
490 120
490 150
490 161
490 166
490 171
490 180
490 304
490 694
490 700
490 733
490 753
490 759
490 793
490 816
490 820
490 834
490 835
490 869
490 893
490 899
490 999
490 1172
490 1706
490 1780
490 2272
490 2276
490 2508
490 2759
490 2767
490 2792
490 2953
490 3151
490 3236
490 3312
491 199
491 200
491 201
491 258
491 321
491 323
491 390
491 404
491 430
491 431
491 512
491 971
491 1214
491 1253
491 2043
491 2158
491 2317
491 2318
491 2332
491 2569
491 2733
491 3194
491 3264
492 64
492 177
492 201
492 266
492 403
492 700
492 870
492 1691
492 1913
492 2043
492 2630
493 185
493 199
493 200
493 201
493 266
493 550
493 2043
493 2056
493 2631
494 65
494 201
494 422
494 435
494 635
494 1449
494 1464
494 1570
495 174
495 200
495 460
495 769
495 1820
495 1829
495 1900
495 2632
496 112
496 173
496 201
496 445
496 497
496 624
496 625
496 1447
496 2633
496 2634
497 10
497 201
497 419
497 445
497 496
497 638
497 646
497 648
497 787
497 810
497 812
497 813
497 2633
498 58
498 59
498 128
498 182
498 185
498 199
498 200
498 201
498 323
498 341
498 350
498 500
498 923
498 965
498 966
498 980
498 983
498 1011
498 1043
498 1044
498 1079
498 1095
498 1182
498 1863
498 2485
498 2520
498 2574
498 2701
498 2878
498 2949
498 2994
498 3031
498 3047
498 3147
498 3226
498 3410
499 58
499 59
499 119
499 121
499 128
499 145
499 147
499 154
499 181
499 182
499 184
499 195
499 196
499 197
499 198
499 199
499 200
499 201
499 341
499 350
499 923
499 965
499 966
499 980
499 983
499 1011
499 1043
499 1044
499 1079
499 1095
499 1182
499 2324
499 2485
499 2520
499 2574
499 2701
499 2878
499 2949
499 2994
499 3031
499 3047
499 3147
499 3226
499 3410
500 76
500 92
500 185
500 196
500 199
500 200
500 201
500 371
500 392
500 397
500 410
500 431
500 436
500 439
500 443
500 458
500 498
500 547
500 588
500 879
500 1152
500 1172
500 1225
500 1264
500 1307
500 1323
500 1344
500 1374
500 1393
500 1470
500 1491
500 1502
500 1863
500 1868
500 1872
500 2003
500 2169
500 2313
500 2324
500 2343
500 2391
500 2432
500 2635
501 63
501 114
501 127
501 197
501 375
501 376
501 502
501 1426
501 1428
501 1719
501 2636
501 2637
501 2638
502 63
502 173
502 191
502 192
502 317
502 319
502 320
502 376
502 404
502 469
502 501
502 502
502 514
502 529
502 663
502 1211
502 1250
502 1426
502 1428
502 2155
502 2329
502 2732
502 2789
502 2799
502 2849
502 2850
502 2937
502 3221
502 3261
503 200
503 201
503 520
503 543
503 951
503 962
503 1012
503 1728
503 1886
503 2574
503 2639
503 2640
503 2641
503 2642
503 2643
503 2644
504 228
504 273
504 523
504 582
504 613
504 631
504 1433
504 1444
504 1446
505 165
505 171
505 201
505 508
505 589
505 620
505 1686
505 1697
506 120
506 153
506 179
506 194
506 197
506 201
506 253
506 254
506 365
506 399
506 460
506 506
506 552
506 576
506 691
506 693
506 718
506 743
506 895
506 1065
506 1425
506 1583
506 1584
506 1585
506 1590
506 1642
506 1672
506 1741
506 1742
506 1743
506 1745
506 1749
506 1750
506 1752
506 2645
506 2646
506 2648
506 2782
506 2971
506 3008
506 3168
506 3399
506 3402
507 200
507 201
507 253
507 377
507 528
507 552
507 560
507 691
507 692
507 2647
508 201
508 505
508 508
508 589
508 620
508 1686
508 1697
509 190
509 200
509 201
509 264
509 2022
509 2030
509 3116
510 177
510 510
510 532
510 562
510 563
510 1625
510 2680
511 67
511 455
511 511
511 512
511 2129
511 2298
511 2497
512 19
512 31
512 32
512 42
512 55
512 153
512 175
512 176
512 177
512 179
512 200
512 201
512 208
512 323
512 387
512 463
512 491
512 511
512 512
512 634
512 808
512 851
512 854
512 857
512 913
512 932
512 942
512 990
512 1021
512 1024
512 1025
512 1029
512 1049
512 1110
512 1556
512 2129
512 2298
512 2497
512 2614
512 2648
512 2649
513 63
513 92
513 127
513 196
513 197
513 371
513 375
513 376
513 392
513 397
513 410
513 431
513 436
513 439
513 443
513 588
513 879
513 1152
513 1172
513 1225
513 1264
513 1307
513 1323
513 1344
513 1374
513 1470
513 1491
513 1502
513 1601
513 2003
513 2169
513 2313
513 2343
513 2391
513 2432
514 63
514 127
514 197
514 375
514 376
514 502
514 1161
514 1426
514 1428
515 63
515 127
515 137
515 197
515 375
515 376
515 1428
515 1720
515 2650
516 6
516 15
516 200
516 201
516 232
516 517
516 518
516 565
516 946
516 947
516 950
516 952
516 956
516 993
516 994
516 995
516 1736
517 6
517 15
517 17
517 18
517 56
517 158
517 170
517 185
517 200
517 201
517 232
517 282
517 516
517 517
517 518
517 519
517 584
517 678
517 707
517 946
517 947
517 950
517 952
517 956
517 993
517 994
517 995
517 1215
517 1254
517 1736
517 1875
517 2159
517 2333
517 2630
517 2904
517 3265
517 3302
518 6
518 15
518 192
518 200
518 201
518 232
518 317
518 319
518 320
518 516
518 517
518 518
518 519
518 565
518 946
518 947
518 950
518 952
518 956
518 993
518 994
518 995
518 1736
518 1875
519 6
519 158
519 170
519 200
519 201
519 282
519 517
519 518
519 946
519 947
519 950
519 952
519 993
519 994
519 995
519 1736
520 200
520 201
520 300
520 503
520 929
520 951
520 962
520 1012
520 1728
520 1886
520 2574
520 2639
520 2640
520 2641
520 2642
520 2643
520 2644
521 49
521 123
521 124
521 125
521 126
521 148
521 164
521 169
521 189
521 200
521 201
521 1203
521 1435
521 2651
522 64
522 97
522 99
522 110
522 122
522 138
522 144
522 159
522 323
522 558
522 689
522 797
522 1161
522 1260
522 1311
522 1357
522 1359
522 1361
522 1435
522 1436
522 1437
522 1438
522 1439
522 1440
522 1441
522 1442
522 1443
522 1879
522 2291
522 2634
522 2655
522 2678
522 2803
522 2810
522 2816
522 2817
522 2925
522 3054
522 3070
522 3077
522 3084
523 64
523 159
523 197
523 504
523 564
523 565
523 797
523 1260
523 1435
523 1436
523 1437
523 1438
523 1439
523 1440
523 1441
523 1442
523 1444
523 1879
523 2291
523 2634
523 2655
523 2803
523 2810
523 2816
523 2817
523 2925
523 3070
523 3077
523 3084
524 22
524 251
524 252
524 524
524 775
524 791
524 792
524 1546
524 1809
524 1991
525 52
525 64
525 177
525 201
525 872
525 971
525 984
525 1286
525 1288
525 1295
525 2826
526 52
526 148
526 159
526 164
526 187
526 189
526 196
526 199
526 200
526 201
526 559
526 628
526 689
526 1294
527 197
527 211
527 241
527 271
527 357
527 474
527 538
527 553
527 889
527 908
527 1608
527 1931
528 58
528 59
528 128
528 175
528 182
528 200
528 201
528 239
528 341
528 350
528 507
528 923
528 965
528 966
528 980
528 983
528 1011
528 1043
528 1044
528 1079
528 1095
528 1182
528 1662
528 1747
528 1748
528 2485
528 2520
528 2574
528 2647
528 2701
528 2878
528 2949
528 2994
528 3031
528 3047
528 3147
528 3226
528 3410
529 131
529 137
529 159
529 169
529 187
529 189
529 192
529 195
529 196
529 198
529 199
529 200
529 201
529 502
529 720
529 1062
529 2529
529 2530
529 2531
529 2652
529 2757
530 199
530 200
530 201
530 312
530 430
530 3249
530 3264
530 3291
531 47
531 201
531 549
531 1184
531 1193
531 1196
531 1798
531 2677
532 162
532 177
532 510
532 532
532 562
532 563
532 1625
532 2680
533 54
533 109
533 884
533 1328
533 1329
533 1336
533 1348
533 1349
533 1350
533 1351
533 1352
533 1354
533 1569
533 1721
533 2653
533 2654
534 65
534 112
534 201
534 623
534 809
534 1448
534 1450
534 1462
534 1656
534 2655
535 201
535 1647
535 1681
535 1694
535 2134
535 2135
535 2656
535 2657
535 2658
536 201
536 268
536 590
536 1070
536 2076
536 2078
536 2084
536 2659
537 199
537 200
537 201
537 312
537 361
537 405
537 428
537 430
537 668
537 671
537 690
537 1178
537 2585
538 161
538 166
538 195
538 197
538 211
538 271
538 320
538 527
538 553
538 734
538 1931
539 11
539 140
539 142
539 150
539 165
539 168
539 180
539 259
539 296
539 432
539 747
539 755
539 1061
539 1795
539 2482
540 100
540 114
540 139
540 172
540 178
540 200
540 201
540 541
540 938
540 1043
540 1045
540 1530
540 1922
540 2561
540 2660
540 2661
540 2662
540 2663
540 2664
540 2665
540 2666
541 200
541 201
541 540
541 1043
541 1045
541 1530
541 1922
541 2561
541 2660
541 2661
541 2662
541 2663
541 2664
541 2665
542 57
542 201
542 558
542 673
542 761
542 1365
542 1440
542 2667
542 2779
543 174
543 195
543 196
543 197
543 199
543 200
543 201
543 411
543 503
543 951
543 962
543 1012
543 1728
543 1886
543 2263
543 2264
543 2265
543 2266
543 2574
543 2668
543 2669
543 2670
543 2671
543 2672
543 2673
544 69
544 190
544 200
544 201
544 440
544 617
544 855
544 1479
544 1481
544 1668
544 2674
545 69
545 440
545 442
545 483
545 484
545 546
545 1011
545 1013
545 1014
545 1015
545 1016
545 1017
545 1018
545 1480
545 1481
545 1482
545 1494
545 1713
545 1779
545 1890
546 21
546 69
546 201
546 230
546 480
546 483
546 484
546 545
546 1482
546 1494
546 1890
547 37
547 92
547 196
547 199
547 200
547 201
547 264
547 274
547 312
547 371
547 392
547 397
547 410
547 430
547 431
547 436
547 439
547 443
547 500
547 588
547 879
547 1152
547 1172
547 1225
547 1264
547 1307
547 1323
547 1344
547 1374
547 1470
547 1491
547 1502
547 1868
547 2003
547 2062
547 2169
547 2313
547 2343
547 2391
547 2432
547 2635
548 201
548 307
548 884
548 1099
548 1400
548 1401
548 1402
548 1403
548 1404
548 1405
548 1406
548 1407
548 1408
548 1531
548 2292
548 2675
548 2676
549 47
549 201
549 531
549 1187
549 1188
549 1817
549 2677
550 199
550 200
550 201
550 312
550 430
550 493
550 2043
550 2631
551 64
551 177
551 201
551 221
551 269
551 446
551 2093
551 2095
551 2099
551 2100
551 2101
551 2102
552 44
552 46
552 48
552 120
552 154
552 200
552 201
552 253
552 254
552 377
552 399
552 506
552 507
552 576
552 789
552 967
552 977
552 1003
552 1004
552 1082
552 1103
552 1148
552 1241
552 1280
552 1303
552 1349
552 1385
552 1404
552 1416
552 1466
552 1516
552 1584
552 1585
552 1614
552 1846
552 1901
552 2011
552 2036
552 2105
552 2189
552 2264
552 2363
552 2543
552 2788
552 3214
552 3294
553 92
553 196
553 197
553 211
553 241
553 271
553 357
553 371
553 392
553 397
553 410
553 431
553 436
553 439
553 443
553 474
553 527
553 538
553 588
553 879
553 881
553 889
553 908
553 1152
553 1172
553 1225
553 1264
553 1307
553 1323
553 1344
553 1374
553 1470
553 1491
553 1502
553 1608
553 1847
553 1931
553 2003
553 2169
553 2313
553 2343
553 2391
553 2432
553 2678
554 185
554 194
554 201
554 445
554 556
554 557
554 710
554 911
554 1903
554 2562
554 2592
555 5
555 555
555 837
555 838
555 839
555 1462
555 1675
555 1847
555 2308
556 157
556 201
556 445
556 554
556 557
556 624
556 710
556 1607
556 1900
556 1903
556 2562
556 2592
557 201
557 445
557 554
557 556
557 710
557 1903
557 2562
557 2593
558 56
558 64
558 92
558 159
558 174
558 192
558 196
558 201
558 273
558 371
558 386
558 392
558 397
558 410
558 431
558 436
558 439
558 443
558 522
558 542
558 565
558 573
558 588
558 606
558 879
558 1152
558 1172
558 1225
558 1264
558 1294
558 1307
558 1323
558 1344
558 1374
558 1470
558 1479
558 1491
558 1502
558 2003
558 2169
558 2313
558 2343
558 2391
558 2432
559 52
559 201
559 389
559 526
559 1285
559 1287
559 1290
559 1294
559 1296
559 1297
559 1298
559 1299
559 1301
559 2679
559 2685
560 56
560 192
560 196
560 200
560 201
560 253
560 254
560 323
560 426
560 430
560 507
560 2647
561 177
561 563
561 1642
561 1754
561 2680
562 177
562 510
562 532
562 562
562 563
562 1625
562 2680
562 2681
563 177
563 510
563 532
563 561
563 562
563 1625
563 1753
564 122
564 131
564 136
564 138
564 146
564 156
564 175
564 176
564 179
564 191
564 194
564 197
564 200
564 201
564 228
564 273
564 365
564 523
564 565
564 582
564 593
564 603
564 613
564 631
564 691
564 692
564 866
564 881
564 1433
564 1434
564 1444
564 1445
564 1446
564 1636
564 1677
564 1850
564 2691
564 2692
565 64
565 97
565 99
565 110
565 138
565 159
565 197
565 516
565 518
565 523
565 558
565 564
565 613
565 689
565 866
565 1161
565 1311
565 1357
565 1359
565 1361
565 1443
565 1444
565 2678
565 3054
566 200
566 201
566 566
566 1196
566 1197
566 1442
566 2591
567 201
567 259
567 380
567 567
567 575
567 581
567 600
568 200
568 201
568 568
568 594
568 626
568 2748
569 196
569 199
569 200
569 201
569 580
569 654
569 659
569 790
569 798
569 1340
569 1341
569 1568
570 65
570 112
570 174
570 192
570 201
570 445
570 585
570 675
570 1453
570 1473
570 1571
570 1572
571 86
571 132
571 191
571 196
571 197
571 199
571 200
571 201
571 248
571 721
571 810
571 819
571 1451
571 1611
571 1612
571 2245
571 2682
571 2683
571 2684
571 2685
572 197
572 201
572 316
572 572
572 691
572 692
572 1623
572 1810
572 2304
573 70
573 201
573 558
573 607
573 1439
573 1495
573 1496
573 1874
573 2709
574 56
574 150
574 166
574 171
574 174
574 176
574 180
574 200
574 245
574 576
574 1206
574 1614
574 1616
575 9
575 201
575 259
575 261
575 380
575 567
575 581
575 600
575 748
575 756
576 120
576 133
576 158
576 168
576 194
576 197
576 201
576 253
576 460
576 506
576 552
576 574
576 650
576 1065
576 1590
577 131
577 136
577 138
577 156
577 176
577 179
577 191
577 200
577 201
577 307
577 577
577 586
577 596
577 1756
577 2645
578 200
578 201
578 356
578 579
578 583
578 614
578 621
578 622
578 884
578 992
578 1002
578 1004
578 1007
578 2466
578 2476
578 2478
578 2686
578 2687
578 2688
578 2715
579 200
579 201
579 578
579 583
579 614
579 621
579 622
579 983
579 1022
579 1027
579 1032
579 1041
579 1777
579 1796
579 2686
580 54
580 109
580 177
580 201
580 569
580 654
580 659
580 798
580 1327
580 1340
580 1341
580 1342
580 1346
580 1568
580 2689
580 2690
581 9
581 201
581 259
581 261
581 380
581 386
581 416
581 567
581 575
581 600
581 712
581 748
581 756
582 64
582 146
582 159
582 162
582 197
582 200
582 504
582 564
582 603
582 1433
582 1677
582 1850
582 2691
582 2692
583 77
583 200
583 201
583 356
583 578
583 579
583 614
583 621
583 622
583 983
583 1022
583 1027
583 1032
583 1041
583 1777
583 1796
583 2686
584 54
584 130
584 142
584 143
584 150
584 160
584 165
584 167
584 168
584 170
584 180
584 187
584 189
584 192
584 200
584 201
584 517
584 800
584 1061
584 1327
584 1342
584 2690
585 112
585 165
585 171
585 192
585 201
585 445
585 570
585 1473
585 1571
585 1572
586 176
586 179
586 200
586 201
586 307
586 577
586 586
586 596
586 1756
586 2645
587 65
587 112
587 173
587 312
587 401
587 435
587 623
587 1474
588 7
588 88
588 93
588 96
588 97
588 98
588 99
588 101
588 106
588 107
588 108
588 110
588 111
588 113
588 115
588 117
588 123
588 124
588 125
588 126
588 127
588 128
588 134
588 135
588 137
588 138
588 144
588 145
588 146
588 147
588 148
588 154
588 157
588 161
588 162
588 164
588 167
588 168
588 169
588 170
588 175
588 176
588 179
588 180
588 181
588 182
588 184
588 185
588 192
588 193
588 194
588 195
588 197
588 198
588 199
588 200
588 201
588 218
588 224
588 241
588 258
588 271
588 307
588 391
588 459
588 500
588 513
588 547
588 553
588 558
588 655
588 691
588 692
588 772
588 843
588 845
588 907
588 927
588 1049
588 1050
588 1161
588 1311
588 1359
588 1403
588 1404
588 1405
588 1406
588 1407
588 1408
588 1529
588 1773
588 1788
588 1825
588 1862
588 2293
589 201
589 479
589 505
589 508
589 620
589 1648
589 1686
589 1697
589 2693
590 201
590 268
590 536
590 1726
590 1896
590 2085
590 2659
590 2694
591 199
591 200
591 201
591 430
591 457
591 591
591 629
591 1872
592 173
592 200
592 201
592 413
592 717
592 1437
592 1652
592 1792
592 2578
593 197
593 200
593 273
593 564
593 603
593 613
593 1636
594 200
594 201
594 568
594 626
594 1285
594 2748
595 175
595 176
595 177
595 179
595 200
595 201
595 595
595 627
595 874
595 984
595 1310
596 175
596 176
596 177
596 179
596 200
596 201
596 577
596 586
596 596
596 1756
596 2645
597 29
597 200
597 201
597 233
597 234
597 351
597 352
597 487
597 1108
598 200
598 201
598 255
598 256
598 413
598 717
598 721
598 724
598 729
598 896
598 1652
598 1880
598 1881
598 2578
598 2582
598 2695
599 40
599 144
599 200
599 201
599 603
599 677
599 822
599 823
599 824
599 1635
599 1712
599 1887
599 1888
600 9
600 201
600 259
600 261
600 380
600 567
600 575
600 581
600 748
600 756
600 1725
601 57
601 70
601 481
601 608
601 671
601 672
601 981
601 1010
601 1501
601 1504
601 1505
601 1506
601 1513
601 1514
601 1522
601 2696
601 2697
601 2698
601 2699
601 2700
601 2701
601 2702
602 34
602 297
602 437
602 604
602 605
602 668
602 670
602 979
602 1118
602 1119
602 1181
602 1182
602 2248
602 2703
602 2704
602 2705
602 2706
602 2707
602 2708
603 159
603 197
603 228
603 273
603 301
603 305
603 564
603 582
603 593
603 599
603 613
603 631
603 805
603 806
603 824
603 866
603 942
603 1355
603 1356
603 1361
603 1433
603 1434
603 1445
603 1446
603 1614
603 1635
603 1677
603 1850
603 1887
603 2692
604 34
604 231
604 297
604 318
604 346
604 437
604 602
604 605
604 668
604 670
604 979
604 1118
604 1119
604 1181
604 1182
604 2248
604 2703
604 2704
604 2705
604 2706
604 2707
604 2708
605 28
605 34
605 201
605 297
605 337
605 347
605 480
605 602
605 604
605 670
605 1118
605 1119
606 201
606 297
606 558
606 758
606 1438
606 1653
606 1727
606 2483
607 70
607 201
607 573
607 760
607 818
607 819
607 1497
607 1508
607 1509
607 1510
607 1511
607 1512
607 1874
607 2628
607 2709
608 70
608 481
608 601
608 671
608 672
608 981
608 1010
608 1501
608 1504
608 1505
608 1506
608 1513
608 1514
608 1522
608 2696
608 2697
608 2698
608 2699
608 2700
608 2701
608 2702
609 201
609 476
609 479
609 620
609 1648
609 2621
609 2622
609 2710
610 166
610 201
610 300
610 611
610 1689
610 1911
610 2260
610 2261
611 201
611 300
611 438
611 610
611 637
611 660
611 1689
611 1911
611 2260
611 2261
612 135
612 138
612 161
612 174
612 185
612 200
612 201
612 224
612 317
612 637
612 641
612 645
612 660
612 676
612 1699
612 1717
612 2262
612 2269
612 2711
613 64
613 122
613 146
613 159
613 197
613 200
613 504
613 564
613 565
613 593
613 603
613 866
613 881
613 1445
613 1446
613 1636
613 1850
614 173
614 200
614 201
614 578
614 579
614 583
614 621
614 622
614 983
614 1022
614 1027
614 1032
614 1041
614 1777
614 1796
614 2686
615 7
615 138
615 174
615 192
615 201
615 307
615 618
615 655
615 699
615 845
615 875
615 876
615 1700
615 1718
615 1739
615 1763
615 1842
616 69
616 156
616 159
616 173
616 189
616 200
616 201
616 617
616 1479
616 1668
617 69
617 173
617 201
617 544
617 616
617 825
617 1441
617 1479
617 1668
618 7
618 11
618 88
618 142
618 150
618 165
618 307
618 615
618 655
618 699
618 1739
618 1756
618 2289
619 201
619 266
619 1691
619 1692
619 1701
619 1913
619 2047
619 2055
619 2566
620 201
620 476
620 479
620 505
620 508
620 589
620 609
620 1540
620 1587
620 1648
620 1655
620 1686
620 1697
620 2621
620 2622
620 2623
620 2625
620 2626
620 2693
620 2712
620 2713
620 2714
621 198
621 200
621 201
621 578
621 579
621 583
621 614
621 622
621 983
621 992
621 1002
621 1004
621 1007
621 1022
621 1027
621 1032
621 1041
621 1048
621 1777
621 1796
621 2466
621 2476
621 2478
621 2686
622 174
622 195
622 196
622 197
622 199
622 200
622 201
622 578
622 579
622 583
622 614
622 621
622 983
622 992
622 1002
622 1004
622 1007
622 1048
622 2466
622 2686
622 2715
622 2716
622 2717
622 2718
622 2719
623 65
623 112
623 190
623 200
623 201
623 534
623 587
623 709
623 862
623 1448
623 1450
623 1473
623 2720
623 2721
623 2722
623 2745
624 112
624 201
624 445
624 496
624 556
624 625
624 809
624 1362
624 1607
624 2633
624 2634
625 173
625 200
625 201
625 445
625 496
625 624
625 2633
625 2723
625 2724
625 2725
625 2731
626 52
626 190
626 200
626 201
626 568
626 594
626 628
626 872
626 984
626 1292
626 1294
626 2748
627 52
627 175
627 176
627 177
627 179
627 200
627 201
627 595
627 627
627 874
627 1310
627 1657
628 52
628 201
628 526
628 626
628 1287
628 1294
628 1310
628 1657
629 107
629 199
629 200
629 201
629 428
629 457
629 591
629 909
629 974
629 1016
629 1026
629 1027
629 1028
629 1056
629 1076
629 1092
629 1395
629 1409
629 1827
629 1872
629 2423
629 2440
629 2640
629 2661
629 2698
629 2705
629 2739
629 2891
629 2898
629 2945
629 2990
629 3028
629 3107
629 3143
629 3365
629 3420
630 170
630 185
630 196
630 199
630 200
630 201
630 317
630 688
630 731
630 766
630 817
630 900
630 902
630 1709
630 1714
630 2506
630 2551
630 2726
630 2757
630 2764
630 2791
630 2942
630 3140
630 3234
630 3310
631 64
631 146
631 159
631 197
631 200
631 228
631 301
631 305
631 504
631 564
631 603
631 1434
631 1850
631 2126
632 63
632 127
632 197
632 375
632 376
632 843
632 1430
632 1431
632 2727
633 8
633 174
633 244
633 358
633 362
633 363
633 453
633 454
633 636
633 639
633 640
633 2480
633 2481
633 2728
634 8
634 56
634 175
634 176
634 177
634 179
634 200
634 201
634 454
634 512
634 640
634 642
634 718
634 808
634 1978
634 2648
634 2649
635 65
635 201
635 494
635 675
635 809
635 1448
635 1450
635 1451
635 1452
635 1457
635 1458
635 1459
635 1460
635 1463
636 8
636 49
636 123
636 124
636 125
636 126
636 148
636 164
636 169
636 200
636 201
636 362
636 633
636 949
637 171
637 185
637 192
637 200
637 201
637 611
637 612
637 641
637 645
637 660
637 676
637 1699
637 1717
637 1911
638 10
638 201
638 445
638 497
638 638
638 646
638 648
638 787
638 810
638 812
638 813
639 8
639 362
639 363
639 453
639 454
639 633
639 848
639 1978
639 2729
640 176
640 179
640 358
640 363
640 633
640 634
640 640
640 642
640 647
640 718
640 848
640 1604
641 196
641 199
641 200
641 201
641 612
641 637
641 645
641 660
641 676
641 1699
641 1911
641 2254
642 176
642 179
642 358
642 362
642 363
642 634
642 640
642 647
642 718
642 1604
643 179
643 200
643 201
643 448
643 643
643 657
643 702
643 1606
643 1757
643 2646
644 131
644 136
644 138
644 156
644 175
644 176
644 179
644 191
644 197
644 200
644 201
644 644
644 1034
644 1062
644 1743
644 1744
644 2730
645 87
645 189
645 201
645 245
645 300
645 381
645 439
645 612
645 637
645 641
645 660
645 676
645 929
645 1674
645 1699
645 1911
645 2254
646 10
646 192
646 201
646 445
646 497
646 638
646 648
646 768
646 787
646 810
646 812
646 813
646 2731
647 358
647 363
647 640
647 642
647 647
647 649
647 848
647 861
647 1604
648 201
648 445
648 497
648 638
648 646
648 648
648 810
649 158
649 200
649 201
649 282
649 465
649 647
649 650
649 786
649 1659
649 1660
649 1667
649 1673
649 1735
649 2140
650 89
650 158
650 176
650 200
650 219
650 282
650 576
650 649
650 786
650 834
650 887
650 898
650 1546
650 1659
650 1661
650 1665
650 1667
650 1673
650 1735
650 2794
650 2804
650 2825
650 2926
650 3071
650 3078
650 3085
650 3092
650 3124
650 3183
651 158
651 168
651 200
651 201
651 343
651 460
651 1661
651 1667
651 1848
651 2794
651 2804
651 2825
651 2926
651 3071
651 3078
651 3085
651 3092
651 3124
651 3183
652 200
652 201
652 325
652 653
652 780
652 1814
652 2310
652 2313
652 2732
652 2733
652 2734
653 200
653 201
653 360
653 652
653 1814
653 2310
653 2313
653 2732
653 2733
653 2734
654 54
654 109
654 174
654 185
654 569
654 580
654 659
654 798
654 1327
654 1340
654 1341
654 1342
654 1345
654 1346
654 2689
654 2690
655 7
655 201
655 307
655 395
655 588
655 615
655 618
655 699
655 1739
655 2735
656 131
656 136
656 138
656 156
656 177
656 179
656 191
656 200
656 201
656 356
656 656
656 701
656 919
656 1752
656 1846
657 131
657 136
657 138
657 156
657 179
657 191
657 197
657 200
657 201
657 643
657 657
657 702
657 1606
657 1757
657 2646
658 53
658 201
658 257
658 262
658 284
658 488
658 661
658 669
658 685
658 1320
658 1322
658 2629
659 54
659 109
659 166
659 185
659 192
659 569
659 580
659 654
659 798
659 1340
659 1341
659 1346
659 2689
660 185
660 192
660 200
660 201
660 611
660 612
660 637
660 641
660 645
660 676
660 1699
660 1717
660 1911
661 53
661 120
661 150
661 166
661 171
661 180
661 658
661 725
661 834
661 868
661 1322
662 201
662 1647
662 1878
662 1908
662 2134
662 2135
662 2136
662 2736
663 131
663 137
663 159
663 169
663 187
663 189
663 192
663 195
663 196
663 198
663 199
663 200
663 201
663 502
663 1500
663 1507
663 1815
663 2764
663 3061
663 3063
664 259
664 405
664 432
664 433
664 665
664 667
664 978
664 980
664 1058
664 2005
664 2006
664 2007
664 2008
664 2009
664 2588
664 2738
664 2739
664 2740
664 2741
664 2742
664 2743
665 259
665 405
665 432
665 433
665 664
665 667
665 978
665 980
665 2005
665 2006
665 2007
665 2008
665 2009
665 2738
665 2739
665 2740
665 2741
665 2742
665 2743
666 27
666 57
666 201
666 348
666 464
666 480
666 674
666 762
666 982
666 1096
666 1097
666 1098
666 1387
667 28
667 200
667 201
667 259
667 433
667 480
667 664
667 665
667 978
667 2008
667 2009
668 46
668 201
668 231
668 297
668 318
668 346
668 434
668 537
668 602
668 604
668 979
668 1000
668 1116
668 1120
668 1122
668 1550
668 1551
668 1552
668 1553
668 1554
668 1933
668 2248
668 2381
669 53
669 192
669 201
669 257
669 262
669 284
669 485
669 488
669 658
669 685
669 1320
669 1322
669 2629
670 34
670 201
670 231
670 260
670 297
670 318
670 337
670 346
670 347
670 434
670 464
670 480
670 602
670 604
670 605
670 979
670 1118
670 1119
670 2248
671 27
671 57
671 70
671 201
671 537
671 601
671 608
671 732
671 1088
671 1500
671 1503
671 1504
671 1506
671 1507
671 1515
671 1516
671 1517
671 1518
671 1519
671 1520
671 1521
671 1524
671 1815
671 3061
672 28
672 70
672 201
672 480
672 481
672 601
672 608
672 672
672 981
672 1010
672 1501
672 1513
672 1514
672 1522
673 57
673 173
673 201
673 542
673 1365
673 1440
673 2744
673 2779
674 27
674 28
674 57
674 70
674 201
674 348
674 480
674 666
674 674
674 762
674 982
674 1096
674 1097
674 1098
675 65
675 192
675 201
675 570
675 635
675 768
675 809
675 1451
675 1452
675 1454
675 1455
675 1457
675 1458
675 1459
675 1460
675 1463
675 1571
675 2745
676 177
676 200
676 201
676 300
676 612
676 637
676 641
676 645
676 660
676 1699
676 1717
676 2254
676 2262
676 2269
676 2711
677 200
677 201
677 300
677 599
677 822
677 823
677 824
677 1635
677 1712
677 1887
677 1888
677 2254
678 130
678 142
678 143
678 150
678 160
678 165
678 167
678 168
678 170
678 180
678 187
678 189
678 192
678 200
678 201
678 300
678 517
678 1061
678 2262
678 2269
678 2711
679 177
679 179
679 200
679 201
679 293
679 304
679 693
679 2204
679 2205
679 2746
680 69
680 201
680 825
680 826
680 1477
680 1490
680 1816
680 2589
680 2683
681 200
681 201
681 317
681 489
681 682
681 684
681 1318
681 1892
681 2579
682 171
682 200
682 201
682 317
682 489
682 681
682 684
682 1318
682 1892
682 2579
683 53
683 163
683 200
683 201
683 489
683 684
683 1319
683 1892
683 1893
684 163
684 200
684 201
684 488
684 489
684 681
684 682
684 683
684 1319
684 1892
684 2579
685 53
685 201
685 257
685 262
685 284
685 488
685 658
685 669
685 1320
685 1322
685 2629
685 2747
686 53
686 234
686 303
686 350
686 485
686 487
686 687
686 963
686 1101
686 1316
686 1317
686 1891
686 2438
686 2439
686 2440
686 2441
686 2442
686 2443
687 53
687 233
687 234
687 303
687 350
687 351
687 352
687 485
687 487
687 686
687 963
687 1101
687 1316
687 1317
687 2438
687 2439
687 2440
687 2441
687 2442
687 2443
688 85
688 87
688 167
688 170
688 184
688 185
688 193
688 196
688 199
688 200
688 201
688 317
688 630
688 1113
688 1311
688 1714
688 2722
688 2725
688 2748
689 56
689 64
689 144
689 159
689 192
689 201
689 273
689 311
689 416
689 522
689 526
689 565
689 836
689 849
689 1144
689 1197
689 1539
689 1540
689 1543
689 1545
689 1639
689 1652
689 1653
689 1654
689 2032
689 2223
689 2418
689 2604
690 44
690 201
690 304
690 385
690 537
690 694
690 745
690 793
690 948
690 1009
690 1173
690 1176
690 1177
690 1780
690 2274
690 2275
690 2276
690 2277
690 2746
691 92
691 175
691 176
691 177
691 179
691 194
691 196
691 197
691 200
691 201
691 239
691 314
691 371
691 392
691 397
691 410
691 417
691 431
691 436
691 439
691 443
691 506
691 507
691 564
691 572
691 588
691 692
691 775
691 879
691 911
691 994
691 1152
691 1172
691 1225
691 1264
691 1307
691 1323
691 1344
691 1374
691 1470
691 1491
691 1502
691 1610
691 1663
691 1672
691 1845
691 2003
691 2169
691 2204
691 2313
691 2343
691 2391
691 2432
692 92
692 175
692 176
692 177
692 179
692 185
692 194
692 196
692 197
692 200
692 201
692 239
692 314
692 371
692 392
692 397
692 410
692 417
692 431
692 436
692 439
692 443
692 507
692 564
692 572
692 588
692 691
692 718
692 722
692 775
692 863
692 879
692 895
692 897
692 911
692 994
692 1152
692 1172
692 1225
692 1264
692 1307
692 1323
692 1344
692 1374
692 1470
692 1491
692 1502
692 1610
692 1663
692 1672
692 1845
692 2003
692 2169
692 2204
692 2313
692 2343
692 2391
692 2432
692 2615
693 177
693 179
693 200
693 201
693 293
693 506
693 679
693 2204
693 2205
694 235
694 304
694 313
694 490
694 690
694 694
694 695
694 696
694 939
694 943
694 954
694 975
694 985
694 999
694 1578
694 1651
694 1666
694 1776
694 1780
694 1827
694 1895
694 2276
694 2520
694 2627
695 200
695 201
695 235
695 304
695 313
695 385
695 464
695 480
695 694
695 696
695 985
695 1578
695 1651
695 1666
695 1780
695 1895
695 2276
695 2627
696 200
696 201
696 235
696 304
696 313
696 480
696 694
696 695
696 985
696 1578
696 1651
696 1666
696 1895
696 2627
697 200
697 201
697 304
697 698
697 797
697 833
697 1595
697 1669
697 1885
698 122
698 200
698 201
698 304
698 697
698 797
698 833
698 1595
698 1669
698 1885
699 7
699 177
699 201
699 307
699 615
699 618
699 655
699 845
699 875
699 876
699 877
699 1700
699 1739
699 1842
700 84
700 88
700 95
700 109
700 112
700 166
700 171
700 180
700 185
700 192
700 196
700 199
700 200
700 201
700 322
700 333
700 338
700 344
700 396
700 403
700 412
700 425
700 432
700 437
700 440
700 444
700 481
700 485
700 490
700 492
700 929
700 984
700 1135
700 1587
700 1588
700 1589
700 1645
700 1691
700 1770
700 1913
700 2021
700 2089
700 2144
700 2206
700 2400
701 177
701 179
701 200
701 201
701 356
701 656
701 701
701 919
701 1752
701 1846
701 1898
702 175
702 176
702 177
702 179
702 200
702 201
702 643
702 657
702 702
702 1757
702 2646
703 47
703 177
703 179
703 200
703 201
703 703
703 704
703 705
703 789
703 1051
703 1190
703 1845
703 2749
703 2750
704 47
704 177
704 179
704 200
704 201
704 460
704 703
704 705
704 789
704 1190
704 1845
704 2750
705 47
705 177
705 179
705 200
705 201
705 703
705 704
705 789
705 870
705 1190
705 1195
705 1845
705 2750
706 201
706 448
706 472
706 475
706 1802
706 2602
706 2620
706 2751
707 130
707 142
707 143
707 150
707 160
707 165
707 167
707 168
707 170
707 180
707 187
707 189
707 192
707 200
707 201
707 517
707 1061
707 1757
708 16
708 65
708 112
708 198
708 200
708 201
708 312
708 422
708 709
708 719
708 965
708 1026
708 1031
708 1036
708 1040
708 1047
708 1456
708 1461
708 1465
708 1466
708 1467
708 1468
708 1469
708 1471
708 1472
708 1783
708 2752
708 2753
709 16
709 65
709 112
709 173
709 312
709 422
709 435
709 623
709 708
709 719
709 965
709 1026
709 1031
709 1036
709 1040
709 1456
709 1461
709 1783
710 201
710 445
710 554
710 556
710 557
710 1607
710 1900
710 1903
710 2562
710 2592
711 194
711 197
711 199
711 201
711 210
711 465
711 466
711 467
711 711
711 1622
712 201
712 259
712 581
712 747
712 752
712 755
712 1684
712 1685
712 1696
713 201
713 713
713 738
713 740
713 743
713 771
713 1630
713 1631
714 172
714 197
714 714
714 772
715 200
715 201
715 715
715 725
715 744
715 764
716 87
716 95
716 189
716 201
716 245
716 320
716 323
716 404
716 426
716 430
716 431
716 733
716 734
716 750
716 1674
716 2306
717 200
717 201
717 255
717 256
717 413
717 592
717 598
717 721
717 724
717 729
717 896
717 1880
717 1881
718 143
718 197
718 302
718 506
718 634
718 640
718 642
718 692
718 718
718 730
718 777
718 778
718 860
718 861
718 863
718 887
718 888
718 1064
718 1633
718 2615
718 2754
718 2755
718 2783
718 2962
718 2999
718 3160
718 3400
718 3403
719 16
719 65
719 112
719 312
719 422
719 435
719 708
719 709
719 719
719 965
719 1026
719 1031
719 1036
719 1040
719 1456
719 1461
719 1783
720 87
720 189
720 201
720 245
720 338
720 390
720 392
720 529
720 1062
720 1674
720 2756
720 2757
720 2758
720 2759
720 2760
720 2761
720 2762
721 200
721 201
721 255
721 256
721 413
721 571
721 598
721 717
721 724
721 729
721 873
721 896
721 1880
721 1881
722 143
722 692
722 722
722 727
722 730
722 777
722 890
722 895
722 897
722 898
722 1632
722 1634
723 70
723 165
723 171
723 201
723 481
723 732
723 736
723 815
723 816
723 1497
723 1507
723 1687
723 2763
723 2764
723 2765
724 200
724 201
724 255
724 256
724 413
724 598
724 717
724 721
724 724
724 729
724 896
724 1880
724 1881
725 53
725 190
725 200
725 201
725 485
725 661
725 715
725 744
725 764
725 868
725 1317
726 33
726 83
726 87
726 134
726 135
726 161
726 170
726 189
726 191
726 196
726 199
726 200
726 201
726 224
726 245
726 317
726 744
726 1621
726 1674
727 143
727 722
727 727
727 730
727 777
727 890
727 895
727 897
727 898
727 1632
727 1634
728 171
728 185
728 200
728 201
728 213
728 297
728 746
728 759
728 902
728 1552
728 1698
728 1762
728 1933
728 1934
728 1936
729 200
729 201
729 255
729 256
729 598
729 717
729 721
729 724
729 896
729 1880
729 1881
730 143
730 192
730 317
730 319
730 320
730 718
730 722
730 727
730 730
730 777
730 778
730 860
730 861
730 863
730 887
730 888
730 890
730 895
730 897
730 898
730 1632
730 1633
730 1634
730 2615
730 2754
730 2755
731 78
731 79
731 162
731 167
731 168
731 177
731 180
731 193
731 200
731 201
731 630
731 894
731 2434
731 2766
731 2767
731 2768
731 2769
731 3261
731 3263
731 3350
732 64
732 70
732 177
732 201
732 452
732 671
732 723
732 736
732 742
732 815
732 816
732 903
732 1367
732 1369
732 1376
732 1377
732 1497
732 1687
732 1688
733 84
733 88
733 95
733 109
733 112
733 166
733 171
733 180
733 185
733 192
733 196
733 199
733 200
733 201
733 245
733 322
733 333
733 338
733 344
733 396
733 412
733 425
733 426
733 432
733 437
733 440
733 444
733 481
733 485
733 490
733 716
733 734
733 750
733 929
733 984
733 1135
733 1587
733 1588
733 1589
733 1645
733 1674
733 1770
733 2021
733 2089
733 2144
733 2206
733 2306
733 2307
733 2400
734 171
734 185
734 192
734 196
734 199
734 200
734 201
734 245
734 426
734 538
734 716
734 733
734 750
734 2306
734 2307
734 2771
735 201
735 304
735 486
735 745
735 801
735 803
735 904
735 905
735 1649
735 1690
736 70
736 166
736 174
736 201
736 723
736 732
736 815
736 1497
736 1687
736 2763
737 200
737 201
737 420
737 427
737 442
737 483
737 484
737 763
737 2583
738 201
738 713
738 740
738 743
738 771
738 872
738 1630
738 1631
739 54
739 109
739 802
739 804
739 805
739 806
739 1345
739 1355
739 1356
739 1568
739 1711
740 201
740 713
740 738
740 740
740 743
740 771
740 1310
740 1630
740 1631
741 65
741 112
741 165
741 171
741 192
741 201
741 768
741 769
741 770
741 862
741 1455
741 1819
742 70
742 166
742 201
742 452
742 481
742 732
742 1497
742 1507
742 1687
742 2763
742 2764
742 2765
743 201
743 506
743 713
743 738
743 740
743 743
743 771
743 1630
743 1631
744 191
744 200
744 201
744 715
744 725
744 726
744 764
745 64
745 177
745 201
745 304
745 690
745 735
745 801
745 803
745 869
745 904
745 905
745 1649
745 1690
746 185
746 200
746 201
746 213
746 297
746 728
746 759
746 902
746 1552
746 1698
746 1762
746 1933
746 1934
746 1936
747 64
747 177
747 201
747 259
747 405
747 539
747 712
747 752
747 755
747 899
747 1684
747 1685
747 1696
748 9
748 201
748 259
748 261
748 380
748 575
748 581
748 600
748 756
748 2772
749 191
749 196
749 198
749 199
749 200
749 201
749 2290
749 3376
749 3377
750 185
750 192
750 196
750 199
750 200
750 201
750 426
750 716
750 733
750 734
750 750
750 2306
750 2307
751 64
751 177
751 201
751 361
751 413
751 415
751 418
751 753
751 1683
751 2577
751 2581
751 2695
752 201
752 259
752 712
752 747
752 752
752 899
752 900
752 901
752 1684
752 1685
752 1696
752 1807
752 2775
753 84
753 88
753 95
753 109
753 112
753 166
753 171
753 180
753 191
753 200
753 201
753 322
753 333
753 338
753 344
753 396
753 412
753 425
753 432
753 437
753 440
753 444
753 481
753 485
753 490
753 751
753 929
753 984
753 1135
753 1587
753 1588
753 1589
753 1645
753 1770
753 2021
753 2089
753 2144
753 2206
753 2400
753 2577
753 2581
753 2582
754 105
754 181
754 182
754 184
754 189
754 190
754 194
754 197
754 198
754 200
754 201
754 807
754 1054
754 1055
754 1056
754 1057
754 1058
754 1456
754 1708
754 1769
755 166
755 201
755 259
755 539
755 712
755 747
755 900
755 901
755 1684
755 1807
755 2775
755 2776
756 9
756 82
756 201
756 259
756 261
756 380
756 575
756 581
756 600
756 748
756 2777
757 166
757 174
757 185
757 201
757 297
757 1762
757 1933
757 2778
758 201
758 297
758 298
758 606
758 811
758 1115
758 1526
758 1653
758 1762
758 2245
758 2246
758 2249
758 2250
758 2251
758 2252
759 84
759 88
759 95
759 109
759 112
759 166
759 171
759 180
759 191
759 200
759 201
759 213
759 322
759 333
759 338
759 344
759 396
759 412
759 425
759 432
759 437
759 440
759 444
759 481
759 485
759 490
759 728
759 746
759 902
759 929
759 984
759 1135
759 1552
759 1587
759 1588
759 1589
759 1645
759 1770
759 1933
759 1934
759 1936
759 2021
759 2089
759 2144
759 2206
759 2400
760 70
760 201
760 607
760 818
760 819
760 1496
760 1508
760 1509
760 1510
760 1511
760 1512
760 2628
761 57
761 201
761 542
761 1366
761 1368
761 1369
761 1379
761 1380
761 1381
761 1382
761 1383
761 2667
761 2682
761 2744
761 2779
762 56
762 120
762 150
762 166
762 171
762 180
762 323
762 348
762 666
762 674
762 834
762 840
762 841
762 842
762 903
762 982
762 1097
762 1368
762 1374
762 1376
762 1377
762 1378
762 1383
763 4
763 200
763 201
763 420
763 442
763 483
763 484
763 737
763 2583
764 200
764 201
764 477
764 715
764 725
764 744
764 1312
764 1314
765 201
765 304
765 486
765 797
765 828
765 1595
765 1649
765 1654
765 2273
766 51
766 78
766 79
766 162
766 167
766 168
766 177
766 180
766 193
766 200
766 201
766 630
766 767
766 864
766 878
766 893
766 1250
766 1252
766 1272
766 1716
766 1803
766 2780
767 171
767 185
767 196
767 199
767 200
767 201
767 766
767 864
767 878
767 893
767 1252
767 1272
767 1716
767 1803
767 2780
767 2781
768 65
768 174
768 188
768 201
768 646
768 675
768 741
768 769
768 770
768 1453
768 1455
768 1693
768 1819
769 64
769 65
769 112
769 177
769 188
769 201
769 312
769 495
769 741
769 768
769 862
769 1453
769 1454
769 1455
769 1693
769 1819
770 65
770 112
770 166
770 171
770 192
770 201
770 741
770 768
770 862
770 1450
770 1455
770 1693
770 1819
771 160
771 179
771 192
771 201
771 317
771 319
771 320
771 713
771 738
771 740
771 743
771 829
771 986
771 987
771 988
771 1629
771 1630
771 1631
771 1671
771 1672
772 92
772 196
772 197
772 371
772 392
772 397
772 410
772 431
772 436
772 439
772 443
772 588
772 714
772 879
772 1152
772 1172
772 1225
772 1264
772 1307
772 1323
772 1344
772 1374
772 1470
772 1491
772 1502
772 2003
772 2169
772 2313
772 2343
772 2391
772 2432
773 137
773 194
773 201
773 314
773 362
773 773
773 1585
773 2302
773 2303
774 194
774 196
774 199
774 200
774 201
774 779
774 796
774 831
774 836
774 1260
774 1658
774 1844
775 197
775 251
775 252
775 524
775 691
775 692
775 775
775 791
775 792
775 1546
775 1809
776 162
776 191
776 196
776 199
776 200
776 201
776 460
776 781
776 1678
777 143
777 194
777 197
777 718
777 722
777 727
777 730
777 777
777 861
777 890
777 895
777 897
777 898
777 1585
777 1632
777 1634
778 143
778 194
778 197
778 718
778 730
778 778
778 860
778 861
778 863
778 887
778 888
778 1585
778 1633
778 1634
778 2615
778 2754
778 2755
779 40
779 122
779 144
779 196
779 199
779 200
779 201
779 774
779 796
779 831
779 836
779 1260
779 1658
779 1844
780 175
780 176
780 177
780 179
780 200
780 201
780 652
780 780
780 794
780 1023
780 2310
780 2782
780 2783
780 2784
781 162
781 196
781 199
781 200
781 201
781 253
781 254
781 460
781 776
781 1431
781 1678
782 191
782 200
782 201
782 393
782 830
782 832
782 835
782 1186
782 1194
782 2551
783 175
783 176
783 177
783 179
783 200
783 201
783 783
783 1064
783 1741
783 3268
783 3271
784 201
784 304
784 486
784 785
784 788
784 814
784 828
784 1537
784 1894
784 2684
785 201
785 304
785 486
785 784
785 785
785 788
785 814
785 1537
785 1894
785 2684
786 115
786 158
786 194
786 200
786 201
786 282
786 362
786 387
786 465
786 649
786 650
786 786
786 1659
786 1660
786 1673
786 1735
787 10
787 201
787 445
787 497
787 638
787 646
787 810
787 812
787 813
787 2785
788 201
788 304
788 486
788 784
788 785
788 788
788 814
788 1537
788 1894
788 2684
788 2786
789 200
789 201
789 552
789 703
789 704
789 705
789 1808
789 2787
789 2788
790 54
790 201
790 569
790 795
790 798
790 1337
790 1339
790 1340
790 1341
790 2689
791 251
791 252
791 524
791 775
791 791
791 792
791 1546
791 1809
791 1991
792 22
792 137
792 161
792 197
792 251
792 252
792 524
792 775
792 791
792 792
792 1546
792 1809
792 1991
793 87
793 189
793 201
793 245
793 304
793 490
793 690
793 803
793 904
793 905
793 1172
793 1674
793 2789
793 2790
793 2791
793 2792
793 2793
794 131
794 136
794 156
794 175
794 176
794 177
794 179
794 191
794 197
794 200
794 201
794 780
794 794
794 1023
794 2310
794 2782
794 2783
794 2784
795 54
795 166
795 201
795 790
795 1337
795 1339
795 1646
795 2689
796 110
796 158
796 196
796 199
796 200
796 201
796 774
796 779
796 831
796 836
796 1260
796 1658
796 1844
796 2794
797 64
797 146
797 200
797 201
797 522
797 523
797 697
797 698
797 765
797 828
797 833
797 1595
797 1885
798 54
798 87
798 109
798 189
798 201
798 245
798 569
798 580
798 654
798 659
798 790
798 1340
798 1341
798 1343
798 1344
798 1568
798 1674
798 2689
799 131
799 136
799 138
799 156
799 175
799 176
799 177
799 179
799 191
799 197
799 200
799 201
799 340
799 799
799 1063
799 1141
799 1749
800 175
800 176
800 177
800 179
800 200
800 201
800 331
800 584
800 1330
800 1332
800 1742
800 2382
801 166
801 201
801 304
801 735
801 745
801 904
801 905
801 1649
801 1690
801 2790
802 54
802 109
802 739
802 802
802 804
802 805
802 806
802 1345
802 1355
802 1356
802 1711
803 166
803 201
803 304
803 735
803 745
803 793
803 869
803 1649
803 1690
803 2790
803 2791
803 2793
804 54
804 109
804 194
804 739
804 802
804 805
804 806
804 1345
804 1355
804 1356
804 1711
805 40
805 54
805 109
805 144
805 194
805 603
805 739
805 802
805 804
805 806
805 1345
805 1355
805 1356
805 1711
806 40
806 54
806 109
806 144
806 603
806 739
806 802
806 804
806 805
806 1345
806 1355
806 1356
806 1711
807 105
807 114
807 181
807 182
807 184
807 194
807 197
807 198
807 200
807 201
807 237
807 315
807 754
807 1054
807 1055
807 1056
807 1057
807 1058
807 1356
807 1635
807 1708
807 1711
807 1712
807 1769
808 131
808 136
808 156
808 175
808 176
808 177
808 179
808 191
808 197
808 200
808 201
808 323
808 512
808 634
808 808
808 988
808 1049
808 2648
808 2649
809 65
809 201
809 534
809 624
809 635
809 675
809 1451
809 1452
809 1457
809 1458
809 1459
809 1460
809 1463
810 10
810 201
810 445
810 497
810 571
810 638
810 646
810 648
810 787
810 812
810 813
811 201
811 297
811 298
811 326
811 758
811 1115
811 1526
811 2245
811 2246
811 2249
811 2250
811 2251
811 2795
812 10
812 82
812 201
812 445
812 497
812 638
812 646
812 787
812 810
812 813
812 2796
813 10
813 201
813 445
813 497
813 638
813 646
813 787
813 810
813 812
813 813
813 2797
814 201
814 304
814 486
814 784
814 785
814 788
814 814
814 1537
814 1894
814 2684
814 2798
815 70
815 201
815 481
815 723
815 732
815 736
815 815
815 816
815 1497
815 1507
815 1687
815 2763
815 2764
815 2765
816 84
816 88
816 95
816 109
816 112
816 166
816 171
816 180
816 191
816 200
816 201
816 322
816 333
816 338
816 344
816 396
816 412
816 425
816 432
816 437
816 440
816 444
816 481
816 485
816 490
816 723
816 732
816 815
816 929
816 984
816 1135
816 1507
816 1587
816 1588
816 1589
816 1645
816 1770
816 2021
816 2089
816 2144
816 2206
816 2400
816 2763
816 2764
816 2765
817 78
817 79
817 162
817 167
817 168
817 177
817 180
817 193
817 200
817 201
817 630
817 820
817 903
817 1376
817 1377
817 1378
817 1772
817 1806
817 2799
818 70
818 201
818 607
818 760
818 819
818 1508
818 1509
818 1510
818 1511
818 1512
818 2628
819 70
819 201
819 571
819 607
819 760
819 818
819 1508
819 1509
819 1510
819 1511
819 1512
819 2628
820 84
820 88
820 95
820 109
820 112
820 166
820 171
820 180
820 191
820 200
820 201
820 322
820 333
820 338
820 344
820 396
820 412
820 425
820 432
820 437
820 440
820 444
820 481
820 485
820 490
820 817
820 929
820 984
820 1135
820 1376
820 1377
820 1378
820 1587
820 1588
820 1589
820 1645
820 1770
820 1772
820 1806
820 2021
820 2089
820 2144
820 2206
820 2400
821 201
821 300
821 438
821 461
821 1790
821 1887
821 2257
821 2260
822 200
822 201
822 300
822 599
822 677
822 822
822 823
822 824
822 929
822 1635
822 1712
822 1887
822 1888
823 194
823 200
823 201
823 599
823 677
823 822
823 824
823 1635
823 1712
823 1887
823 1888
824 40
824 144
824 194
824 200
824 201
824 300
824 599
824 603
824 677
824 822
824 823
824 929
824 1635
824 1712
824 1887
824 1888
825 69
825 201
825 290
825 617
825 680
825 826
825 827
825 1484
825 1485
825 1490
825 1816
825 2589
825 2683
826 69
826 201
826 290
826 680
826 825
826 827
826 1484
826 1485
826 1490
826 1816
826 2589
826 2683
827 69
827 82
827 155
827 201
827 290
827 825
827 826
827 1484
827 1485
827 1816
827 2589
827 2683
827 2800
828 173
828 201
828 304
828 765
828 784
828 797
828 1654
828 2273
829 160
829 162
829 179
829 201
829 771
829 986
829 987
829 988
829 1629
829 1671
829 1672
830 47
830 192
830 201
830 782
830 830
830 832
830 835
830 870
830 1186
830 1193
830 1194
830 2551
830 2552
831 40
831 122
831 144
831 194
831 196
831 199
831 200
831 201
831 774
831 779
831 796
831 836
831 1260
831 1658
831 1844
832 47
832 165
832 171
832 192
832 201
832 782
832 830
832 835
832 870
832 1186
832 1193
832 1194
832 2551
832 2552
833 200
833 201
833 304
833 697
833 698
833 797
833 833
833 1595
833 1885
834 95
834 112
834 142
834 149
834 158
834 170
834 174
834 201
834 218
834 334
834 338
834 383
834 393
834 403
834 412
834 425
834 426
834 432
834 437
834 440
834 481
834 485
834 490
834 650
834 661
834 762
834 1213
834 1252
834 1362
834 1363
834 1434
834 1445
834 1591
834 1677
834 1930
834 2157
834 2196
834 2331
834 2666
834 2729
834 2756
834 2836
834 3233
834 3263
835 47
835 84
835 88
835 95
835 109
835 112
835 166
835 171
835 180
835 191
835 192
835 200
835 201
835 322
835 333
835 338
835 344
835 396
835 412
835 425
835 432
835 437
835 440
835 444
835 481
835 485
835 490
835 782
835 830
835 832
835 870
835 929
835 984
835 1135
835 1186
835 1193
835 1194
835 1587
835 1588
835 1589
835 1645
835 1770
835 2021
835 2089
835 2144
835 2206
835 2400
835 2551
835 2552
836 51
836 158
836 196
836 199
836 200
836 201
836 311
836 353
836 689
836 774
836 779
836 796
836 831
836 1260
836 1658
836 1844
836 2794
837 65
837 201
837 555
837 838
837 1462
837 1656
837 1675
837 2308
838 5
838 555
838 837
838 839
838 862
838 1462
838 1675
838 1847
838 2308
839 5
839 555
839 838
839 1675
839 2308
840 95
840 142
840 149
840 150
840 158
840 165
840 174
840 190
840 200
840 201
840 323
840 334
840 762
840 1362
840 1363
840 1591
840 1930
840 2196
840 2666
840 2729
840 2836
841 95
841 129
841 142
841 149
841 150
841 158
841 165
841 169
841 174
841 190
841 199
841 200
841 201
841 323
841 328
841 334
841 762
841 1362
841 1363
841 1591
841 1930
841 2196
841 2376
841 2378
841 2379
841 2666
841 2729
841 2801
841 2836
842 56
842 95
842 142
842 149
842 150
842 165
842 174
842 201
842 334
842 440
842 762
842 842
842 1362
842 1363
842 1591
842 1616
842 1930
842 2196
842 2666
842 2729
842 2836
843 92
843 173
843 190
843 196
843 201
843 371
843 375
843 392
843 397
843 410
843 431
843 436
843 439
843 443
843 468
843 588
843 632
843 843
843 879
843 1152
843 1172
843 1225
843 1264
843 1307
843 1323
843 1344
843 1374
843 1429
843 1470
843 1491
843 1502
843 1732
843 1733
843 2003
843 2169
843 2313
843 2343
843 2391
843 2432
844 200
844 358
844 362
844 363
844 453
844 454
844 844
844 846
844 847
844 848
844 850
844 931
844 936
844 2728
845 87
845 88
845 189
845 201
845 245
845 307
845 395
845 588
845 615
845 699
845 875
845 876
845 877
845 1674
845 1700
845 1763
845 1842
846 197
846 200
846 362
846 363
846 453
846 454
846 844
846 846
846 847
846 848
846 850
846 931
846 936
846 2728
846 2802
847 200
847 362
847 363
847 453
847 454
847 844
847 846
847 847
847 848
847 850
847 931
847 936
847 2728
848 192
848 362
848 453
848 454
848 639
848 640
848 647
848 844
848 846
848 847
848 850
848 931
848 936
848 1604
849 158
849 196
849 199
849 200
849 201
849 268
849 311
849 396
849 689
849 2694
849 2803
849 2804
849 2805
849 2806
849 2807
849 2808
849 2809
850 200
850 362
850 363
850 453
850 454
850 844
850 846
850 847
850 848
850 850
850 2728
851 32
851 42
851 55
851 153
851 208
851 463
851 512
851 851
851 854
851 857
851 2614
852 49
852 123
852 124
852 125
852 126
852 148
852 164
852 169
852 200
852 201
852 858
852 915
852 1205
853 122
853 196
853 199
853 200
853 201
853 2415
853 2418
853 2810
853 2811
853 2812
853 2813
853 2814
853 2815
854 32
854 42
854 55
854 153
854 208
854 463
854 512
854 851
854 857
854 1110
854 2614
855 11
855 69
855 142
855 150
855 165
855 168
855 180
855 183
855 204
855 302
855 440
855 482
855 544
855 1061
856 122
856 196
856 199
856 200
856 201
856 2221
856 2223
856 2240
856 2817
856 2818
856 2819
856 2820
856 2821
856 2822
857 42
857 55
857 153
857 192
857 208
857 317
857 319
857 320
857 463
857 512
857 851
857 854
858 35
858 38
858 49
858 123
858 124
858 125
858 126
858 148
858 164
858 169
858 200
858 201
858 852
858 915
858 916
858 957
858 1123
858 1124
858 1125
858 1126
858 1127
858 1128
858 1129
858 1157
858 1205
858 2851
859 71
859 149
859 151
859 152
859 159
859 172
859 178
859 187
859 190
859 200
859 201
859 2141
859 2310
859 2313
859 2373
859 2733
859 2823
859 2824
860 143
860 718
860 730
860 778
860 860
860 861
860 863
860 887
860 888
860 898
860 936
860 1633
860 2615
860 2754
860 2755
861 143
861 647
861 718
861 730
861 777
861 778
861 860
861 861
861 863
861 887
861 888
861 1633
861 2615
861 2754
861 2755
862 11
862 65
862 112
862 142
862 150
862 165
862 168
862 180
862 188
862 623
862 741
862 769
862 770
862 838
862 1061
862 1454
862 1455
862 1819
863 143
863 692
863 718
863 730
863 778
863 860
863 861
863 863
863 887
863 888
863 1633
863 2615
863 2754
863 2755
864 185
864 192
864 196
864 199
864 200
864 201
864 766
864 767
864 878
864 893
864 1252
864 1272
864 1716
864 1803
864 2780
865 110
865 158
865 196
865 199
865 200
865 201
865 867
865 1162
865 1436
865 1664
865 1826
865 2604
865 2751
865 2825
866 122
866 146
866 159
866 197
866 228
866 564
866 565
866 603
866 613
866 866
866 881
866 1161
866 1361
866 1433
866 1446
867 40
867 122
867 144
867 194
867 196
867 199
867 200
867 201
867 865
867 1162
867 1436
867 1664
867 1826
867 2604
867 2751
868 11
868 53
868 140
868 142
868 150
868 163
868 165
868 168
868 180
868 485
868 489
868 661
868 725
868 1061
868 1318
869 11
869 142
869 150
869 165
869 174
869 293
869 304
869 490
869 745
869 803
869 1706
869 2272
869 2482
870 11
870 47
870 142
870 150
870 165
870 444
870 492
870 705
870 830
870 832
870 835
870 1186
870 1193
870 1798
871 11
871 140
871 142
871 150
871 165
871 356
871 425
871 1793
872 11
872 52
872 142
872 150
872 165
872 168
872 525
872 626
872 738
872 984
872 1061
872 2826
873 201
873 721
873 1320
873 2827
873 2828
873 2829
873 2830
873 2831
873 2832
873 2833
873 2834
873 2835
873 3204
873 3286
874 174
874 175
874 176
874 177
874 179
874 200
874 201
874 595
874 627
874 1310
874 2836
875 192
875 201
875 307
875 615
875 699
875 845
875 876
875 1700
875 1718
875 1763
875 1842
876 171
876 192
876 201
876 307
876 615
876 699
876 845
876 875
876 1700
876 1718
876 1763
876 1842
877 192
877 200
877 201
877 307
877 376
877 699
877 845
877 1842
877 2291
878 185
878 196
878 199
878 200
878 201
878 766
878 767
878 864
878 893
878 1252
878 1272
878 1716
878 1803
878 2780
879 93
879 96
879 97
879 98
879 99
879 101
879 106
879 107
879 108
879 110
879 111
879 113
879 115
879 117
879 123
879 124
879 125
879 126
879 127
879 128
879 134
879 135
879 137
879 138
879 144
879 145
879 146
879 147
879 148
879 154
879 157
879 161
879 162
879 164
879 167
879 168
879 169
879 170
879 175
879 176
879 179
879 180
879 181
879 182
879 184
879 185
879 192
879 193
879 194
879 195
879 197
879 198
879 199
879 200
879 201
879 218
879 224
879 241
879 258
879 270
879 271
879 391
879 459
879 500
879 513
879 547
879 553
879 558
879 691
879 692
879 772
879 843
879 907
879 927
879 1049
879 1050
879 1161
879 1311
879 1359
879 1415
879 1416
879 1417
879 1419
879 1420
879 1421
879 1529
879 1591
879 1773
879 1788
879 1825
879 1862
879 2594
880 63
880 127
880 187
880 197
880 375
880 376
880 1650
880 2837
881 159
881 197
881 301
881 305
881 553
881 564
881 613
881 866
881 1361
881 2613
881 2638
882 33
882 39
882 67
882 117
882 189
882 196
882 199
882 200
882 201
882 882
882 910
882 938
882 1111
882 1112
882 1113
882 1114
882 1574
883 111
883 196
883 199
883 200
883 201
883 247
883 248
883 884
883 922
883 975
883 976
883 1017
883 1040
883 1041
883 1042
883 1057
883 1072
883 1078
883 1093
883 1397
883 1412
883 1835
883 1837
883 1838
883 1984
883 2424
883 2441
883 2641
883 2662
883 2699
883 2706
883 2740
883 2827
883 2892
883 2899
883 2947
883 2992
883 3029
883 3108
883 3145
883 3366
883 3421
884 29
884 195
884 196
884 199
884 200
884 201
884 247
884 248
884 283
884 288
884 533
884 548
884 578
884 883
884 951
884 1072
884 1560
884 1835
884 1837
884 1838
884 1984
884 2316
884 2387
884 2394
884 2399
884 2435
884 2444
884 2827
884 3136
885 12
885 72
885 82
885 155
885 201
885 325
885 886
885 891
885 892
885 1615
885 2310
885 2313
885 2733
885 2828
885 2838
885 2855
886 12
886 201
886 325
886 885
886 891
886 892
886 1615
886 2310
886 2313
886 2733
886 2828
886 2838
886 2839
886 2855
887 143
887 201
887 244
887 650
887 718
887 730
887 778
887 860
887 861
887 863
887 887
887 888
887 1633
887 2615
887 2754
887 2755
888 143
888 718
888 730
888 778
888 860
888 861
888 863
888 887
888 888
888 1633
888 2615
888 2754
888 2755
889 197
889 200
889 201
889 211
889 241
889 271
889 474
889 527
889 553
889 889
889 907
889 908
890 143
890 722
890 727
890 730
890 777
890 890
890 895
890 897
890 898
891 12
891 75
891 201
891 325
891 885
891 886
891 892
891 1615
891 2310
891 2312
891 2313
891 2733
891 2828
891 2838
891 2840
891 2841
891 2842
891 2843
891 2844
891 2845
891 2855
892 12
892 74
892 201
892 325
892 885
892 886
892 891
892 1615
892 2310
892 2313
892 2314
892 2733
892 2828
892 2838
892 2846
892 2855
893 84
893 88
893 95
893 109
893 112
893 166
893 171
893 180
893 185
893 192
893 196
893 199
893 200
893 201
893 322
893 333
893 338
893 344
893 396
893 412
893 425
893 432
893 437
893 440
893 444
893 481
893 485
893 490
893 766
893 767
893 864
893 878
893 929
893 984
893 1135
893 1252
893 1272
893 1587
893 1588
893 1589
893 1645
893 1716
893 1770
893 1803
893 2021
893 2089
893 2144
893 2206
893 2400
893 2780
894 171
894 185
894 192
894 196
894 199
894 200
894 201
894 731
894 2434
894 2766
894 2767
894 2768
894 2769
894 3263
894 3350
894 3370
895 143
895 197
895 506
895 692
895 722
895 727
895 730
895 777
895 890
895 895
895 897
895 898
895 1632
895 1634
896 200
896 201
896 255
896 256
896 413
896 598
896 717
896 721
896 724
896 729
896 1881
896 2848
897 143
897 460
897 692
897 722
897 727
897 730
897 777
897 890
897 895
897 897
897 898
897 1632
897 1634
898 143
898 201
898 244
898 650
898 722
898 727
898 730
898 777
898 860
898 890
898 895
898 897
898 898
898 1632
898 1634
899 84
899 88
899 95
899 109
899 112
899 166
899 171
899 180
899 191
899 200
899 201
899 322
899 333
899 338
899 344
899 396
899 412
899 425
899 432
899 437
899 440
899 444
899 481
899 485
899 490
899 747
899 752
899 900
899 901
899 929
899 984
899 1135
899 1587
899 1588
899 1589
899 1645
899 1685
899 1770
899 1807
899 2021
899 2089
899 2144
899 2206
899 2400
899 2775
900 78
900 79
900 162
900 167
900 168
900 177
900 180
900 193
900 200
900 201
900 630
900 752
900 755
900 899
900 901
900 1685
900 1807
900 2775
900 2849
901 87
901 189
901 201
901 245
901 259
901 405
901 432
901 752
901 755
901 899
901 900
901 1674
901 1685
901 1807
901 2003
901 2775
901 2849
902 78
902 79
902 162
902 167
902 168
902 177
902 180
902 193
902 200
902 201
902 213
902 630
902 728
902 746
902 759
902 1552
902 1698
902 1934
902 1936
902 2850
903 57
903 166
903 201
903 732
903 762
903 817
903 1369
903 1378
903 1688
903 1772
903 1806
904 201
904 304
904 735
904 745
904 793
904 801
904 904
904 905
904 1690
904 2790
904 2791
904 2792
904 2793
905 165
905 171
905 201
905 304
905 735
905 745
905 793
905 801
905 904
905 1690
905 2790
905 2791
905 2792
905 2793
906 201
906 287
906 356
906 430
906 992
906 1002
906 1004
906 1007
906 1898
906 1899
906 2464
906 2466
906 2467
906 2468
906 2469
906 2470
906 2471
906 2472
906 2476
906 2477
906 2478
906 2835
906 2861
907 92
907 196
907 241
907 357
907 371
907 392
907 397
907 410
907 431
907 436
907 439
907 443
907 474
907 588
907 879
907 889
907 908
907 1152
907 1172
907 1225
907 1264
907 1307
907 1323
907 1344
907 1374
907 1470
907 1491
907 1502
907 2003
907 2169
907 2313
907 2343
907 2391
907 2432
908 200
908 201
908 211
908 241
908 271
908 357
908 474
908 527
908 553
908 889
908 907
908 1811
909 13
909 194
909 197
909 198
909 199
909 200
909 201
909 629
909 917
909 918
909 920
909 921
909 922
909 923
909 924
909 970
909 1775
909 1791
910 33
910 39
910 67
910 117
910 189
910 196
910 199
910 200
910 201
910 882
910 938
910 1112
910 1113
910 1114
911 175
911 176
911 177
911 179
911 194
911 197
911 200
911 201
911 554
911 691
911 692
911 911
911 919
911 1744
912 200
912 201
912 226
912 227
912 342
912 421
912 423
912 914
912 925
912 1939
913 31
913 42
913 55
913 153
913 208
913 463
913 512
913 913
914 912
915 35
915 38
915 49
915 108
915 123
915 124
915 125
915 126
915 148
915 164
915 169
915 200
915 201
915 852
915 858
915 916
915 935
915 957
915 1059
915 1129
915 1206
915 1564
915 2851
916 35
916 38
916 49
916 123
916 124
916 125
916 126
916 148
916 164
916 169
916 200
916 201
916 858
916 915
916 957
916 1123
916 1124
916 1125
916 1126
916 1127
916 1128
916 1129
916 1157
916 1564
916 2851
917 13
917 194
917 197
917 198
917 200
917 201
917 909
917 917
917 918
917 920
917 921
917 922
917 923
917 924
917 970
917 1775
917 1791
918 13
918 170
918 194
918 197
918 198
918 200
918 201
918 909
918 917
918 920
918 921
918 922
918 923
918 924
918 970
918 1775
918 1791
919 177
919 179
919 185
919 200
919 201
919 656
919 701
919 911
919 1752
919 1846
920 13
920 37
920 77
920 200
920 201
920 909
920 917
920 918
920 921
920 922
920 923
920 924
920 970
920 1775
920 1791
920 1853
921 13
921 100
921 114
921 139
921 172
921 173
921 178
921 200
921 201
921 909
921 917
921 918
921 920
921 922
921 923
921 924
921 938
921 970
921 1775
921 1791
922 13
922 129
922 139
922 172
922 173
922 178
922 189
922 191
922 194
922 197
922 198
922 200
922 201
922 883
922 909
922 917
922 918
922 920
922 921
922 923
922 924
922 970
922 1775
922 1791
923 13
923 90
923 94
923 102
923 103
923 104
923 105
923 140
923 153
923 155
923 158
923 160
923 162
923 164
923 166
923 173
923 178
923 184
923 189
923 194
923 197
923 198
923 200
923 201
923 238
923 370
923 449
923 498
923 499
923 528
923 909
923 917
923 918
923 920
923 921
923 922
923 924
923 970
923 1147
923 1148
923 1149
923 1150
923 1151
923 1153
923 1154
923 1167
923 1393
923 1549
923 1555
923 1775
923 1791
923 2852
923 2853
923 2854
924 13
924 194
924 197
924 198
924 200
924 201
924 909
924 917
924 918
924 920
924 921
924 922
924 923
924 970
924 1147
924 1148
924 1149
924 1150
924 1151
924 1153
924 1154
924 1775
924 1791
924 2853
924 2854
925 216
925 912
926 201
926 1561
926 1984
926 2855
926 2856
926 2857
926 2858
926 2859
926 2860
926 2861
926 3202
926 3284
927 92
927 101
927 196
927 201
927 243
927 258
927 285
927 323
927 371
927 392
927 397
927 410
927 430
927 431
927 436
927 439
927 443
927 588
927 879
927 928
927 1152
927 1172
927 1225
927 1264
927 1307
927 1323
927 1344
927 1374
927 1470
927 1491
927 1502
927 1561
927 1617
927 1862
927 2003
927 2169
927 2313
927 2343
927 2391
927 2432
927 2832
928 72
928 82
928 101
928 155
928 201
928 243
928 258
928 285
928 323
928 430
928 431
928 927
928 1561
928 1617
928 1862
928 2832
929 120
929 150
929 161
929 166
929 171
929 180
929 300
929 439
929 520
929 645
929 700
929 733
929 753
929 759
929 816
929 820
929 822
929 824
929 835
929 893
929 899
929 1635
929 1790
929 2508
929 2759
929 2767
929 2792
929 2953
929 3151
929 3236
929 3312
930 121
930 145
930 147
930 154
930 181
930 182
930 184
930 195
930 196
930 197
930 198
930 199
930 200
930 201
930 930
931 200
931 362
931 363
931 453
931 454
931 844
931 846
931 847
931 848
931 931
931 936
931 2728
932 31
932 55
932 153
932 208
932 463
932 512
932 932
932 942
932 945
933 66
933 68
933 116
933 118
933 242
933 933
933 937
934 14
934 227
934 341
934 361
934 412
934 413
934 421
934 972
934 973
934 1724
934 2421
934 2422
934 2423
934 2424
934 2425
934 2426
935 38
935 49
935 123
935 124
935 125
935 126
935 148
935 164
935 169
935 200
935 201
935 915
935 949
935 1059
935 1156
935 2862
936 200
936 362
936 363
936 453
936 454
936 844
936 846
936 847
936 848
936 860
936 931
936 936
936 2728
937 66
937 68
937 116
937 118
937 181
937 242
937 933
938 33
938 39
938 67
938 117
938 189
938 196
938 199
938 200
938 201
938 540
938 882
938 910
938 921
938 954
938 955
938 1015
938 1036
938 1037
938 1038
938 1050
938 1055
938 1091
938 1113
938 1114
938 1410
938 2422
938 2439
938 2697
938 2704
938 2738
938 2890
938 2897
938 2944
938 2989
938 3104
938 3142
938 3364
938 3419
939 194
939 197
939 198
939 200
939 201
939 694
939 943
939 954
939 975
939 999
939 1776
939 1780
939 1827
939 2276
939 2520
939 2521
940 194
940 197
940 198
940 200
940 201
940 424
940 944
940 955
940 964
940 966
940 968
940 974
940 976
940 1291
940 1292
940 1784
941 108
941 123
941 124
941 125
941 126
941 148
941 164
941 169
941 200
941 201
941 214
941 215
941 949
941 959
941 1207
941 1566
942 31
942 55
942 153
942 208
942 463
942 512
942 603
942 932
942 942
942 945
942 1433
943 170
943 194
943 197
943 198
943 200
943 201
943 694
943 939
943 954
943 975
943 999
943 1776
943 1780
943 1827
943 2276
943 2520
943 2521
944 170
944 194
944 197
944 198
944 200
944 201
944 424
944 940
944 955
944 964
944 966
944 968
944 974
944 976
944 1291
944 1292
944 1784
945 932
945 942
945 990
945 1024
945 1029
946 15
946 170
946 200
946 201
946 218
946 383
946 393
946 403
946 426
946 516
946 517
946 518
946 519
946 946
946 947
946 950
946 952
946 956
946 993
946 994
946 1213
946 1252
946 1736
946 1875
946 2157
946 2331
946 2756
946 3233
946 3263
947 15
947 170
947 200
947 201
947 232
947 516
947 517
947 518
947 519
947 946
947 950
947 952
947 956
947 993
947 994
947 995
947 1736
947 1875
948 44
948 141
948 195
948 197
948 198
948 200
948 201
948 304
948 385
948 690
948 985
948 999
948 1009
948 1172
948 1173
948 1176
948 1177
948 2520
948 2521
948 2522
948 2523
949 49
949 123
949 124
949 125
949 126
949 148
949 164
949 169
949 200
949 201
949 214
949 215
949 636
949 935
949 941
949 959
949 1059
949 1207
949 1566
949 2862
950 6
950 15
950 200
950 201
950 516
950 517
950 518
950 519
950 946
950 947
950 952
950 956
950 993
950 994
950 995
950 1736
950 1875
951 200
951 201
951 300
951 411
951 503
951 520
951 543
951 884
951 1728
951 1886
951 2263
951 2264
951 2265
951 2266
951 2267
951 2268
951 2668
951 2669
951 2863
951 2864
952 15
952 200
952 201
952 232
952 516
952 517
952 518
952 519
952 946
952 947
952 950
952 956
952 993
952 994
952 995
952 1736
952 1875
953 69
953 141
953 195
953 197
953 198
953 200
953 201
953 400
953 442
953 960
953 967
953 1008
953 1011
953 1013
953 1019
953 1491
953 1492
953 1493
953 2563
953 2564
954 100
954 114
954 139
954 172
954 173
954 178
954 194
954 197
954 198
954 200
954 201
954 694
954 938
954 939
954 943
954 975
954 999
954 1776
954 1780
954 1827
954 2276
954 2520
954 2521
955 100
955 114
955 139
955 172
955 173
955 178
955 194
955 197
955 198
955 200
955 201
955 424
955 938
955 940
955 944
955 964
955 966
955 968
955 974
955 976
955 1291
955 1292
955 1784
956 6
956 174
956 200
956 201
956 516
956 517
956 518
956 946
956 947
956 950
956 952
956 993
956 994
956 995
956 1875
957 35
957 38
957 49
957 123
957 124
957 125
957 126
957 148
957 164
957 169
957 200
957 201
957 858
957 915
957 916
957 1060
957 1123
957 1124
957 1125
957 1126
957 1127
957 1128
957 1129
957 1156
957 1157
957 2851
958 49
958 123
958 124
958 125
958 126
958 148
958 164
958 169
958 200
958 201
958 210
958 465
958 466
958 467
958 1206
958 1566
958 1622
958 2616
959 108
959 123
959 124
959 125
959 126
959 148
959 164
959 169
959 200
959 201
959 214
959 941
959 949
959 1207
959 1564
959 1566
960 194
960 197
960 198
960 199
960 200
960 201
960 400
960 953
960 967
960 1008
960 1011
960 1013
960 1014
960 1015
960 1016
960 1017
960 1018
960 1019
960 1492
960 1493
960 1713
960 1779
961 195
961 196
961 197
961 198
961 199
961 200
961 201
961 1039
961 1044
961 1704
961 2335
961 2865
961 2866
961 2903
961 3208
961 3213
961 3214
961 3215
961 3216
961 3217
961 3219
962 194
962 197
962 198
962 200
962 201
962 411
962 503
962 520
962 543
962 1012
962 1728
962 2262
962 2263
962 2264
962 2265
962 2266
962 2267
962 2268
962 2574
962 2639
962 2640
962 2641
962 2642
962 2643
962 2644
963 53
963 198
963 200
963 201
963 233
963 350
963 351
963 352
963 485
963 686
963 687
963 1102
963 1103
963 1104
963 1105
963 1107
963 1316
963 1317
963 1325
963 1963
963 2438
963 2439
963 2440
963 2441
963 2442
963 2443
964 52
964 198
964 200
964 201
964 424
964 940
964 944
964 955
964 966
964 968
964 974
964 976
964 984
964 1291
964 1292
964 1302
964 1303
964 1304
964 1305
964 1306
964 1308
964 1309
964 1784
964 2867
964 2868
965 16
965 90
965 94
965 102
965 103
965 104
965 105
965 140
965 153
965 155
965 158
965 160
965 162
965 164
965 166
965 173
965 178
965 184
965 189
965 194
965 197
965 198
965 200
965 201
965 238
965 370
965 422
965 449
965 498
965 499
965 528
965 708
965 709
965 719
965 1026
965 1031
965 1036
965 1040
965 1047
965 1167
965 1393
965 1465
965 1466
965 1467
965 1468
965 1469
965 1471
965 1472
965 1549
965 1555
965 1783
965 2752
965 2753
965 2869
966 90
966 94
966 102
966 103
966 104
966 105
966 140
966 153
966 155
966 158
966 160
966 162
966 164
966 166
966 173
966 178
966 184
966 189
966 194
966 197
966 198
966 200
966 201
966 238
966 370
966 424
966 449
966 498
966 499
966 528
966 940
966 944
966 955
966 964
966 968
966 974
966 976
966 1167
966 1291
966 1292
966 1302
966 1303
966 1304
966 1305
966 1306
966 1308
966 1309
966 1393
966 1549
966 1555
966 1784
966 2867
966 2868
966 2870
967 69
967 91
967 130
967 133
967 140
967 141
967 142
967 143
967 146
967 153
967 158
967 160
967 165
967 167
967 168
967 170
967 173
967 180
967 193
967 195
967 197
967 198
967 200
967 201
967 241
967 251
967 343
967 400
967 442
967 552
967 953
967 960
967 967
967 1008
967 1011
967 1013
967 1019
967 1053
967 1171
967 1491
967 1492
967 1493
967 2563
967 2564
968 194
968 197
968 198
968 199
968 200
968 201
968 940
968 944
968 955
968 964
968 966
968 974
968 976
968 1302
968 1303
968 1304
968 1305
968 1306
968 1308
968 1309
968 1784
968 2867
968 2868
969 195
969 196
969 197
969 198
969 199
969 200
969 201
969 226
969 227
969 341
969 342
969 394
969 421
969 972
969 977
969 1628
969 1828
969 1833
969 1939
969 2427
969 2428
969 2429
969 2554
970 13
970 198
970 200
970 201
970 909
970 917
970 918
970 920
970 921
970 922
970 923
970 924
970 1147
970 1148
970 1149
970 1150
970 1151
970 1153
970 1154
970 1775
970 1791
970 2853
970 2854
971 52
971 201
971 424
971 491
971 525
971 1289
971 1291
971 1292
971 1300
971 1302
971 1303
971 1304
971 1305
971 1306
971 1308
971 1309
971 2871
972 14
972 198
972 200
972 201
972 226
972 341
972 342
972 394
972 412
972 413
972 934
972 969
972 973
972 977
972 1628
972 1724
972 1828
972 1833
972 1939
972 2421
972 2422
972 2423
972 2424
972 2425
972 2426
972 2428
972 2429
973 14
973 226
973 227
973 341
973 342
973 361
973 412
973 413
973 421
973 934
973 972
973 1724
973 1939
973 2421
973 2422
973 2423
973 2424
973 2425
973 2426
974 194
974 197
974 198
974 199
974 200
974 201
974 424
974 629
974 940
974 944
974 955
974 964
974 966
974 968
974 976
974 1291
974 1292
974 1784
975 129
975 139
975 172
975 173
975 178
975 189
975 191
975 194
975 197
975 198
975 200
975 201
975 694
975 883
975 939
975 943
975 954
975 999
975 1776
975 1780
975 1827
975 2276
975 2520
975 2521
976 129
976 139
976 172
976 173
976 178
976 189
976 191
976 194
976 197
976 198
976 200
976 201
976 424
976 883
976 940
976 944
976 955
976 964
976 966
976 968
976 974
976 1291
976 1292
976 1784
977 91
977 130
977 133
977 140
977 141
977 142
977 143
977 146
977 153
977 158
977 160
977 165
977 167
977 168
977 170
977 173
977 180
977 193
977 195
977 197
977 198
977 200
977 201
977 226
977 241
977 251
977 341
977 342
977 343
977 361
977 394
977 397
977 413
977 552
977 969
977 972
977 977
977 1053
977 1171
977 1628
977 1828
977 1833
977 1939
977 2427
977 2428
977 2429
977 2554
978 200
978 201
978 259
978 433
978 480
978 664
978 665
978 667
978 2004
978 2008
978 2009
978 2010
978 2011
978 2012
978 2013
978 2014
978 2015
978 2872
978 2873
979 173
979 297
979 437
979 602
979 604
979 668
979 670
979 1181
979 1182
979 2248
979 2483
979 2703
979 2704
979 2705
979 2706
979 2707
979 2708
980 90
980 94
980 102
980 103
980 104
980 105
980 140
980 153
980 155
980 158
980 160
980 162
980 164
980 166
980 173
980 178
980 184
980 189
980 194
980 197
980 198
980 200
980 201
980 238
980 370
980 449
980 498
980 499
980 528
980 664
980 665
980 1167
980 1393
980 1549
980 1555
980 2004
980 2005
980 2006
980 2007
980 2010
980 2011
980 2012
980 2013
980 2014
980 2015
980 2738
980 2739
980 2740
980 2741
980 2742
980 2743
980 2872
980 2874
981 27
981 57
981 70
981 201
981 464
981 480
981 481
981 601
981 608
981 672
981 1010
981 1088
981 1501
981 1504
981 1506
981 1513
981 1514
981 1518
981 1522
981 1524
982 27
982 57
982 70
982 201
982 348
982 480
982 666
982 674
982 762
982 1096
982 1097
982 1098
982 1375
982 1384
982 1385
982 1386
982 1387
982 1388
982 1390
982 2875
982 2876
983 90
983 94
983 102
983 103
983 104
983 105
983 140
983 153
983 155
983 158
983 160
983 162
983 164
983 166
983 173
983 178
983 184
983 189
983 194
983 197
983 198
983 200
983 201
983 238
983 370
983 449
983 498
983 499
983 528
983 579
983 583
983 614
983 621
983 622
983 992
983 1002
983 1004
983 1007
983 1022
983 1027
983 1032
983 1041
983 1048
983 1167
983 1393
983 1549
983 1555
983 1777
983 1796
983 2466
983 2476
983 2478
983 2687
984 52
984 120
984 150
984 161
984 166
984 171
984 180
984 424
984 525
984 595
984 626
984 700
984 733
984 753
984 759
984 816
984 820
984 835
984 872
984 893
984 899
984 964
984 1291
984 1292
984 1293
984 1307
984 2508
984 2759
984 2767
984 2792
984 2953
984 3151
984 3236
984 3312
985 44
985 200
985 201
985 235
985 304
985 313
985 385
985 480
985 694
985 695
985 696
985 948
985 1009
985 1173
985 1176
985 1177
985 1578
985 1651
985 1666
985 1895
985 2522
985 2523
985 2627
986 141
986 160
986 179
986 181
986 201
986 771
986 829
986 987
986 988
986 1629
986 1671
986 1672
987 160
987 179
987 201
987 771
987 829
987 986
987 987
987 988
987 1629
987 1671
987 1672
988 137
988 160
988 179
988 201
988 771
988 808
988 829
988 986
988 987
988 988
988 1629
988 1671
988 1672
989 195
989 197
989 198
989 200
989 201
989 989
989 1001
989 1003
989 1006
989 2310
989 2313
989 2733
989 2877
989 2878
989 2879
990 31
990 55
990 153
990 208
990 463
990 512
990 945
990 990
991 195
991 197
991 198
991 200
991 201
991 360
991 1001
991 1003
991 1006
991 2310
991 2313
991 2733
991 2877
991 2878
991 2879
991 2880
991 2881
991 2882
991 2883
991 2884
992 195
992 197
992 198
992 200
992 201
992 356
992 371
992 578
992 621
992 622
992 906
992 983
992 1002
992 1004
992 1007
992 1048
992 2466
992 2687
992 2688
992 2715
993 15
993 200
993 201
993 516
993 517
993 518
993 519
993 946
993 947
993 950
993 952
993 956
993 994
993 995
993 1736
994 15
994 197
994 200
994 201
994 232
994 516
994 517
994 518
994 519
994 691
994 692
994 946
994 947
994 950
994 952
994 956
994 993
994 994
994 995
994 1736
994 1875
995 15
995 197
995 200
995 201
995 516
995 517
995 518
995 519
995 947
995 950
995 952
995 956
995 993
995 994
995 1736
995 1875
996 148
996 1124
996 1125
996 1126
996 1127
996 1128
996 1157
997 48
997 113
997 115
997 128
997 195
997 197
997 198
997 200
997 201
997 323
997 364
997 430
997 431
997 480
997 998
997 1035
997 1198
997 1199
997 1200
997 1201
997 1597
997 1598
997 1602
998 48
998 113
998 115
998 128
998 141
998 195
998 197
998 198
998 200
998 201
998 323
998 364
998 430
998 431
998 480
998 997
998 1035
998 1198
998 1199
998 1200
998 1201
998 1202
998 1573
998 1597
998 1598
998 1602
999 44
999 198
999 200
999 201
999 304
999 385
999 490
999 694
999 939
999 943
999 948
999 954
999 975
999 1009
999 1173
999 1176
999 1177
999 1776
999 1780
999 1827
999 2276
999 2520
999 2521
1000 34
1000 46
1000 92
1000 141
1000 195
1000 197
1000 198
1000 200
1000 201
1000 231
1000 297
1000 318
1000 346
1000 434
1000 668
1000 1116
1000 1117
1000 1120
1000 1121
1000 1122
1000 1181
1000 1182
1000 1183
1000 1554
1001 141
1001 195
1001 197
1001 198
1001 200
1001 201
1001 360
1001 989
1001 991
1001 1003
1001 1006
1001 1831
1001 2310
1001 2313
1001 2733
1001 2877
1001 2878
1001 2879
1001 2880
1001 2881
1001 2882
1001 2883
1001 2884
1002 141
1002 195
1002 197
1002 198
1002 200
1002 201
1002 356
1002 371
1002 578
1002 621
1002 622
1002 906
1002 983
1002 992
1002 1004
1002 1007
1002 1048
1002 2466
1002 2476
1002 2478
1002 2687
1002 2688
1002 2715
1003 91
1003 130
1003 133
1003 140
1003 141
1003 142
1003 143
1003 146
1003 153
1003 158
1003 160
1003 165
1003 167
1003 168
1003 170
1003 173
1003 180
1003 193
1003 195
1003 197
1003 198
1003 200
1003 201
1003 241
1003 251
1003 343
1003 360
1003 552
1003 989
1003 991
1003 1001
1003 1003
1003 1006
1003 1053
1003 1171
1003 1831
1003 2310
1003 2313
1003 2733
1003 2877
1003 2878
1003 2879
1003 2880
1003 2881
1003 2882
1003 2883
1003 2884
1004 91
1004 130
1004 133
1004 140
1004 141
1004 142
1004 143
1004 146
1004 153
1004 158
1004 160
1004 165
1004 167
1004 168
1004 170
1004 173
1004 180
1004 193
1004 195
1004 197
1004 198
1004 200
1004 201
1004 241
1004 251
1004 343
1004 356
1004 371
1004 552
1004 578
1004 621
1004 622
1004 906
1004 983
1004 992
1004 1002
1004 1004
1004 1007
1004 1048
1004 1053
1004 1171
1004 2466
1004 2476
1004 2478
1004 2687
1004 2688
1004 2715
1005 195
1005 196
1005 197
1005 198
1005 199
1005 200
1005 201
1005 398
1005 1043
1005 1045
1005 2035
1005 2036
1005 2037
1005 2038
1005 2039
1005 2040
1005 2041
1005 2561
1005 2885
1005 2886
1005 2887
1006 195
1006 197
1006 200
1006 201
1006 360
1006 989
1006 991
1006 1001
1006 1003
1006 1831
1006 2310
1006 2313
1006 2526
1006 2733
1006 2877
1006 2878
1006 2879
1006 2880
1006 2881
1006 2882
1006 2883
1006 2884
1007 195
1007 197
1007 200
1007 201
1007 356
1007 371
1007 578
1007 621
1007 622
1007 906
1007 983
1007 992
1007 1002
1007 1004
1007 1048
1007 2466
1007 2476
1007 2477
1007 2478
1007 2687
1007 2688
1007 2715
1008 69
1008 195
1008 197
1008 198
1008 200
1008 201
1008 400
1008 442
1008 953
1008 960
1008 967
1008 1011
1008 1013
1008 1019
1008 1491
1008 2563
1008 2564
1009 44
1009 195
1009 197
1009 198
1009 200
1009 201
1009 304
1009 385
1009 690
1009 948
1009 985
1009 999
1009 1172
1009 1173
1009 2520
1009 2521
1009 2522
1009 2523
1010 70
1010 201
1010 480
1010 481
1010 601
1010 608
1010 672
1010 981
1010 1175
1010 1501
1010 1503
1010 1513
1010 1514
1010 1515
1010 1516
1010 1517
1010 1518
1010 1519
1010 1521
1010 1522
1010 1760
1011 90
1011 94
1011 102
1011 103
1011 104
1011 105
1011 140
1011 153
1011 155
1011 158
1011 160
1011 162
1011 164
1011 166
1011 173
1011 178
1011 184
1011 189
1011 194
1011 197
1011 198
1011 200
1011 201
1011 238
1011 370
1011 400
1011 449
1011 483
1011 498
1011 499
1011 528
1011 545
1011 953
1011 960
1011 967
1011 1008
1011 1013
1011 1014
1011 1015
1011 1016
1011 1017
1011 1018
1011 1019
1011 1167
1011 1393
1011 1480
1011 1481
1011 1492
1011 1493
1011 1549
1011 1555
1011 1713
1011 1779
1011 2563
1012 194
1012 197
1012 198
1012 200
1012 201
1012 411
1012 503
1012 520
1012 543
1012 962
1012 1728
1012 2263
1012 2264
1012 2265
1012 2266
1012 2267
1012 2268
1012 2574
1012 2639
1012 2640
1012 2641
1012 2642
1012 2643
1012 2644
1013 69
1013 198
1013 200
1013 201
1013 400
1013 440
1013 483
1013 545
1013 953
1013 960
1013 967
1013 1008
1013 1011
1013 1014
1013 1015
1013 1016
1013 1017
1013 1018
1013 1019
1013 1480
1013 1481
1013 1492
1013 1493
1013 1713
1013 1779
1014 194
1014 197
1014 198
1014 200
1014 201
1014 483
1014 545
1014 960
1014 1011
1014 1013
1014 1015
1014 1016
1014 1017
1014 1480
1014 1481
1014 1713
1014 1779
1015 100
1015 114
1015 139
1015 172
1015 173
1015 178
1015 194
1015 197
1015 198
1015 200
1015 201
1015 483
1015 545
1015 938
1015 960
1015 1011
1015 1013
1015 1014
1015 1016
1015 1017
1015 1018
1015 1480
1015 1481
1015 1713
1015 1779
1016 194
1016 197
1016 198
1016 199
1016 200
1016 201
1016 483
1016 545
1016 629
1016 960
1016 1011
1016 1013
1016 1014
1016 1015
1016 1017
1016 1018
1016 1480
1016 1481
1016 1713
1016 1779
1017 129
1017 139
1017 172
1017 173
1017 178
1017 189
1017 191
1017 194
1017 197
1017 198
1017 200
1017 201
1017 483
1017 545
1017 883
1017 960
1017 1011
1017 1013
1017 1014
1017 1015
1017 1016
1017 1018
1017 1480
1017 1481
1017 1713
1017 1779
1018 189
1018 190
1018 194
1018 197
1018 198
1018 200
1018 201
1018 229
1018 483
1018 545
1018 960
1018 1011
1018 1013
1018 1015
1018 1016
1018 1017
1018 1480
1018 1713
1018 1779
1019 195
1019 196
1019 197
1019 198
1019 199
1019 200
1019 201
1019 400
1019 953
1019 960
1019 967
1019 1008
1019 1011
1019 1013
1019 1492
1019 1493
1019 2563
1019 2564
1020 21
1020 28
1020 30
1020 36
1020 41
1020 43
1020 45
1020 119
1020 121
1020 145
1020 147
1020 154
1020 181
1020 182
1020 184
1020 195
1020 196
1020 197
1020 198
1020 199
1020 200
1020 201
1020 250
1020 1581
1021 19
1021 32
1021 42
1021 55
1021 153
1021 208
1021 463
1021 512
1021 1021
1021 1025
1021 1110
1021 2614
1022 194
1022 197
1022 198
1022 200
1022 201
1022 579
1022 583
1022 614
1022 621
1022 983
1022 1022
1022 1027
1022 1032
1022 1041
1022 1048
1022 1777
1022 1796
1023 198
1023 201
1023 780
1023 794
1023 2310
1023 2877
1023 2878
1023 2888
1023 2889
1023 2890
1023 2891
1023 2892
1023 2893
1023 2894
1023 2895
1024 31
1024 55
1024 153
1024 208
1024 463
1024 512
1024 945
1024 1024
1024 1029
1025 32
1025 42
1025 55
1025 153
1025 208
1025 463
1025 512
1025 1021
1025 1025
1025 2614
1026 16
1026 194
1026 197
1026 198
1026 199
1026 200
1026 201
1026 422
1026 629
1026 708
1026 709
1026 719
1026 965
1026 1031
1026 1036
1026 1040
1026 1047
1026 1783
1027 194
1027 197
1027 198
1027 199
1027 200
1027 201
1027 579
1027 583
1027 614
1027 621
1027 629
1027 983
1027 1022
1027 1032
1027 1041
1027 1048
1027 1777
1027 1796
1028 194
1028 197
1028 198
1028 199
1028 200
1028 201
1028 629
1028 1033
1028 1038
1028 1042
1028 1528
1028 1771
1028 1787
1028 1824
1028 2484
1028 2485
1028 2730
1029 31
1029 42
1029 55
1029 153
1029 201
1029 208
1029 463
1029 512
1029 945
1029 1024
1029 1029
1030 119
1030 121
1030 145
1030 147
1030 154
1030 169
1030 178
1030 181
1030 182
1030 184
1030 195
1030 197
1030 198
1030 199
1030 200
1030 201
1030 1204
1030 1206
1031 16
1031 170
1031 194
1031 197
1031 198
1031 200
1031 201
1031 422
1031 708
1031 709
1031 719
1031 965
1031 1026
1031 1036
1031 1040
1031 1047
1031 1783
1032 170
1032 194
1032 197
1032 198
1032 200
1032 201
1032 579
1032 583
1032 614
1032 621
1032 983
1032 1022
1032 1027
1032 1041
1032 1048
1032 1777
1032 1796
1033 170
1033 194
1033 197
1033 198
1033 200
1033 201
1033 1028
1033 1038
1033 1042
1033 1528
1033 1771
1033 1787
1033 1824
1033 2484
1033 2485
1033 2730
1034 175
1034 176
1034 179
1034 200
1034 201
1034 644
1034 1034
1034 1062
1034 1743
1034 1744
1034 2529
1034 2730
1035 48
1035 113
1035 115
1035 128
1035 195
1035 196
1035 197
1035 198
1035 199
1035 200
1035 201
1035 364
1035 480
1035 997
1035 998
1035 1198
1035 1199
1035 1200
1035 1201
1035 1202
1035 1573
1035 1597
1035 1598
1035 1602
1036 16
1036 100
1036 114
1036 139
1036 172
1036 173
1036 178
1036 194
1036 197
1036 198
1036 200
1036 201
1036 422
1036 708
1036 709
1036 719
1036 938
1036 965
1036 1026
1036 1031
1036 1040
1036 1047
1036 1783
1037 26
1037 100
1037 114
1037 139
1037 172
1037 173
1037 178
1037 194
1037 197
1037 198
1037 200
1037 201
1037 938
1037 1051
1037 1074
1037 1075
1037 1076
1037 1077
1037 1078
1037 1079
1037 1532
1037 1781
1037 1799
1038 100
1038 114
1038 139
1038 172
1038 173
1038 178
1038 194
1038 197
1038 198
1038 200
1038 201
1038 938
1038 1028
1038 1033
1038 1042
1038 1528
1038 1771
1038 1787
1038 1824
1038 2484
1038 2485
1038 2730
1039 194
1039 197
1039 198
1039 200
1039 201
1039 961
1039 1039
1039 1044
1039 2335
1039 3208
1039 3213
1039 3214
1039 3215
1039 3216
1039 3217
1039 3219
1039 3301
1039 3305
1039 3363
1039 3364
1039 3365
1039 3366
1039 3367
1039 3368
1039 3369
1040 16
1040 129
1040 139
1040 172
1040 173
1040 178
1040 189
1040 191
1040 194
1040 197
1040 198
1040 200
1040 201
1040 422
1040 708
1040 709
1040 719
1040 883
1040 965
1040 1026
1040 1031
1040 1036
1040 1047
1040 1783
1041 129
1041 139
1041 172
1041 173
1041 178
1041 189
1041 191
1041 194
1041 197
1041 198
1041 200
1041 201
1041 579
1041 583
1041 614
1041 621
1041 883
1041 983
1041 1022
1041 1027
1041 1032
1041 1048
1041 1777
1041 1796
1042 129
1042 139
1042 172
1042 173
1042 178
1042 189
1042 191
1042 194
1042 197
1042 198
1042 200
1042 201
1042 883
1042 1028
1042 1033
1042 1038
1042 1528
1042 1771
1042 1787
1042 1824
1042 2484
1042 2485
1042 2730
1043 90
1043 94
1043 102
1043 103
1043 104
1043 105
1043 140
1043 153
1043 155
1043 158
1043 160
1043 162
1043 164
1043 166
1043 173
1043 178
1043 184
1043 189
1043 194
1043 197
1043 198
1043 200
1043 201
1043 238
1043 370
1043 398
1043 449
1043 498
1043 499
1043 528
1043 540
1043 541
1043 1005
1043 1045
1043 1167
1043 1393
1043 1530
1043 1549
1043 1555
1043 2035
1043 2036
1043 2037
1043 2038
1043 2039
1043 2040
1043 2041
1043 2561
1043 2660
1043 2661
1043 2662
1043 2663
1043 2664
1043 2665
1043 2885
1044 90
1044 94
1044 102
1044 103
1044 104
1044 105
1044 140
1044 153
1044 155
1044 158
1044 160
1044 162
1044 164
1044 166
1044 173
1044 178
1044 184
1044 189
1044 194
1044 197
1044 198
1044 200
1044 201
1044 238
1044 370
1044 449
1044 498
1044 499
1044 528
1044 961
1044 1039
1044 1167
1044 1393
1044 1549
1044 1555
1044 2335
1044 2903
1044 3208
1044 3213
1044 3214
1044 3215
1044 3216
1044 3217
1044 3219
1044 3301
1044 3305
1044 3363
1044 3364
1044 3365
1044 3366
1044 3367
1044 3368
1044 3369
1045 198
1045 200
1045 201
1045 398
1045 540
1045 541
1045 1005
1045 1043
1045 1530
1045 2035
1045 2036
1045 2037
1045 2038
1045 2039
1045 2040
1045 2041
1045 2561
1045 2660
1045 2661
1045 2662
1045 2663
1045 2664
1045 2665
1046 59
1046 194
1046 197
1046 198
1046 200
1046 201
1046 1052
1046 1409
1046 1410
1046 1411
1046 1412
1046 1413
1046 1418
1046 1638
1046 1782
1046 1801
1046 2092
1046 2104
1046 2105
1046 2106
1046 2107
1046 2108
1046 2109
1047 16
1047 194
1047 197
1047 198
1047 199
1047 200
1047 201
1047 708
1047 965
1047 1026
1047 1031
1047 1036
1047 1040
1047 1465
1047 1466
1047 1467
1047 1468
1047 1469
1047 1471
1047 1472
1047 1783
1047 2752
1047 2753
1048 194
1048 197
1048 198
1048 199
1048 200
1048 201
1048 621
1048 622
1048 983
1048 992
1048 1002
1048 1004
1048 1007
1048 1022
1048 1027
1048 1032
1048 1041
1048 1777
1048 1796
1048 2466
1048 2476
1048 2478
1049 92
1049 106
1049 107
1049 111
1049 113
1049 115
1049 128
1049 196
1049 198
1049 201
1049 323
1049 371
1049 392
1049 397
1049 410
1049 431
1049 436
1049 439
1049 443
1049 512
1049 588
1049 808
1049 879
1049 1050
1049 1152
1049 1172
1049 1225
1049 1264
1049 1307
1049 1323
1049 1344
1049 1374
1049 1470
1049 1491
1049 1502
1049 1529
1049 1563
1049 1773
1049 1788
1049 1825
1049 2003
1049 2169
1049 2313
1049 2343
1049 2391
1049 2432
1050 92
1050 100
1050 106
1050 107
1050 111
1050 113
1050 114
1050 115
1050 128
1050 139
1050 172
1050 173
1050 178
1050 194
1050 196
1050 197
1050 198
1050 200
1050 201
1050 371
1050 392
1050 397
1050 410
1050 431
1050 436
1050 439
1050 443
1050 588
1050 879
1050 938
1050 1049
1050 1152
1050 1172
1050 1225
1050 1264
1050 1307
1050 1323
1050 1344
1050 1374
1050 1470
1050 1491
1050 1502
1050 1529
1050 1563
1050 1773
1050 1788
1050 1825
1050 2003
1050 2169
1050 2313
1050 2343
1050 2391
1050 2432
1051 26
1051 47
1051 198
1051 201
1051 703
1051 1037
1051 1074
1051 1075
1051 1076
1051 1077
1051 1078
1051 1079
1051 1532
1051 1781
1051 1799
1051 2750
1052 59
1052 198
1052 200
1052 201
1052 1046
1052 1409
1052 1410
1052 1411
1052 1412
1052 1413
1052 1418
1052 1638
1052 1782
1052 1801
1052 2092
1052 2104
1052 2105
1052 2106
1052 2107
1052 2108
1052 2109
1053 44
1053 46
1053 48
1053 154
1053 167
1053 201
1053 967
1053 977
1053 1003
1053 1004
1053 1082
1053 1103
1053 1148
1053 1164
1053 1241
1053 1280
1053 1303
1053 1349
1053 1385
1053 1404
1053 1416
1053 1466
1053 1516
1053 2011
1053 2036
1053 2105
1053 2189
1053 2264
1053 2363
1053 2543
1053 3214
1053 3294
1054 105
1054 181
1054 182
1054 184
1054 194
1054 197
1054 198
1054 200
1054 201
1054 283
1054 288
1054 754
1054 807
1054 1055
1054 1056
1054 1057
1054 1058
1054 1560
1054 1708
1054 1769
1054 2316
1054 2387
1054 2394
1054 2399
1054 2435
1054 2444
1054 3136
1055 100
1055 105
1055 114
1055 139
1055 172
1055 173
1055 178
1055 181
1055 182
1055 184
1055 194
1055 197
1055 198
1055 200
1055 201
1055 754
1055 807
1055 938
1055 1054
1055 1056
1055 1057
1055 1058
1055 1708
1055 1769
1056 105
1056 181
1056 182
1056 184
1056 194
1056 197
1056 198
1056 199
1056 200
1056 201
1056 629
1056 754
1056 807
1056 1054
1056 1055
1056 1057
1056 1058
1056 1708
1056 1769
1057 105
1057 129
1057 139
1057 172
1057 173
1057 178
1057 181
1057 182
1057 184
1057 189
1057 191
1057 194
1057 197
1057 198
1057 200
1057 201
1057 754
1057 807
1057 883
1057 1054
1057 1055
1057 1056
1057 1058
1057 1708
1057 1769
1058 105
1058 181
1058 182
1058 184
1058 194
1058 197
1058 198
1058 200
1058 201
1058 664
1058 754
1058 807
1058 1054
1058 1055
1058 1056
1058 1057
1058 1708
1058 1769
1059 38
1059 49
1059 123
1059 124
1059 125
1059 126
1059 148
1059 164
1059 169
1059 200
1059 201
1059 915
1059 935
1059 949
1059 1123
1059 1156
1059 2862
1060 108
1060 123
1060 124
1060 125
1060 126
1060 148
1060 164
1060 169
1060 200
1060 201
1060 957
1060 1123
1060 1565
1061 17
1061 18
1061 56
1061 185
1061 359
1061 418
1061 452
1061 539
1061 584
1061 678
1061 707
1061 855
1061 862
1061 868
1061 872
1061 1215
1061 1254
1061 1473
1061 2159
1061 2333
1061 2630
1061 2904
1061 3265
1061 3302
1062 159
1062 192
1062 201
1062 338
1062 384
1062 390
1062 392
1062 529
1062 644
1062 720
1062 1034
1062 1528
1062 1722
1062 1836
1062 2396
1062 2397
1062 2398
1062 2528
1062 2529
1062 2530
1062 2531
1062 2532
1062 2533
1062 2534
1062 2535
1062 2536
1062 2537
1062 2538
1062 2539
1062 2540
1062 2541
1062 2542
1062 2543
1062 2544
1062 2545
1062 2546
1062 2547
1062 2548
1062 2730
1062 2756
1062 2830
1062 2857
1062 2904
1062 2905
1062 2906
1062 2907
1062 2908
1062 2909
1062 2910
1062 2911
1063 17
1063 176
1063 177
1063 179
1063 200
1063 201
1063 239
1063 340
1063 799
1063 1141
1063 1155
1063 1749
1064 175
1064 176
1064 177
1064 179
1064 200
1064 201
1064 718
1064 783
1064 1741
1064 3265
1064 3268
1064 3271
1065 120
1065 168
1065 194
1065 197
1065 201
1065 399
1065 506
1065 576
1065 1134
1065 1556
1065 1584
1065 1585
1066 20
1066 22
1066 136
1067 23
1067 24
1067 25
1067 201
1067 448
1067 472
1067 475
1067 2595
1068 23
1068 24
1068 25
1068 201
1068 306
1068 478
1068 1730
1068 2571
1069 23
1069 24
1069 25
1069 201
1069 1904
1069 2134
1069 2135
1069 2136
1070 23
1070 24
1070 25
1070 201
1070 268
1070 536
1070 1726
1070 2076
1071 23
1071 24
1071 25
1071 201
1071 267
1071 2058
1071 2059
1071 2912
1072 24
1072 74
1072 196
1072 199
1072 200
1072 201
1072 247
1072 248
1072 276
1072 883
1072 884
1072 1835
1072 1837
1072 1838
1072 1984
1072 2827
1073 26
1073 47
1073 132
1073 195
1073 197
1073 198
1073 200
1073 201
1073 407
1073 436
1073 1077
1073 1079
1073 1080
1073 1081
1073 1082
1073 1083
1073 1084
1073 1085
1073 1191
1073 2913
1074 26
1074 170
1074 194
1074 197
1074 198
1074 200
1074 201
1074 1037
1074 1051
1074 1075
1074 1076
1074 1077
1074 1078
1074 1079
1074 1532
1074 1781
1074 1799
1075 26
1075 194
1075 197
1075 198
1075 200
1075 201
1075 1037
1075 1051
1075 1074
1075 1075
1075 1076
1075 1077
1075 1078
1075 1079
1075 1532
1075 1781
1075 1799
1076 26
1076 194
1076 197
1076 198
1076 199
1076 200
1076 201
1076 629
1076 1037
1076 1051
1076 1074
1076 1075
1076 1077
1076 1078
1076 1079
1076 1532
1076 1781
1076 1799
1077 26
1077 194
1077 197
1077 198
1077 200
1077 201
1077 1037
1077 1051
1077 1073
1077 1074
1077 1075
1077 1076
1077 1078
1077 1079
1077 1080
1077 1081
1077 1082
1077 1083
1077 1084
1077 1085
1077 1086
1077 1087
1077 1532
1077 1781
1077 1799
1078 26
1078 129
1078 139
1078 172
1078 173
1078 178
1078 189
1078 191
1078 194
1078 197
1078 198
1078 200
1078 201
1078 883
1078 1037
1078 1051
1078 1074
1078 1075
1078 1076
1078 1077
1078 1079
1078 1532
1078 1781
1078 1799
1079 26
1079 90
1079 94
1079 102
1079 103
1079 104
1079 105
1079 140
1079 153
1079 155
1079 158
1079 160
1079 162
1079 164
1079 166
1079 173
1079 178
1079 184
1079 189
1079 194
1079 197
1079 198
1079 200
1079 201
1079 238
1079 370
1079 449
1079 498
1079 499
1079 528
1079 1037
1079 1051
1079 1073
1079 1074
1079 1075
1079 1076
1079 1077
1079 1078
1079 1080
1079 1081
1079 1082
1079 1083
1079 1084
1079 1085
1079 1086
1079 1087
1079 1167
1079 1393
1079 1532
1079 1549
1079 1555
1079 1781
1079 1799
1079 2914
1080 26
1080 174
1080 195
1080 196
1080 197
1080 199
1080 200
1080 201
1080 1073
1080 1077
1080 1079
1080 1081
1080 1082
1080 1083
1080 1084
1080 1085
1080 2915
1080 2916
1080 2917
1080 2918
1080 2919
1081 26
1081 47
1081 195
1081 197
1081 198
1081 200
1081 201
1081 407
1081 436
1081 1073
1081 1077
1081 1079
1081 1080
1081 1082
1081 1083
1081 1084
1081 1085
1081 2914
1081 2915
1081 2920
1082 26
1082 47
1082 91
1082 130
1082 133
1082 140
1082 141
1082 142
1082 143
1082 146
1082 153
1082 158
1082 160
1082 165
1082 167
1082 168
1082 170
1082 173
1082 180
1082 193
1082 195
1082 197
1082 198
1082 200
1082 201
1082 241
1082 251
1082 343
1082 407
1082 436
1082 552
1082 1053
1082 1073
1082 1077
1082 1079
1082 1080
1082 1081
1082 1082
1082 1083
1082 1084
1082 1085
1082 1086
1082 1087
1082 1171
1082 2914
1082 2915
1082 2920
1083 26
1083 47
1083 141
1083 195
1083 197
1083 198
1083 200
1083 201
1083 407
1083 436
1083 1073
1083 1077
1083 1079
1083 1080
1083 1081
1083 1082
1083 1084
1083 1085
1083 1086
1083 1087
1083 2914
1083 2915
1083 2920
1084 26
1084 195
1084 196
1084 197
1084 198
1084 199
1084 200
1084 201
1084 1073
1084 1077
1084 1079
1084 1080
1084 1081
1084 1082
1084 1083
1084 1085
1084 1086
1084 1087
1084 2914
1084 2915
1084 2920
1085 26
1085 47
1085 195
1085 197
1085 200
1085 201
1085 407
1085 436
1085 1073
1085 1077
1085 1079
1085 1080
1085 1081
1085 1082
1085 1083
1085 1084
1085 1086
1085 1087
1085 1185
1085 2914
1085 2915
1085 2920
1086 26
1086 47
1086 195
1086 197
1086 198
1086 200
1086 201
1086 407
1086 436
1086 1077
1086 1079
1086 1082
1086 1083
1086 1084
1086 1085
1086 1086
1087 26
1087 47
1087 195
1087 197
1087 198
1087 200
1087 201
1087 407
1087 436
1087 1077
1087 1079
1087 1082
1087 1083
1087 1084
1087 1085
1088 27
1088 70
1088 481
1088 671
1088 981
1088 1089
1088 1090
1088 1091
1088 1092
1088 1093
1088 1094
1088 1095
1088 1524
1088 1778
1089 27
1089 70
1089 198
1089 200
1089 201
1089 481
1089 1088
1089 1090
1089 1091
1089 1092
1089 1093
1089 1094
1089 1095
1089 1375
1089 1384
1089 1385
1089 1386
1089 1387
1089 1388
1089 1390
1089 1524
1089 1778
1089 2921
1090 27
1090 194
1090 197
1090 198
1090 200
1090 201
1090 1088
1090 1089
1090 1091
1090 1092
1090 1093
1090 1094
1090 1095
1090 1524
1090 1778
1090 2921
1091 27
1091 100
1091 114
1091 139
1091 172
1091 173
1091 178
1091 194
1091 197
1091 198
1091 200
1091 201
1091 938
1091 1088
1091 1089
1091 1090
1091 1092
1091 1093
1091 1094
1091 1095
1091 1524
1091 1778
1091 2921
1092 27
1092 194
1092 197
1092 198
1092 199
1092 200
1092 201
1092 629
1092 1088
1092 1089
1092 1090
1092 1091
1092 1093
1092 1094
1092 1095
1092 1524
1092 1778
1092 2921
1093 27
1093 129
1093 139
1093 172
1093 173
1093 178
1093 189
1093 191
1093 194
1093 197
1093 198
1093 200
1093 201
1093 883
1093 1088
1093 1089
1093 1090
1093 1091
1093 1092
1093 1094
1093 1095
1093 1524
1093 1778
1093 2921
1094 27
1094 170
1094 194
1094 197
1094 198
1094 200
1094 201
1094 1088
1094 1089
1094 1090
1094 1091
1094 1092
1094 1093
1094 1095
1094 1524
1094 1778
1094 2921
1095 27
1095 90
1095 94
1095 102
1095 103
1095 104
1095 105
1095 140
1095 153
1095 155
1095 158
1095 160
1095 162
1095 164
1095 166
1095 173
1095 178
1095 184
1095 189
1095 194
1095 197
1095 198
1095 200
1095 201
1095 238
1095 370
1095 449
1095 498
1095 499
1095 528
1095 1088
1095 1089
1095 1090
1095 1091
1095 1092
1095 1093
1095 1094
1095 1167
1095 1375
1095 1384
1095 1385
1095 1386
1095 1387
1095 1388
1095 1390
1095 1393
1095 1524
1095 1549
1095 1555
1095 1778
1095 2875
1095 2921
1096 27
1096 57
1096 70
1096 201
1096 480
1096 666
1096 674
1096 982
1096 2436
1097 27
1097 57
1097 70
1097 201
1097 480
1097 666
1097 674
1097 762
1097 982
1098 27
1098 57
1098 70
1098 201
1098 480
1098 666
1098 674
1098 982
1099 28
1099 201
1099 307
1099 548
1099 1401
1099 1402
1099 1406
1099 1531
1099 2292
1100 29
1100 181
1100 182
1100 184
1100 195
1100 196
1100 197
1100 198
1100 199
1100 200
1100 201
1100 350
1100 1102
1100 1103
1100 1104
1100 1105
1101 29
1101 53
1101 200
1101 201
1101 234
1101 480
1101 487
1101 686
1101 687
1102 29
1102 53
1102 195
1102 197
1102 198
1102 200
1102 201
1102 233
1102 303
1102 350
1102 351
1102 352
1102 963
1102 1100
1102 1103
1102 1104
1102 1105
1102 1106
1102 1323
1102 1963
1103 29
1103 53
1103 91
1103 130
1103 133
1103 140
1103 141
1103 142
1103 143
1103 146
1103 153
1103 158
1103 160
1103 165
1103 167
1103 168
1103 170
1103 173
1103 180
1103 193
1103 195
1103 197
1103 198
1103 200
1103 201
1103 233
1103 241
1103 251
1103 303
1103 343
1103 350
1103 351
1103 352
1103 552
1103 963
1103 1053
1103 1100
1103 1102
1103 1103
1103 1104
1103 1105
1103 1106
1103 1107
1103 1171
1103 1323
1103 1325
1103 1963
1104 29
1104 53
1104 141
1104 195
1104 197
1104 198
1104 200
1104 201
1104 233
1104 303
1104 350
1104 351
1104 352
1104 963
1104 1100
1104 1102
1104 1103
1104 1105
1104 1106
1104 1107
1104 1323
1104 1325
1104 1963
1105 29
1105 53
1105 195
1105 197
1105 200
1105 201
1105 233
1105 303
1105 350
1105 351
1105 352
1105 487
1105 963
1105 1100
1105 1102
1105 1103
1105 1104
1105 1106
1105 1107
1105 1323
1105 1324
1105 1325
1105 1963
1106 29
1106 181
1106 182
1106 184
1106 195
1106 196
1106 197
1106 198
1106 199
1106 200
1106 201
1106 1102
1106 1103
1106 1104
1106 1105
1107 29
1107 53
1107 195
1107 197
1107 198
1107 200
1107 201
1107 303
1107 350
1107 963
1107 1103
1107 1104
1107 1105
1107 1107
1107 1323
1107 1963
1108 29
1108 597
1109 30
1109 119
1109 121
1109 145
1109 147
1109 154
1109 181
1109 182
1109 184
1109 195
1109 196
1109 197
1109 198
1109 199
1109 200
1109 201
1110 32
1110 42
1110 55
1110 153
1110 208
1110 463
1110 512
1110 854
1110 1021
1110 1834
1111 33
1111 39
1111 67
1111 117
1111 189
1111 196
1111 199
1111 200
1111 201
1111 882
1112 33
1112 39
1112 67
1112 117
1112 189
1112 196
1112 199
1112 200
1112 201
1112 882
1112 910
1113 33
1113 39
1113 67
1113 117
1113 159
1113 189
1113 196
1113 199
1113 200
1113 201
1113 688
1113 882
1113 910
1113 938
1114 33
1114 39
1114 67
1114 117
1114 189
1114 196
1114 199
1114 200
1114 201
1114 882
1114 910
1114 938
1115 34
1115 201
1115 297
1115 298
1115 758
1115 811
1115 1526
1115 1727
1115 2245
1115 2246
1115 2249
1115 2250
1115 2251
1115 2252
1116 34
1116 46
1116 92
1116 132
1116 195
1116 197
1116 198
1116 200
1116 201
1116 297
1116 434
1116 668
1116 1000
1116 1120
1116 1181
1116 1182
1116 1183
1116 1550
1116 2922
1117 34
1117 46
1117 181
1117 182
1117 184
1117 195
1117 196
1117 197
1117 198
1117 199
1117 200
1117 201
1117 434
1117 1000
1117 1120
1117 1182
1118 34
1118 201
1118 297
1118 437
1118 480
1118 602
1118 604
1118 605
1118 670
1119 34
1119 201
1119 297
1119 480
1119 602
1119 604
1119 605
1119 670
1120 34
1120 46
1120 92
1120 195
1120 197
1120 198
1120 200
1120 201
1120 231
1120 297
1120 318
1120 346
1120 434
1120 668
1120 1000
1120 1116
1120 1117
1120 1121
1120 1181
1120 1182
1120 1183
1121 34
1121 46
1121 181
1121 182
1121 184
1121 195
1121 196
1121 197
1121 198
1121 199
1121 200
1121 201
1121 434
1121 1000
1121 1120
1122 34
1122 46
1122 92
1122 195
1122 197
1122 198
1122 200
1122 201
1122 297
1122 434
1122 668
1122 1000
1122 1122
1122 1181
1122 1182
1122 1183
1123 35
1123 38
1123 49
1123 108
1123 123
1123 124
1123 125
1123 126
1123 148
1123 164
1123 169
1123 200
1123 201
1123 858
1123 916
1123 957
1123 1059
1123 1060
1124 35
1124 38
1124 49
1124 123
1124 124
1124 125
1124 126
1124 148
1124 164
1124 169
1124 200
1124 201
1124 858
1124 916
1124 957
1124 996
1125 35
1125 38
1125 49
1125 114
1125 123
1125 124
1125 125
1125 126
1125 148
1125 164
1125 169
1125 200
1125 201
1125 858
1125 916
1125 957
1125 996
1126 35
1126 38
1126 49
1126 114
1126 123
1126 124
1126 125
1126 126
1126 148
1126 164
1126 169
1126 200
1126 201
1126 858
1126 916
1126 957
1126 996
1126 1206
1127 35
1127 38
1127 49
1127 123
1127 124
1127 125
1127 126
1127 148
1127 164
1127 169
1127 201
1127 858
1127 916
1127 957
1127 996
1128 35
1128 38
1128 49
1128 123
1128 124
1128 125
1128 126
1128 148
1128 164
1128 169
1128 200
1128 201
1128 858
1128 916
1128 957
1128 996
1128 1206
1129 35
1129 38
1129 49
1129 123
1129 124
1129 125
1129 126
1129 164
1129 169
1129 200
1129 201
1129 858
1129 915
1129 916
1129 957
1129 1129
1130 36
1130 119
1130 121
1130 145
1130 147
1130 154
1130 178
1130 181
1130 182
1130 184
1130 195
1130 196
1130 197
1130 198
1130 199
1130 200
1130 201
1130 1204
1131 36
1131 119
1131 121
1131 145
1131 147
1131 154
1131 181
1131 182
1131 184
1131 190
1131 195
1131 196
1131 197
1131 198
1131 199
1131 200
1131 201
1132 36
1132 119
1132 121
1132 145
1132 147
1132 154
1132 181
1132 182
1132 184
1132 189
1132 195
1132 196
1132 197
1132 198
1132 199
1132 200
1132 201
1132 1650
1133 36
1133 119
1133 121
1133 145
1133 147
1133 154
1133 181
1133 182
1133 184
1133 195
1133 196
1133 197
1133 198
1133 199
1133 200
1133 201
1134 36
1134 119
1134 121
1134 145
1134 147
1134 154
1134 170
1134 181
1134 182
1134 184
1134 195
1134 196
1134 197
1134 198
1134 199
1134 200
1134 201
1134 224
1134 1065
1135 37
1135 120
1135 150
1135 161
1135 165
1135 166
1135 171
1135 180
1135 189
1135 239
1135 700
1135 733
1135 753
1135 759
1135 816
1135 820
1135 835
1135 893
1135 899
1135 1144
1135 1152
1135 2508
1135 2759
1135 2767
1135 2792
1135 2953
1135 3151
1135 3236
1135 3312
1136 37
1136 190
1136 200
1136 201
1136 1142
1136 1723
1136 2923
1137 37
1137 201
1137 1139
1137 1682
1137 1695
1138 37
1138 201
1138 408
1138 1139
1138 1140
1138 1142
1138 2568
1138 2923
1139 37
1139 201
1139 1137
1139 1138
1139 1143
1139 1145
1139 1146
1139 1682
1139 1695
1140 23
1140 24
1140 25
1140 37
1140 201
1140 1138
1140 1723
1140 2568
1141 37
1141 176
1141 177
1141 179
1141 200
1141 201
1141 239
1141 340
1141 799
1141 1063
1141 1141
1141 1749
1142 37
1142 201
1142 1136
1142 1138
1142 1143
1142 1723
1142 2923
1142 2924
1143 37
1143 150
1143 171
1143 201
1143 1139
1143 1142
1143 1682
1143 1695
1144 37
1144 158
1144 196
1144 199
1144 200
1144 201
1144 311
1144 689
1144 1135
1144 2924
1144 2925
1144 2926
1144 2927
1144 2928
1144 2929
1144 2930
1144 2931
1145 37
1145 201
1145 1139
1145 1145
1145 1146
1145 1682
1145 1695
1146 37
1146 165
1146 171
1146 201
1146 1139
1146 1145
1146 1682
1146 1695
1147 37
1147 195
1147 197
1147 198
1147 200
1147 201
1147 923
1147 924
1147 970
1147 1148
1147 1149
1147 1150
1147 1151
1147 1152
1147 2852
1147 2853
1147 2854
1147 2932
1147 2933
1147 2934
1148 37
1148 91
1148 130
1148 133
1148 140
1148 141
1148 142
1148 143
1148 146
1148 153
1148 158
1148 160
1148 165
1148 167
1148 168
1148 170
1148 173
1148 180
1148 193
1148 195
1148 197
1148 198
1148 200
1148 201
1148 241
1148 251
1148 343
1148 552
1148 923
1148 924
1148 970
1148 1053
1148 1147
1148 1148
1148 1149
1148 1150
1148 1151
1148 1152
1148 1153
1148 1154
1148 1171
1148 2852
1148 2853
1148 2854
1148 2932
1148 2933
1148 2934
1149 37
1149 141
1149 195
1149 197
1149 198
1149 200
1149 201
1149 923
1149 924
1149 970
1149 1147
1149 1148
1149 1150
1149 1151
1149 1152
1149 1153
1149 1154
1149 2852
1149 2853
1149 2854
1149 2932
1149 2933
1149 2934
1150 37
1150 195
1150 197
1150 200
1150 201
1150 923
1150 924
1150 970
1150 1147
1150 1148
1150 1149
1150 1151
1150 1152
1150 1153
1150 1154
1150 2493
1150 2852
1150 2853
1150 2854
1150 2932
1150 2933
1150 2934
1151 37
1151 132
1151 195
1151 197
1151 198
1151 200
1151 201
1151 923
1151 924
1151 970
1151 1147
1151 1148
1151 1149
1151 1150
1151 1152
1151 2853
1151 2854
1151 2933
1151 2935
1152 37
1152 93
1152 96
1152 97
1152 98
1152 99
1152 101
1152 106
1152 107
1152 108
1152 110
1152 111
1152 113
1152 115
1152 117
1152 123
1152 124
1152 125
1152 126
1152 127
1152 128
1152 134
1152 135
1152 137
1152 138
1152 144
1152 145
1152 146
1152 147
1152 148
1152 154
1152 157
1152 161
1152 162
1152 164
1152 167
1152 168
1152 169
1152 170
1152 175
1152 176
1152 179
1152 180
1152 181
1152 182
1152 184
1152 185
1152 192
1152 193
1152 194
1152 195
1152 197
1152 198
1152 199
1152 200
1152 201
1152 218
1152 224
1152 241
1152 258
1152 271
1152 391
1152 459
1152 500
1152 513
1152 547
1152 553
1152 558
1152 691
1152 692
1152 772
1152 843
1152 907
1152 927
1152 1049
1152 1050
1152 1135
1152 1147
1152 1148
1152 1149
1152 1150
1152 1151
1152 1153
1152 1154
1152 1161
1152 1311
1152 1359
1152 1529
1152 1773
1152 1788
1152 1825
1152 1862
1152 2493
1153 37
1153 195
1153 197
1153 198
1153 200
1153 201
1153 923
1153 924
1153 970
1153 1148
1153 1149
1153 1150
1153 1152
1153 1153
1153 2854
1153 2933
1154 37
1154 195
1154 197
1154 198
1154 200
1154 201
1154 923
1154 924
1154 970
1154 1148
1154 1149
1154 1150
1154 1152
1154 2854
1154 2933
1155 37
1155 201
1155 340
1155 1063
1156 38
1156 49
1156 123
1156 124
1156 125
1156 126
1156 148
1156 164
1156 169
1156 200
1156 201
1156 935
1156 957
1156 1059
1156 2862
1157 38
1157 49
1157 123
1157 124
1157 125
1157 126
1157 148
1157 164
1157 169
1157 200
1157 201
1157 858
1157 916
1157 957
1157 996
1158 39
1158 67
1158 114
1158 197
1158 369
1159 39
1159 67
1159 197
1159 310
1160 39
1160 67
1160 197
1160 455
1160 456
1161 40
1161 56
1161 64
1161 92
1161 127
1161 144
1161 159
1161 192
1161 194
1161 196
1161 201
1161 273
1161 371
1161 392
1161 397
1161 410
1161 431
1161 436
1161 439
1161 443
1161 514
1161 522
1161 565
1161 588
1161 866
1161 879
1161 1152
1161 1172
1161 1225
1161 1264
1161 1307
1161 1323
1161 1344
1161 1374
1161 1470
1161 1491
1161 1502
1161 2003
1161 2169
1161 2313
1161 2343
1161 2391
1161 2432
1162 40
1162 122
1162 144
1162 196
1162 199
1162 200
1162 201
1162 865
1162 867
1162 1436
1162 1664
1162 1826
1162 2604
1162 2751
1163 41
1163 119
1163 121
1163 145
1163 147
1163 154
1163 181
1163 182
1163 184
1163 195
1163 196
1163 197
1163 198
1163 199
1163 200
1163 201
1164 41
1164 119
1164 121
1164 145
1164 147
1164 154
1164 181
1164 182
1164 184
1164 195
1164 196
1164 197
1164 198
1164 199
1164 200
1164 201
1164 1053
1165 41
1165 119
1165 121
1165 145
1165 147
1165 154
1165 174
1165 181
1165 182
1165 184
1165 195
1165 196
1165 197
1165 198
1165 199
1165 200
1165 201
1165 2125
1166 43
1166 119
1166 121
1166 145
1166 147
1166 154
1166 181
1166 182
1166 184
1166 195
1166 196
1166 197
1166 198
1166 199
1166 200
1166 201
1166 370
1166 374
1167 43
1167 58
1167 59
1167 119
1167 121
1167 128
1167 145
1167 147
1167 154
1167 181
1167 182
1167 184
1167 195
1167 196
1167 197
1167 198
1167 199
1167 200
1167 201
1167 341
1167 350
1167 923
1167 965
1167 966
1167 980
1167 983
1167 1011
1167 1043
1167 1044
1167 1079
1167 1095
1167 1182
1167 2485
1167 2520
1167 2574
1167 2701
1167 2878
1167 2949
1167 2994
1167 3031
1167 3047
1167 3147
1167 3226
1167 3410
1168 43
1168 119
1168 121
1168 145
1168 147
1168 154
1168 178
1168 181
1168 182
1168 184
1168 195
1168 196
1168 197
1168 198
1168 199
1168 200
1168 201
1168 1204
1169 43
1169 119
1169 121
1169 145
1169 147
1169 154
1169 181
1169 182
1169 184
1169 195
1169 196
1169 197
1169 198
1169 199
1169 200
1169 201
1170 43
1170 119
1170 121
1170 145
1170 147
1170 154
1170 181
1170 182
1170 184
1170 185
1170 195
1170 196
1170 197
1170 198
1170 199
1170 200
1170 201
1171 44
1171 46
1171 48
1171 154
1171 171
1171 245
1171 967
1171 977
1171 1003
1171 1004
1171 1082
1171 1103
1171 1148
1171 1241
1171 1280
1171 1303
1171 1349
1171 1385
1171 1404
1171 1416
1171 1466
1171 1516
1171 2011
1171 2036
1171 2105
1171 2189
1171 2264
1171 2363
1171 2543
1171 3214
1171 3294
1172 44
1172 93
1172 96
1172 97
1172 98
1172 99
1172 101
1172 106
1172 107
1172 108
1172 110
1172 111
1172 113
1172 115
1172 117
1172 123
1172 124
1172 125
1172 126
1172 127
1172 128
1172 134
1172 135
1172 137
1172 138
1172 144
1172 145
1172 146
1172 147
1172 148
1172 154
1172 157
1172 161
1172 162
1172 164
1172 167
1172 168
1172 169
1172 170
1172 175
1172 176
1172 179
1172 180
1172 181
1172 182
1172 184
1172 185
1172 192
1172 193
1172 194
1172 195
1172 197
1172 198
1172 199
1172 200
1172 201
1172 218
1172 224
1172 241
1172 258
1172 271
1172 304
1172 385
1172 391
1172 459
1172 490
1172 500
1172 513
1172 547
1172 553
1172 558
1172 691
1172 692
1172 772
1172 793
1172 843
1172 907
1172 927
1172 948
1172 1009
1172 1049
1172 1050
1172 1161
1172 1173
1172 1176
1172 1177
1172 1311
1172 1359
1172 1529
1172 1773
1172 1788
1172 1825
1172 1862
1172 2274
1172 2275
1172 2277
1172 2746
1173 44
1173 132
1173 195
1173 197
1173 198
1173 200
1173 201
1173 304
1173 385
1173 690
1173 948
1173 985
1173 999
1173 1009
1173 1172
1173 2274
1173 2520
1173 2521
1173 2936
1174 194
1174 197
1174 198
1174 199
1174 200
1174 201
1174 1503
1174 1505
1174 1515
1174 1516
1174 1517
1174 1518
1174 1519
1174 1521
1174 2696
1174 2697
1174 2698
1174 2699
1174 2700
1174 2701
1174 2702
1175 181
1175 182
1175 184
1175 195
1175 196
1175 197
1175 198
1175 199
1175 200
1175 201
1175 1010
1175 1515
1175 1516
1175 1517
1175 1518
1175 2701
1176 44
1176 195
1176 197
1176 198
1176 200
1176 201
1176 304
1176 385
1176 690
1176 948
1176 985
1176 999
1176 1172
1176 2520
1176 2521
1177 44
1177 195
1177 197
1177 198
1177 200
1177 201
1177 304
1177 385
1177 690
1177 948
1177 985
1177 999
1177 1172
1177 1177
1177 2520
1177 2521
1178 70
1178 201
1178 537
1178 1372
1178 1373
1178 1375
1178 1378
1178 1384
1178 1385
1178 1386
1178 1387
1178 1388
1178 1389
1178 1390
1178 3038
1179 45
1179 119
1179 121
1179 145
1179 147
1179 154
1179 181
1179 182
1179 184
1179 195
1179 196
1179 197
1179 198
1179 199
1179 200
1179 201
1180 45
1180 119
1180 121
1180 145
1180 147
1180 154
1180 181
1180 182
1180 184
1180 195
1180 196
1180 197
1180 198
1180 199
1180 200
1180 201
1180 222
1181 46
1181 198
1181 200
1181 201
1181 231
1181 297
1181 318
1181 346
1181 434
1181 437
1181 602
1181 604
1181 979
1181 1000
1181 1116
1181 1120
1181 1122
1181 1182
1181 1183
1181 1554
1181 2248
1181 2703
1181 2704
1181 2705
1181 2706
1181 2707
1181 2708
1182 46
1182 90
1182 94
1182 102
1182 103
1182 104
1182 105
1182 140
1182 153
1182 155
1182 158
1182 160
1182 162
1182 164
1182 166
1182 173
1182 178
1182 184
1182 189
1182 194
1182 197
1182 198
1182 200
1182 201
1182 231
1182 238
1182 318
1182 346
1182 370
1182 434
1182 449
1182 498
1182 499
1182 528
1182 602
1182 604
1182 979
1182 1000
1182 1116
1182 1117
1182 1120
1182 1122
1182 1167
1182 1181
1182 1183
1182 1393
1182 1549
1182 1554
1182 1555
1182 1960
1182 2248
1182 2703
1182 2704
1182 2705
1182 2706
1182 2707
1182 2708
1183 46
1183 194
1183 197
1183 198
1183 199
1183 200
1183 201
1183 231
1183 318
1183 346
1183 434
1183 1000
1183 1116
1183 1120
1183 1122
1183 1181
1183 1182
1183 1554
1183 2703
1183 2704
1183 2705
1183 2706
1183 2707
1183 2708
1184 47
1184 173
1184 201
1184 531
1184 1187
1184 1798
1184 2677
1185 47
1185 201
1185 407
1185 436
1185 1085
1186 47
1186 166
1186 192
1186 201
1186 782
1186 830
1186 832
1186 835
1186 870
1186 1193
1187 23
1187 24
1187 25
1187 47
1187 201
1187 549
1187 1184
1187 1817
1188 47
1188 201
1188 549
1188 1189
1188 1855
1189 47
1189 201
1189 1188
1189 1189
1189 1855
1190 47
1190 703
1190 704
1190 705
1190 1195
1191 47
1191 200
1191 201
1191 407
1191 436
1191 1073
1191 1192
1191 2749
1191 2937
1191 2938
1192 47
1192 192
1192 200
1192 201
1192 407
1192 436
1192 1191
1192 2749
1192 2937
1193 47
1193 150
1193 171
1193 192
1193 201
1193 531
1193 830
1193 832
1193 835
1193 870
1193 1186
1194 47
1194 87
1194 189
1194 201
1194 245
1194 393
1194 407
1194 436
1194 444
1194 782
1194 830
1194 832
1194 835
1194 1674
1194 2551
1194 2552
1194 2937
1195 47
1195 201
1195 705
1195 1190
1196 47
1196 200
1196 201
1196 531
1196 566
1196 1197
1196 1442
1196 2591
1197 47
1197 200
1197 201
1197 444
1197 566
1197 689
1197 1196
1197 1442
1197 2591
1198 48
1198 181
1198 182
1198 184
1198 195
1198 196
1198 197
1198 198
1198 199
1198 200
1198 201
1198 364
1198 480
1198 997
1198 998
1198 1035
1199 48
1199 169
1199 181
1199 182
1199 184
1199 195
1199 196
1199 197
1199 198
1199 199
1199 200
1199 201
1199 364
1199 480
1199 997
1199 998
1199 1035
1200 48
1200 113
1200 115
1200 128
1200 132
1200 195
1200 197
1200 198
1200 200
1200 201
1200 323
1200 364
1200 430
1200 431
1200 480
1200 997
1200 998
1200 1035
1200 2318
1200 2939
1201 48
1201 181
1201 182
1201 184
1201 195
1201 196
1201 197
1201 198
1201 199
1201 200
1201 201
1201 364
1201 997
1201 998
1201 1035
1202 48
1202 113
1202 115
1202 128
1202 195
1202 197
1202 198
1202 200
1202 201
1202 323
1202 364
1202 430
1202 431
1202 998
1202 1035
1202 1202
1203 49
1203 124
1203 125
1203 126
1203 148
1203 164
1203 169
1203 200
1203 201
1203 521
1204 49
1204 123
1204 124
1204 125
1204 126
1204 148
1204 164
1204 169
1204 200
1204 201
1204 202
1204 1030
1204 1130
1204 1168
1205 49
1205 123
1205 124
1205 125
1205 126
1205 148
1205 164
1205 169
1205 200
1205 201
1205 852
1205 858
1206 49
1206 123
1206 124
1206 125
1206 126
1206 133
1206 148
1206 164
1206 200
1206 201
1206 574
1206 915
1206 958
1206 1030
1206 1126
1206 1128
1206 1614
1207 49
1207 123
1207 124
1207 125
1207 126
1207 148
1207 164
1207 169
1207 200
1207 201
1207 214
1207 941
1207 949
1207 959
1207 1207
1208 50
1208 334
1208 1209
1208 1210
1209 50
1209 201
1209 1208
1209 1214
1209 1216
1209 1222
1209 1225
1209 1228
1209 1234
1209 1235
1209 1236
1209 1618
1209 1841
1209 2833
1209 2859
1209 2940
1210 50
1210 201
1210 334
1210 1208
1210 1234
1211 50
1211 131
1211 137
1211 159
1211 169
1211 187
1211 189
1211 192
1211 195
1211 196
1211 198
1211 199
1211 200
1211 201
1211 502
1211 1222
1211 1223
1211 1224
1211 1233
1211 2941
1211 2942
1212 50
1212 77
1212 194
1212 197
1212 198
1212 200
1212 201
1212 1227
1212 2943
1212 2944
1212 2945
1212 2946
1212 2947
1212 2948
1212 2949
1212 2950
1212 2951
1213 50
1213 73
1213 80
1213 81
1213 83
1213 85
1213 134
1213 135
1213 138
1213 161
1213 174
1213 185
1213 196
1213 199
1213 200
1213 201
1213 224
1213 317
1213 834
1213 946
1213 1233
1213 2942
1213 2952
1213 2953
1213 2954
1213 2955
1213 2956
1213 2957
1213 2958
1214 50
1214 201
1214 491
1214 1209
1214 1216
1214 1222
1214 1223
1214 1224
1214 1226
1214 1228
1214 1229
1214 1230
1214 1231
1214 1232
1214 1233
1214 1234
1214 1235
1214 1236
1214 1238
1214 1239
1214 1240
1214 1241
1214 1242
1214 1243
1214 1244
1214 1245
1214 1618
1214 2833
1214 2859
1214 2959
1214 2960
1214 2961
1215 50
1215 130
1215 142
1215 143
1215 150
1215 160
1215 165
1215 167
1215 168
1215 170
1215 180
1215 187
1215 189
1215 192
1215 200
1215 201
1215 517
1215 1061
1215 2962
1216 50
1216 201
1216 1209
1216 1214
1216 1225
1216 1228
1216 1234
1216 1235
1216 1236
1216 1618
1216 1841
1216 2833
1216 2859
1216 2963
1217 50
1217 174
1217 195
1217 196
1217 197
1217 199
1217 200
1217 201
1217 1226
1217 1240
1217 1241
1217 1242
1217 1243
1217 2946
1217 2949
1217 2964
1217 2965
1217 2966
1217 2967
1217 2968
1217 2969
1217 2970
1218 50
1218 175
1218 176
1218 177
1218 179
1218 200
1218 201
1218 1218
1218 1221
1218 1222
1218 1227
1218 2962
1218 2971
1218 2972
1219 50
1219 129
1219 169
1219 190
1219 199
1219 200
1219 201
1219 2960
1219 2961
1219 2973
1219 2974
1219 2975
1220 50
1220 122
1220 144
1221 50
1221 131
1221 136
1221 156
1221 175
1221 176
1221 177
1221 179
1221 191
1221 197
1221 200
1221 201
1221 1218
1221 1221
1221 1227
1221 2962
1221 2971
1221 2972
1222 50
1222 200
1222 201
1222 1209
1222 1211
1222 1214
1222 1218
1222 1223
1222 1224
1222 1225
1222 2941
1223 50
1223 192
1223 200
1223 201
1223 1211
1223 1214
1223 1222
1223 1224
1223 1225
1224 50
1224 200
1224 201
1224 1211
1224 1214
1224 1222
1224 1223
1224 1225
1224 1226
1224 2941
1225 50
1225 93
1225 96
1225 97
1225 98
1225 99
1225 101
1225 106
1225 107
1225 108
1225 110
1225 111
1225 113
1225 115
1225 117
1225 123
1225 124
1225 125
1225 126
1225 127
1225 128
1225 134
1225 135
1225 137
1225 138
1225 144
1225 145
1225 146
1225 147
1225 148
1225 154
1225 157
1225 161
1225 162
1225 164
1225 167
1225 168
1225 169
1225 170
1225 175
1225 176
1225 179
1225 180
1225 181
1225 182
1225 184
1225 185
1225 192
1225 193
1225 194
1225 195
1225 197
1225 198
1225 199
1225 200
1225 201
1225 218
1225 224
1225 241
1225 258
1225 271
1225 334
1225 391
1225 459
1225 500
1225 513
1225 547
1225 553
1225 558
1225 691
1225 692
1225 772
1225 843
1225 907
1225 927
1225 1049
1225 1050
1225 1161
1225 1209
1225 1216
1225 1222
1225 1223
1225 1224
1225 1226
1225 1228
1225 1229
1225 1230
1225 1231
1225 1232
1225 1233
1225 1234
1225 1235
1225 1236
1225 1239
1225 1240
1225 1241
1225 1242
1225 1243
1225 1244
1225 1245
1225 1311
1225 1359
1225 1529
1225 1618
1225 1773
1225 1788
1225 1825
1225 1862
1225 2833
1225 2859
1225 2960
1225 2961
1226 50
1226 132
1226 195
1226 197
1226 198
1226 200
1226 201
1226 1214
1226 1217
1226 1224
1226 1225
1226 1240
1226 1241
1226 1242
1226 1243
1226 2946
1226 2949
1226 2966
1226 2976
1227 50
1227 198
1227 201
1227 1212
1227 1218
1227 1221
1227 2943
1227 2944
1227 2945
1227 2946
1227 2947
1227 2948
1227 2949
1227 2950
1227 2951
1228 50
1228 201
1228 1209
1228 1214
1228 1216
1228 1225
1228 1234
1228 1235
1228 1236
1228 1618
1228 1841
1228 2833
1228 2859
1229 50
1229 71
1229 149
1229 151
1229 152
1229 159
1229 172
1229 178
1229 187
1229 190
1229 200
1229 201
1229 1214
1229 1225
1229 1230
1229 2960
1229 2973
1229 2975
1230 50
1230 149
1230 151
1230 152
1230 172
1230 178
1230 187
1230 190
1230 200
1230 201
1230 1214
1230 1225
1230 1229
1230 1231
1230 2387
1230 2960
1230 2961
1230 2975
1231 50
1231 149
1231 151
1231 152
1231 172
1231 178
1231 187
1231 190
1231 200
1231 201
1231 1214
1231 1225
1231 1230
1231 2961
1232 50
1232 201
1232 334
1232 1214
1232 1225
1232 1235
1232 2977
1233 50
1233 87
1233 189
1233 201
1233 245
1233 334
1233 1211
1233 1213
1233 1214
1233 1225
1233 1674
1233 2942
1233 2952
1233 2953
1233 2954
1233 2955
1233 2956
1234 50
1234 75
1234 201
1234 1209
1234 1210
1234 1214
1234 1216
1234 1225
1234 1228
1234 1235
1234 1236
1234 1237
1234 1618
1234 1841
1234 1910
1234 2833
1234 2859
1234 2978
1234 2979
1234 2980
1234 2981
1235 50
1235 74
1235 201
1235 1209
1235 1214
1235 1216
1235 1225
1235 1228
1235 1232
1235 1234
1235 1236
1235 1618
1235 1841
1235 2833
1235 2859
1235 2982
1236 50
1236 72
1236 82
1236 155
1236 201
1236 1209
1236 1214
1236 1216
1236 1225
1236 1228
1236 1234
1236 1235
1236 1618
1236 1841
1236 2833
1236 2859
1237 50
1237 201
1237 1234
1237 1864
1237 2981
1238 50
1238 185
1238 199
1238 200
1238 201
1238 1214
1238 1865
1238 2959
1238 2983
1239 50
1239 201
1239 1214
1239 1225
1239 1243
1240 50
1240 195
1240 197
1240 198
1240 200
1240 201
1240 1214
1240 1217
1240 1225
1240 1226
1240 1241
1240 1242
1240 1243
1240 2946
1240 2949
1240 2964
1240 2965
1240 2966
1240 2984
1240 2985
1241 50
1241 91
1241 130
1241 133
1241 140
1241 141
1241 142
1241 143
1241 146
1241 153
1241 158
1241 160
1241 165
1241 167
1241 168
1241 170
1241 173
1241 180
1241 193
1241 195
1241 197
1241 198
1241 200
1241 201
1241 241
1241 251
1241 343
1241 552
1241 1053
1241 1171
1241 1214
1241 1217
1241 1225
1241 1226
1241 1240
1241 1241
1241 1242
1241 1243
1241 1244
1241 1245
1241 2946
1241 2949
1241 2964
1241 2965
1241 2966
1241 2984
1241 2985
1242 50
1242 141
1242 195
1242 197
1242 198
1242 200
1242 201
1242 1214
1242 1217
1242 1225
1242 1226
1242 1240
1242 1241
1242 1243
1242 1244
1242 1245
1242 2946
1242 2949
1242 2964
1242 2965
1242 2966
1242 2984
1242 2985
1243 50
1243 195
1243 197
1243 200
1243 201
1243 1214
1243 1217
1243 1225
1243 1226
1243 1239
1243 1240
1243 1241
1243 1242
1243 1244
1243 1245
1243 2946
1243 2949
1243 2964
1243 2965
1243 2966
1243 2984
1243 2985
1244 50
1244 195
1244 197
1244 198
1244 200
1244 201
1244 1214
1244 1225
1244 1241
1244 1242
1244 1243
1244 1244
1244 2946
1244 2949
1244 2966
1245 50
1245 195
1245 197
1245 198
1245 200
1245 201
1245 1214
1245 1225
1245 1241
1245 1242
1245 1243
1245 2946
1245 2949
1245 2966
1246 51
1246 353
1246 1247
1246 1248
1247 51
1247 201
1247 1246
1247 1253
1247 1255
1247 1261
1247 1264
1247 1267
1247 1273
1247 1274
1247 1275
1247 1619
1247 1843
1247 2834
1247 2860
1247 2986
1248 51
1248 201
1248 353
1248 1246
1248 1273
1249 51
1249 148
1249 159
1249 164
1249 187
1249 189
1249 196
1249 199
1249 200
1249 201
1249 1658
1250 51
1250 131
1250 137
1250 159
1250 169
1250 187
1250 189
1250 192
1250 195
1250 196
1250 198
1250 199
1250 200
1250 201
1250 502
1250 766
1250 1261
1250 1262
1250 1263
1250 1272
1250 2987
1251 51
1251 77
1251 194
1251 197
1251 198
1251 200
1251 201
1251 1266
1251 2988
1251 2989
1251 2990
1251 2991
1251 2992
1251 2993
1251 2994
1251 2995
1251 2996
1252 51
1252 73
1252 80
1252 81
1252 83
1252 85
1252 134
1252 135
1252 138
1252 161
1252 174
1252 185
1252 196
1252 199
1252 200
1252 201
1252 224
1252 317
1252 766
1252 767
1252 834
1252 864
1252 878
1252 893
1252 946
1252 1272
1252 1716
1252 1803
1252 2780
1252 2997
1253 51
1253 201
1253 332
1253 354
1253 491
1253 1247
1253 1255
1253 1261
1253 1262
1253 1263
1253 1265
1253 1267
1253 1268
1253 1269
1253 1270
1253 1271
1253 1272
1253 1273
1253 1274
1253 1275
1253 1277
1253 1278
1253 1279
1253 1280
1253 1281
1253 1282
1253 1283
1253 1284
1253 1619
1253 2834
1253 2860
1253 2998
1254 51
1254 130
1254 142
1254 143
1254 150
1254 160
1254 165
1254 167
1254 168
1254 170
1254 180
1254 187
1254 189
1254 192
1254 200
1254 201
1254 517
1254 1061
1254 2999
1255 51
1255 201
1255 1247
1255 1253
1255 1264
1255 1267
1255 1273
1255 1274
1255 1275
1255 1619
1255 1843
1255 2834
1255 2860
1255 3000
1256 51
1256 174
1256 195
1256 196
1256 197
1256 199
1256 200
1256 201
1256 1265
1256 1279
1256 1280
1256 1281
1256 1282
1256 2991
1256 2994
1256 3001
1256 3002
1256 3003
1256 3004
1256 3005
1256 3006
1256 3007
1257 51
1257 175
1257 176
1257 177
1257 179
1257 200
1257 201
1257 1257
1257 1259
1257 1261
1257 1266
1257 2999
1257 3008
1257 3009
1258 51
1258 129
1258 169
1258 190
1258 199
1258 200
1258 201
1258 332
1258 336
1258 354
1258 1641
1258 2384
1259 51
1259 131
1259 136
1259 156
1259 175
1259 176
1259 177
1259 179
1259 191
1259 197
1259 200
1259 201
1259 1257
1259 1259
1259 1266
1259 2999
1259 3008
1259 3009
1260 51
1260 64
1260 146
1260 201
1260 323
1260 522
1260 523
1260 774
1260 779
1260 796
1260 831
1260 836
1260 1658
1260 1844
1260 2794
1261 51
1261 200
1261 201
1261 1247
1261 1250
1261 1253
1261 1257
1261 1262
1261 1263
1261 1264
1261 2987
1262 51
1262 192
1262 200
1262 201
1262 1250
1262 1253
1262 1261
1262 1263
1262 1264
1263 51
1263 200
1263 201
1263 1250
1263 1253
1263 1261
1263 1262
1263 1264
1263 1265
1263 2987
1264 51
1264 93
1264 96
1264 97
1264 98
1264 99
1264 101
1264 106
1264 107
1264 108
1264 110
1264 111
1264 113
1264 115
1264 117
1264 123
1264 124
1264 125
1264 126
1264 127
1264 128
1264 134
1264 135
1264 137
1264 138
1264 144
1264 145
1264 146
1264 147
1264 148
1264 154
1264 157
1264 161
1264 162
1264 164
1264 167
1264 168
1264 169
1264 170
1264 175
1264 176
1264 179
1264 180
1264 181
1264 182
1264 184
1264 185
1264 192
1264 193
1264 194
1264 195
1264 197
1264 198
1264 199
1264 200
1264 201
1264 218
1264 224
1264 241
1264 258
1264 271
1264 332
1264 353
1264 354
1264 391
1264 459
1264 500
1264 513
1264 547
1264 553
1264 558
1264 691
1264 692
1264 772
1264 843
1264 907
1264 927
1264 1049
1264 1050
1264 1161
1264 1247
1264 1255
1264 1261
1264 1262
1264 1263
1264 1265
1264 1267
1264 1268
1264 1269
1264 1270
1264 1271
1264 1272
1264 1273
1264 1274
1264 1275
1264 1278
1264 1279
1264 1280
1264 1281
1264 1282
1264 1283
1264 1284
1264 1311
1264 1359
1264 1529
1264 1619
1264 1773
1264 1788
1264 1825
1264 1862
1264 2834
1264 2860
1265 51
1265 132
1265 195
1265 197
1265 198
1265 200
1265 201
1265 1253
1265 1256
1265 1263
1265 1264
1265 1279
1265 1280
1265 1281
1265 1282
1265 2991
1265 2994
1265 3003
1265 3010
1266 51
1266 198
1266 201
1266 1251
1266 1257
1266 1259
1266 2988
1266 2989
1266 2990
1266 2991
1266 2992
1266 2993
1266 2994
1266 2995
1266 2996
1267 51
1267 201
1267 1247
1267 1253
1267 1255
1267 1264
1267 1273
1267 1274
1267 1275
1267 1619
1267 1843
1267 2834
1267 2860
1268 51
1268 71
1268 149
1268 151
1268 152
1268 159
1268 172
1268 178
1268 187
1268 190
1268 200
1268 201
1268 336
1268 354
1268 1253
1268 1264
1268 1269
1268 1641
1269 51
1269 149
1269 151
1269 152
1269 172
1269 178
1269 187
1269 190
1269 200
1269 201
1269 332
1269 336
1269 354
1269 1253
1269 1264
1269 1268
1269 1270
1269 2444
1270 51
1270 149
1270 151
1270 152
1270 172
1270 178
1270 187
1270 190
1270 200
1270 201
1270 332
1270 1253
1270 1264
1270 1269
1271 51
1271 201
1271 353
1271 1253
1271 1264
1271 1274
1271 3011
1272 51
1272 87
1272 189
1272 201
1272 245
1272 353
1272 766
1272 767
1272 864
1272 878
1272 893
1272 1250
1272 1252
1272 1253
1272 1264
1272 1674
1272 1803
1272 2780
1273 51
1273 75
1273 201
1273 1247
1273 1248
1273 1253
1273 1255
1273 1264
1273 1267
1273 1274
1273 1275
1273 1276
1273 1619
1273 1843
1273 1905
1273 1914
1273 2834
1273 2860
1273 3012
1273 3013
1273 3014
1274 51
1274 74
1274 201
1274 1247
1274 1253
1274 1255
1274 1264
1274 1267
1274 1271
1274 1273
1274 1275
1274 1619
1274 1843
1274 2834
1274 2860
1274 3015
1275 51
1275 72
1275 82
1275 155
1275 201
1275 1247
1275 1253
1275 1255
1275 1264
1275 1267
1275 1273
1275 1274
1275 1619
1275 1843
1275 2834
1275 2860
1276 51
1276 201
1276 1273
1276 1869
1276 1905
1277 51
1277 185
1277 199
1277 200
1277 201
1277 1253
1277 1870
1277 2998
1277 3016
1278 51
1278 201
1278 1253
1278 1264
1278 1282
1279 51
1279 195
1279 197
1279 198
1279 200
1279 201
1279 1253
1279 1256
1279 1264
1279 1265
1279 1280
1279 1281
1279 1282
1279 2991
1279 2994
1279 3001
1279 3002
1279 3003
1279 3017
1279 3018
1280 51
1280 91
1280 130
1280 133
1280 140
1280 141
1280 142
1280 143
1280 146
1280 153
1280 158
1280 160
1280 165
1280 167
1280 168
1280 170
1280 173
1280 180
1280 193
1280 195
1280 197
1280 198
1280 200
1280 201
1280 241
1280 251
1280 343
1280 552
1280 1053
1280 1171
1280 1253
1280 1256
1280 1264
1280 1265
1280 1279
1280 1280
1280 1281
1280 1282
1280 1283
1280 1284
1280 2991
1280 2994
1280 3001
1280 3002
1280 3003
1280 3017
1280 3018
1281 51
1281 141
1281 195
1281 197
1281 198
1281 200
1281 201
1281 1253
1281 1256
1281 1264
1281 1265
1281 1279
1281 1280
1281 1282
1281 1283
1281 1284
1281 2991
1281 2994
1281 3001
1281 3002
1281 3003
1281 3017
1281 3018
1282 51
1282 195
1282 197
1282 200
1282 201
1282 1253
1282 1256
1282 1264
1282 1265
1282 1278
1282 1279
1282 1280
1282 1281
1282 1283
1282 1284
1282 2991
1282 2994
1282 3001
1282 3002
1282 3003
1282 3017
1282 3018
1283 51
1283 195
1283 197
1283 198
1283 200
1283 201
1283 1253
1283 1264
1283 1280
1283 1281
1283 1282
1283 1283
1283 2991
1283 2994
1283 3003
1284 51
1284 195
1284 197
1284 198
1284 200
1284 201
1284 1253
1284 1264
1284 1280
1284 1281
1284 1282
1284 2991
1284 2994
1284 3003
1285 52
1285 192
1285 201
1285 559
1285 594
1285 1286
1285 1287
1285 1290
1285 1296
1285 1297
1285 1298
1285 1299
1285 1301
1285 2685
1286 52
1286 174
1286 201
1286 525
1286 1285
1286 1288
1286 1295
1287 52
1287 201
1287 559
1287 628
1287 1285
1287 1290
1287 1296
1287 1297
1287 1298
1287 1299
1287 1301
1287 2685
1288 52
1288 150
1288 165
1288 201
1288 525
1288 1286
1288 1295
1288 2826
1289 52
1289 201
1289 971
1289 1305
1289 1307
1290 52
1290 201
1290 559
1290 1285
1290 1287
1290 1296
1290 1297
1290 1298
1290 1299
1290 1301
1290 2685
1291 52
1291 424
1291 429
1291 940
1291 944
1291 955
1291 964
1291 966
1291 971
1291 974
1291 976
1291 984
1291 1291
1291 1292
1291 1784
1292 52
1292 173
1292 424
1292 429
1292 626
1292 940
1292 944
1292 955
1292 964
1292 966
1292 971
1292 974
1292 976
1292 984
1292 1291
1292 1784
1293 52
1293 201
1293 389
1293 424
1293 429
1293 984
1294 52
1294 201
1294 526
1294 558
1294 559
1294 626
1294 628
1295 52
1295 174
1295 201
1295 525
1295 1286
1295 1288
1295 2826
1296 52
1296 201
1296 559
1296 1285
1296 1287
1296 1290
1296 1297
1296 1298
1296 1299
1296 2685
1296 3019
1297 52
1297 201
1297 559
1297 1285
1297 1287
1297 1290
1297 1296
1297 1297
1297 1298
1297 1299
1297 2685
1297 3020
1298 52
1298 82
1298 201
1298 559
1298 1285
1298 1287
1298 1290
1298 1296
1298 1297
1298 1299
1298 2685
1298 3021
1299 52
1299 201
1299 559
1299 1285
1299 1287
1299 1290
1299 1296
1299 1297
1299 1298
1299 2685
1300 52
1300 185
1300 199
1300 200
1300 201
1300 971
1300 1871
1300 2871
1300 3022
1301 52
1301 201
1301 559
1301 1285
1301 1287
1301 1290
1301 1301
1301 2685
1302 52
1302 195
1302 197
1302 198
1302 200
1302 201
1302 964
1302 966
1302 968
1302 971
1302 1303
1302 1304
1302 1305
1302 1306
1302 1307
1302 2867
1302 2868
1302 2870
1302 3023
1302 3024
1303 52
1303 91
1303 130
1303 133
1303 140
1303 141
1303 142
1303 143
1303 146
1303 153
1303 158
1303 160
1303 165
1303 167
1303 168
1303 170
1303 173
1303 180
1303 193
1303 195
1303 197
1303 198
1303 200
1303 201
1303 241
1303 251
1303 343
1303 552
1303 964
1303 966
1303 968
1303 971
1303 1053
1303 1171
1303 1302
1303 1303
1303 1304
1303 1305
1303 1306
1303 1307
1303 1308
1303 1309
1303 2867
1303 2868
1303 2870
1303 3023
1303 3024
1304 52
1304 141
1304 195
1304 197
1304 198
1304 200
1304 201
1304 964
1304 966
1304 968
1304 971
1304 1302
1304 1303
1304 1305
1304 1306
1304 1307
1304 1308
1304 1309
1304 2867
1304 2868
1304 2870
1304 3023
1304 3024
1305 52
1305 195
1305 197
1305 200
1305 201
1305 964
1305 966
1305 968
1305 971
1305 1289
1305 1302
1305 1303
1305 1304
1305 1306
1305 1307
1305 1308
1305 1309
1305 2867
1305 2868
1305 2870
1305 3023
1305 3024
1306 52
1306 132
1306 195
1306 197
1306 198
1306 200
1306 201
1306 964
1306 966
1306 968
1306 971
1306 1302
1306 1303
1306 1304
1306 1305
1306 1307
1306 2867
1306 2868
1306 3025
1307 52
1307 93
1307 96
1307 97
1307 98
1307 99
1307 101
1307 106
1307 107
1307 108
1307 110
1307 111
1307 113
1307 115
1307 117
1307 123
1307 124
1307 125
1307 126
1307 127
1307 128
1307 134
1307 135
1307 137
1307 138
1307 144
1307 145
1307 146
1307 147
1307 148
1307 154
1307 157
1307 161
1307 162
1307 164
1307 167
1307 168
1307 169
1307 170
1307 175
1307 176
1307 179
1307 180
1307 181
1307 182
1307 184
1307 185
1307 192
1307 193
1307 194
1307 195
1307 197
1307 198
1307 199
1307 200
1307 201
1307 218
1307 224
1307 241
1307 258
1307 271
1307 391
1307 459
1307 500
1307 513
1307 547
1307 553
1307 558
1307 691
1307 692
1307 772
1307 843
1307 907
1307 927
1307 984
1307 1049
1307 1050
1307 1161
1307 1289
1307 1302
1307 1303
1307 1304
1307 1305
1307 1306
1307 1308
1307 1309
1307 1311
1307 1359
1307 1529
1307 1773
1307 1788
1307 1825
1307 1862
1308 52
1308 195
1308 197
1308 198
1308 200
1308 201
1308 964
1308 966
1308 968
1308 971
1308 1303
1308 1304
1308 1305
1308 1307
1308 1308
1308 2868
1309 52
1309 195
1309 197
1309 198
1309 200
1309 201
1309 964
1309 966
1309 968
1309 971
1309 1303
1309 1304
1309 1305
1309 1307
1309 2868
1310 52
1310 157
1310 201
1310 595
1310 627
1310 628
1310 740
1310 874
1311 53
1311 56
1311 64
1311 92
1311 159
1311 192
1311 196
1311 201
1311 273
1311 371
1311 392
1311 397
1311 410
1311 431
1311 436
1311 439
1311 443
1311 522
1311 565
1311 588
1311 688
1311 879
1311 1152
1311 1172
1311 1225
1311 1264
1311 1307
1311 1323
1311 1344
1311 1374
1311 1470
1311 1491
1311 1502
1311 2003
1311 2169
1311 2313
1311 2343
1311 2391
1311 2432
1312 53
1312 201
1312 477
1312 485
1312 488
1312 764
1312 1314
1313 53
1313 201
1313 485
1313 3026
1314 53
1314 201
1314 477
1314 485
1314 764
1314 1312
1315 53
1316 53
1316 303
1316 350
1316 485
1316 487
1316 686
1316 687
1316 963
1316 1317
1316 2438
1316 2439
1316 2440
1316 2441
1316 2442
1316 2443
1317 53
1317 173
1317 303
1317 350
1317 485
1317 487
1317 686
1317 687
1317 725
1317 963
1317 1316
1317 2438
1317 2439
1317 2440
1317 2441
1317 2442
1317 2443
1318 53
1318 64
1318 177
1318 201
1318 303
1318 681
1318 682
1318 868
1318 1892
1319 1
1319 53
1319 85
1319 201
1319 489
1319 683
1319 684
1320 53
1320 201
1320 257
1320 262
1320 284
1320 488
1320 658
1320 669
1320 685
1320 873
1320 2629
1321 53
1321 201
1321 303
1322 53
1322 201
1322 488
1322 658
1322 661
1322 669
1322 685
1322 1322
1323 53
1323 93
1323 96
1323 97
1323 98
1323 99
1323 101
1323 106
1323 107
1323 108
1323 110
1323 111
1323 113
1323 115
1323 117
1323 123
1323 124
1323 125
1323 126
1323 127
1323 128
1323 134
1323 135
1323 137
1323 138
1323 144
1323 145
1323 146
1323 147
1323 148
1323 154
1323 157
1323 161
1323 162
1323 164
1323 167
1323 168
1323 169
1323 170
1323 175
1323 176
1323 179
1323 180
1323 181
1323 182
1323 184
1323 185
1323 192
1323 193
1323 194
1323 195
1323 197
1323 198
1323 199
1323 200
1323 201
1323 218
1323 224
1323 233
1323 241
1323 258
1323 271
1323 351
1323 352
1323 391
1323 459
1323 485
1323 500
1323 513
1323 547
1323 553
1323 558
1323 691
1323 692
1323 772
1323 843
1323 907
1323 927
1323 1049
1323 1050
1323 1102
1323 1103
1323 1104
1323 1105
1323 1107
1323 1161
1323 1311
1323 1324
1323 1325
1323 1359
1323 1529
1323 1773
1323 1788
1323 1825
1323 1862
1324 53
1324 201
1324 303
1324 1105
1324 1323
1325 29
1325 53
1325 195
1325 197
1325 198
1325 200
1325 201
1325 303
1325 350
1325 963
1325 1103
1325 1104
1325 1105
1325 1323
1325 1963
1326 54
1326 201
1326 462
1326 1335
1326 1567
1326 3036
1327 54
1327 201
1327 580
1327 584
1327 654
1327 1342
1327 1343
1327 1344
1328 54
1328 109
1328 201
1328 533
1328 1329
1328 1336
1328 1396
1328 1569
1328 1721
1328 3027
1328 3028
1328 3029
1328 3030
1328 3031
1328 3032
1328 3033
1328 3034
1329 28
1329 54
1329 109
1329 533
1329 1328
1329 1336
1329 1351
1329 1569
1329 1721
1330 54
1330 175
1330 176
1330 177
1330 179
1330 200
1330 201
1330 331
1330 800
1330 1330
1330 1332
1330 1742
1331 54
1331 109
1331 3035
1332 54
1332 131
1332 136
1332 138
1332 156
1332 175
1332 176
1332 177
1332 179
1332 191
1332 200
1332 201
1332 331
1332 800
1332 1330
1332 1332
1332 1742
1333 54
1333 201
1333 1334
1333 1335
1334 54
1334 201
1334 462
1334 1333
1334 1335
1334 1338
1334 1339
1334 3036
1335 23
1335 24
1335 25
1335 54
1335 201
1335 1326
1335 1333
1335 1334
1336 54
1336 109
1336 533
1336 1328
1336 1329
1336 1396
1336 1569
1336 1721
1336 3027
1336 3028
1336 3029
1336 3030
1336 3031
1336 3032
1336 3033
1336 3034
1337 54
1337 165
1337 201
1337 790
1337 795
1337 1339
1337 1646
1338 54
1338 201
1338 1334
1338 1347
1338 1851
1339 54
1339 201
1339 790
1339 795
1339 1334
1339 1337
1339 1340
1339 1341
1339 1646
1340 54
1340 109
1340 185
1340 192
1340 569
1340 580
1340 654
1340 659
1340 790
1340 798
1340 1339
1340 1341
1340 1346
1340 2689
1341 54
1341 109
1341 171
1341 185
1341 192
1341 569
1341 580
1341 654
1341 659
1341 790
1341 798
1341 1339
1341 1340
1341 1346
1341 2689
1342 54
1342 201
1342 580
1342 584
1342 654
1342 1327
1342 1343
1342 1344
1342 1396
1342 2690
1343 54
1343 109
1343 430
1343 798
1343 1327
1343 1342
1343 1348
1343 1349
1343 1350
1343 1351
1343 1352
1343 1353
1343 1354
1343 3037
1344 54
1344 93
1344 96
1344 97
1344 98
1344 99
1344 101
1344 106
1344 107
1344 108
1344 109
1344 110
1344 111
1344 113
1344 115
1344 117
1344 123
1344 124
1344 125
1344 126
1344 127
1344 128
1344 134
1344 135
1344 137
1344 138
1344 144
1344 145
1344 146
1344 147
1344 148
1344 154
1344 157
1344 161
1344 162
1344 164
1344 167
1344 168
1344 169
1344 170
1344 175
1344 176
1344 179
1344 180
1344 181
1344 182
1344 184
1344 185
1344 192
1344 193
1344 194
1344 195
1344 197
1344 198
1344 199
1344 200
1344 201
1344 218
1344 224
1344 241
1344 258
1344 271
1344 391
1344 459
1344 500
1344 513
1344 547
1344 553
1344 558
1344 691
1344 692
1344 772
1344 798
1344 843
1344 907
1344 927
1344 1049
1344 1050
1344 1161
1344 1311
1344 1327
1344 1342
1344 1348
1344 1349
1344 1350
1344 1351
1344 1352
1344 1353
1344 1354
1344 1359
1344 1529
1344 1773
1344 1788
1344 1825
1344 1862
1345 54
1345 109
1345 200
1345 654
1345 739
1345 802
1345 804
1345 805
1345 806
1346 54
1346 109
1346 171
1346 185
1346 580
1346 654
1346 659
1346 1340
1346 1341
1347 54
1347 201
1347 1338
1347 1347
1347 1851
1348 54
1348 195
1348 197
1348 198
1348 200
1348 201
1348 533
1348 1343
1348 1344
1348 1349
1348 1350
1348 1351
1348 1396
1348 2653
1348 2654
1348 3031
1348 3033
1349 54
1349 91
1349 130
1349 133
1349 140
1349 141
1349 142
1349 143
1349 146
1349 153
1349 158
1349 160
1349 165
1349 167
1349 168
1349 170
1349 173
1349 180
1349 193
1349 195
1349 197
1349 198
1349 200
1349 201
1349 241
1349 251
1349 343
1349 533
1349 552
1349 1053
1349 1171
1349 1343
1349 1344
1349 1348
1349 1349
1349 1350
1349 1351
1349 1352
1349 1354
1349 1396
1349 2653
1349 2654
1349 3031
1349 3033
1350 54
1350 141
1350 195
1350 197
1350 198
1350 200
1350 201
1350 533
1350 1343
1350 1344
1350 1348
1350 1349
1350 1351
1350 1352
1350 1354
1350 1396
1350 2653
1350 2654
1350 3031
1350 3033
1351 54
1351 195
1351 197
1351 200
1351 201
1351 533
1351 1329
1351 1343
1351 1344
1351 1348
1351 1349
1351 1350
1351 1352
1351 1353
1351 1354
1351 1396
1351 2653
1351 2654
1351 3031
1351 3033
1352 54
1352 195
1352 197
1352 198
1352 200
1352 201
1352 533
1352 1343
1352 1344
1352 1349
1352 1350
1352 1351
1352 1352
1352 1396
1352 3031
1352 3033
1353 54
1353 201
1353 1343
1353 1344
1353 1351
1354 54
1354 195
1354 197
1354 198
1354 200
1354 201
1354 533
1354 1343
1354 1344
1354 1349
1354 1350
1354 1351
1354 1396
1354 3031
1354 3033
1355 54
1355 109
1355 201
1355 462
1355 603
1355 739
1355 802
1355 804
1355 805
1355 806
1356 54
1356 109
1356 144
1356 189
1356 603
1356 739
1356 802
1356 804
1356 805
1356 806
1356 807
1357 56
1357 159
1357 192
1357 201
1357 253
1357 254
1357 273
1357 522
1357 565
1358 56
1358 201
1358 320
1358 323
1358 426
1358 430
1358 431
1358 1360
1359 56
1359 64
1359 92
1359 159
1359 192
1359 196
1359 201
1359 273
1359 371
1359 392
1359 397
1359 410
1359 431
1359 436
1359 439
1359 443
1359 522
1359 565
1359 588
1359 879
1359 1152
1359 1172
1359 1225
1359 1264
1359 1307
1359 1323
1359 1344
1359 1374
1359 1470
1359 1491
1359 1502
1359 2003
1359 2169
1359 2313
1359 2343
1359 2391
1359 2432
1360 56
1360 113
1360 186
1360 201
1360 320
1360 323
1360 426
1360 430
1360 431
1360 1358
1361 56
1361 122
1361 146
1361 159
1361 192
1361 201
1361 273
1361 522
1361 565
1361 603
1361 866
1361 881
1362 56
1362 120
1362 150
1362 166
1362 171
1362 180
1362 323
1362 445
1362 624
1362 834
1362 840
1362 841
1362 842
1363 56
1363 120
1363 150
1363 166
1363 171
1363 180
1363 323
1363 834
1363 840
1363 841
1363 842
1364 56
1364 192
1364 196
1364 200
1364 201
1364 323
1364 426
1364 430
1364 1846
1364 1901
1365 57
1365 190
1365 200
1365 201
1365 542
1365 673
1365 2779
1366 57
1366 201
1366 761
1366 1368
1366 1379
1366 1380
1366 1381
1366 1382
1366 1383
1366 2682
1366 2744
1367 57
1367 166
1367 174
1367 201
1367 732
1367 1369
1367 1376
1367 1377
1367 1688
1367 1806
1368 57
1368 201
1368 761
1368 762
1368 1366
1368 1379
1368 1380
1368 1381
1368 1382
1368 1383
1368 2682
1368 2744
1369 57
1369 201
1369 732
1369 761
1369 903
1369 1367
1369 1376
1369 1377
1369 1688
1370 57
1370 177
1370 179
1370 201
1370 1371
1370 1391
1370 3038
1370 3039
1371 57
1371 1370
1371 1391
1371 3039
1372 57
1372 200
1372 201
1372 1178
1372 1373
1372 1374
1372 1375
1372 2799
1372 3038
1372 3040
1373 57
1373 192
1373 200
1373 201
1373 1178
1373 1372
1373 1374
1373 2799
1373 3038
1374 57
1374 93
1374 96
1374 97
1374 98
1374 99
1374 101
1374 106
1374 107
1374 108
1374 110
1374 111
1374 113
1374 115
1374 117
1374 123
1374 124
1374 125
1374 126
1374 127
1374 128
1374 134
1374 135
1374 137
1374 138
1374 144
1374 145
1374 146
1374 147
1374 148
1374 154
1374 157
1374 161
1374 162
1374 164
1374 167
1374 168
1374 169
1374 170
1374 175
1374 176
1374 179
1374 180
1374 181
1374 182
1374 184
1374 185
1374 192
1374 193
1374 194
1374 195
1374 197
1374 198
1374 199
1374 200
1374 201
1374 218
1374 224
1374 241
1374 258
1374 271
1374 391
1374 459
1374 500
1374 513
1374 547
1374 553
1374 558
1374 691
1374 692
1374 762
1374 772
1374 843
1374 907
1374 927
1374 1049
1374 1050
1374 1161
1374 1311
1374 1359
1374 1372
1374 1373
1374 1375
1374 1378
1374 1384
1374 1385
1374 1386
1374 1387
1374 1388
1374 1389
1374 1390
1374 1529
1374 1773
1374 1788
1374 1825
1374 1862
1374 3038
1375 57
1375 132
1375 195
1375 197
1375 198
1375 200
1375 201
1375 982
1375 1089
1375 1095
1375 1178
1375 1372
1375 1374
1375 1384
1375 1385
1375 1386
1375 1387
1375 2921
1375 3041
1376 57
1376 201
1376 732
1376 762
1376 817
1376 820
1376 1367
1376 1369
1376 1376
1376 1377
1376 1378
1376 1688
1376 1772
1376 1806
1377 57
1377 165
1377 171
1377 201
1377 732
1377 762
1377 817
1377 820
1377 1367
1377 1369
1377 1376
1377 1378
1377 1688
1377 1772
1377 1806
1378 57
1378 87
1378 189
1378 201
1378 245
1378 762
1378 817
1378 820
1378 903
1378 1178
1378 1374
1378 1376
1378 1377
1378 1674
1378 1772
1378 1806
1378 2799
1379 57
1379 201
1379 761
1379 1366
1379 1368
1379 1380
1379 1381
1379 1382
1379 2682
1379 2744
1379 3042
1380 57
1380 201
1380 761
1380 1366
1380 1368
1380 1379
1380 1380
1380 1381
1380 1382
1380 2682
1380 2744
1380 3043
1381 57
1381 82
1381 201
1381 761
1381 1366
1381 1368
1381 1379
1381 1380
1381 1382
1381 2682
1381 2744
1381 3044
1382 57
1382 201
1382 761
1382 1366
1382 1368
1382 1379
1382 1380
1382 1381
1382 2682
1382 2744
1383 57
1383 201
1383 761
1383 762
1383 1366
1383 1368
1383 1383
1383 2682
1383 2744
1384 57
1384 195
1384 197
1384 198
1384 200
1384 201
1384 982
1384 1089
1384 1095
1384 1178
1384 1374
1384 1375
1384 1385
1384 1386
1384 1387
1384 2875
1384 2876
1384 2921
1385 57
1385 91
1385 130
1385 133
1385 140
1385 141
1385 142
1385 143
1385 146
1385 153
1385 158
1385 160
1385 165
1385 167
1385 168
1385 170
1385 173
1385 180
1385 193
1385 195
1385 197
1385 198
1385 200
1385 201
1385 241
1385 251
1385 343
1385 552
1385 982
1385 1053
1385 1089
1385 1095
1385 1171
1385 1178
1385 1374
1385 1375
1385 1384
1385 1385
1385 1386
1385 1387
1385 1388
1385 1390
1385 2875
1385 2876
1385 2921
1386 57
1386 141
1386 195
1386 197
1386 198
1386 200
1386 201
1386 982
1386 1089
1386 1095
1386 1178
1386 1374
1386 1375
1386 1384
1386 1385
1386 1387
1386 1388
1386 1390
1386 2875
1386 2876
1386 2921
1387 57
1387 195
1387 197
1387 200
1387 201
1387 666
1387 982
1387 1089
1387 1095
1387 1178
1387 1374
1387 1375
1387 1384
1387 1385
1387 1386
1387 1388
1387 1389
1387 1390
1387 2875
1387 2876
1387 2921
1388 57
1388 195
1388 197
1388 198
1388 200
1388 201
1388 982
1388 1089
1388 1095
1388 1178
1388 1374
1388 1385
1388 1386
1388 1387
1388 1388
1388 2921
1389 57
1389 201
1389 1178
1389 1374
1389 1387
1390 57
1390 195
1390 197
1390 198
1390 200
1390 201
1390 982
1390 1089
1390 1095
1390 1178
1390 1374
1390 1385
1390 1386
1390 1387
1390 2921
1391 57
1391 177
1391 179
1391 201
1391 1370
1391 1371
1391 1392
1391 3039
1391 3045
1392 57
1392 201
1392 1391
1393 58
1393 59
1393 128
1393 182
1393 199
1393 200
1393 201
1393 323
1393 341
1393 350
1393 500
1393 923
1393 965
1393 966
1393 980
1393 983
1393 1011
1393 1043
1393 1044
1393 1079
1393 1095
1393 1182
1393 2485
1393 2520
1393 2574
1393 2701
1393 2878
1393 2949
1393 2994
1393 3031
1393 3047
1393 3147
1393 3226
1393 3410
1394 58
1394 194
1394 197
1394 198
1394 200
1394 201
1394 1394
1394 1395
1394 1397
1394 1398
1394 1399
1394 1401
1394 1402
1394 1531
1394 1774
1394 1789
1394 2735
1395 58
1395 194
1395 197
1395 198
1395 199
1395 200
1395 201
1395 629
1395 1394
1395 1397
1395 1398
1395 1399
1395 1401
1395 1402
1395 1531
1395 1774
1395 1789
1395 2735
1396 194
1396 197
1396 198
1396 200
1396 201
1396 1328
1396 1336
1396 1342
1396 1348
1396 1349
1396 1350
1396 1351
1396 1352
1396 1354
1396 1721
1396 3027
1396 3028
1396 3029
1396 3030
1396 3031
1396 3032
1396 3033
1396 3034
1397 58
1397 129
1397 139
1397 172
1397 173
1397 178
1397 189
1397 191
1397 194
1397 197
1397 198
1397 200
1397 201
1397 883
1397 1394
1397 1395
1397 1398
1397 1399
1397 1401
1397 1402
1397 1531
1397 1774
1397 1789
1397 2735
1398 58
1398 170
1398 194
1398 197
1398 198
1398 200
1398 201
1398 1394
1398 1395
1398 1397
1398 1399
1398 1401
1398 1402
1398 1531
1398 1774
1398 1789
1398 2735
1399 58
1399 194
1399 197
1399 198
1399 200
1399 201
1399 1394
1399 1395
1399 1397
1399 1398
1399 1401
1399 1402
1399 1403
1399 1404
1399 1405
1399 1406
1399 1407
1399 1408
1399 1531
1399 1774
1399 1789
1399 2735
1400 58
1400 181
1400 182
1400 184
1400 195
1400 196
1400 197
1400 198
1400 199
1400 200
1400 201
1400 548
1400 1403
1400 1404
1400 1405
1400 1406
1401 58
1401 173
1401 201
1401 307
1401 548
1401 1099
1401 1394
1401 1395
1401 1397
1401 1398
1401 1399
1401 1402
1401 1531
1401 1774
1401 1789
1401 2292
1401 2735
1402 58
1402 201
1402 307
1402 548
1402 1099
1402 1394
1402 1395
1402 1397
1402 1398
1402 1399
1402 1401
1402 1531
1402 1774
1402 1789
1402 2292
1402 2735
1403 58
1403 195
1403 197
1403 198
1403 200
1403 201
1403 307
1403 395
1403 548
1403 588
1403 1399
1403 1400
1403 1404
1403 1405
1403 1406
1403 2675
1403 2735
1404 58
1404 91
1404 130
1404 133
1404 140
1404 141
1404 142
1404 143
1404 146
1404 153
1404 158
1404 160
1404 165
1404 167
1404 168
1404 170
1404 173
1404 180
1404 193
1404 195
1404 197
1404 198
1404 200
1404 201
1404 241
1404 251
1404 307
1404 343
1404 395
1404 548
1404 552
1404 588
1404 1053
1404 1171
1404 1399
1404 1400
1404 1403
1404 1404
1404 1405
1404 1406
1404 1407
1404 1408
1404 2675
1404 2735
1405 58
1405 141
1405 195
1405 197
1405 198
1405 200
1405 201
1405 307
1405 395
1405 548
1405 588
1405 1399
1405 1400
1405 1403
1405 1404
1405 1406
1405 1407
1405 1408
1405 2675
1405 2735
1406 58
1406 195
1406 197
1406 200
1406 201
1406 307
1406 395
1406 548
1406 588
1406 1099
1406 1399
1406 1400
1406 1403
1406 1404
1406 1405
1406 1407
1406 1408
1406 2293
1406 2675
1406 2735
1407 58
1407 195
1407 197
1407 198
1407 200
1407 201
1407 307
1407 395
1407 548
1407 588
1407 1399
1407 1404
1407 1405
1407 1406
1407 1407
1407 2735
1408 58
1408 195
1408 197
1408 198
1408 200
1408 201
1408 307
1408 395
1408 548
1408 588
1408 1399
1408 1404
1408 1405
1408 1406
1408 2735
1409 59
1409 194
1409 197
1409 198
1409 199
1409 200
1409 201
1409 629
1409 1046
1409 1052
1409 1410
1409 1411
1409 1412
1409 1413
1409 1638
1409 1782
1409 1801
1409 2092
1410 59
1410 100
1410 114
1410 139
1410 147
1410 172
1410 173
1410 178
1410 198
1410 200
1410 201
1410 315
1410 938
1410 1046
1410 1052
1410 1409
1410 1411
1410 1412
1410 1413
1410 1638
1410 1782
1410 1801
1410 2092
1411 59
1411 194
1411 197
1411 198
1411 200
1411 201
1411 1046
1411 1052
1411 1409
1411 1410
1411 1411
1411 1412
1411 1413
1411 1638
1411 1782
1411 1801
1411 2092
1412 59
1412 129
1412 139
1412 172
1412 173
1412 178
1412 189
1412 191
1412 194
1412 197
1412 198
1412 200
1412 201
1412 883
1412 1046
1412 1052
1412 1409
1412 1410
1412 1411
1412 1413
1412 1638
1412 1782
1412 1801
1412 2092
1413 59
1413 170
1413 194
1413 197
1413 198
1413 200
1413 201
1413 1046
1413 1052
1413 1409
1413 1410
1413 1411
1413 1412
1413 1638
1413 1782
1413 1801
1413 2092
1414 59
1414 181
1414 182
1414 184
1414 195
1414 196
1414 197
1414 198
1414 199
1414 200
1414 201
1414 1418
1414 2104
1414 2105
1414 2106
1414 2107
1415 195
1415 197
1415 198
1415 200
1415 201
1415 270
1415 447
1415 879
1415 1416
1415 1417
1415 1419
1415 3046
1415 3047
1415 3048
1415 3049
1415 3050
1415 3051
1416 91
1416 130
1416 133
1416 140
1416 141
1416 142
1416 143
1416 146
1416 153
1416 158
1416 160
1416 165
1416 167
1416 168
1416 170
1416 173
1416 180
1416 193
1416 195
1416 197
1416 198
1416 200
1416 201
1416 241
1416 251
1416 270
1416 343
1416 447
1416 552
1416 879
1416 1053
1416 1171
1416 1415
1416 1416
1416 1417
1416 1419
1416 1420
1416 1421
1416 3046
1416 3047
1416 3048
1416 3049
1416 3050
1416 3051
1417 141
1417 195
1417 197
1417 198
1417 200
1417 201
1417 270
1417 447
1417 879
1417 1415
1417 1416
1417 1419
1417 1420
1417 1421
1417 3046
1417 3047
1417 3048
1417 3049
1417 3050
1417 3051
1418 59
1418 195
1418 196
1418 197
1418 198
1418 199
1418 200
1418 201
1418 1046
1418 1052
1418 1414
1418 2104
1418 2105
1418 2106
1418 2107
1418 2108
1418 2109
1418 3052
1419 195
1419 197
1419 200
1419 201
1419 220
1419 270
1419 447
1419 879
1419 1415
1419 1416
1419 1417
1419 1420
1419 1421
1419 2594
1419 3046
1419 3047
1419 3048
1419 3049
1419 3050
1419 3051
1420 195
1420 197
1420 198
1420 200
1420 201
1420 270
1420 447
1420 879
1420 1416
1420 1417
1420 1419
1420 1420
1420 3046
1420 3047
1420 3048
1420 3050
1421 195
1421 197
1421 198
1421 200
1421 201
1421 270
1421 447
1421 879
1421 1416
1421 1417
1421 1419
1421 3046
1421 3047
1421 3048
1421 3050
1422 61
1422 66
1422 116
1422 118
1422 194
1422 197
1422 200
1422 242
1422 1422
1422 1423
1423 66
1423 116
1423 118
1423 194
1423 197
1423 200
1423 242
1423 1422
1423 1423
1424 60
1424 61
1424 62
1424 68
1424 116
1424 118
1424 194
1424 197
1424 200
1424 209
1424 242
1424 1424
1424 1586
1425 62
1425 120
1425 194
1425 197
1425 201
1425 253
1425 506
1425 3053
1426 63
1426 173
1426 469
1426 501
1426 502
1426 514
1427 63
1427 127
1427 190
1427 197
1427 375
1427 376
1427 459
1427 1427
1428 63
1428 173
1428 469
1428 501
1428 502
1428 514
1428 515
1429 63
1429 96
1429 127
1429 157
1429 197
1429 375
1429 376
1429 843
1429 1600
1430 63
1430 127
1430 173
1430 197
1430 375
1430 376
1430 632
1430 1431
1431 63
1431 127
1431 173
1431 197
1431 375
1431 376
1431 632
1431 781
1431 1430
1432 63
1432 127
1432 197
1432 375
1432 376
1433 64
1433 174
1433 197
1433 200
1433 504
1433 564
1433 582
1433 603
1433 866
1433 942
1433 1677
1433 3054
1434 2
1434 64
1434 174
1434 197
1434 200
1434 228
1434 273
1434 564
1434 603
1434 631
1434 834
1435 64
1435 146
1435 201
1435 323
1435 521
1435 522
1435 523
1436 64
1436 146
1436 201
1436 323
1436 522
1436 523
1436 865
1436 867
1436 1162
1436 1664
1436 1826
1436 2604
1436 2751
1436 2825
1437 64
1437 146
1437 200
1437 201
1437 522
1437 523
1437 592
1437 2578
1438 64
1438 146
1438 200
1438 201
1438 522
1438 523
1438 606
1438 1727
1439 64
1439 146
1439 200
1439 201
1439 522
1439 523
1439 573
1439 1496
1439 2709
1440 64
1440 146
1440 200
1440 201
1440 522
1440 523
1440 542
1440 673
1440 2779
1441 64
1441 69
1441 146
1441 201
1441 522
1441 523
1441 617
1441 1479
1441 1668
1442 64
1442 146
1442 200
1442 201
1442 522
1442 523
1442 566
1442 1196
1442 1197
1442 2591
1443 56
1443 64
1443 159
1443 192
1443 201
1443 273
1443 522
1443 565
1443 1446
1444 64
1444 197
1444 504
1444 523
1444 564
1444 565
1444 1444
1445 2
1445 64
1445 174
1445 197
1445 200
1445 564
1445 603
1445 613
1445 834
1445 1446
1446 64
1446 174
1446 197
1446 200
1446 504
1446 564
1446 603
1446 613
1446 866
1446 1443
1446 1445
1447 65
1447 201
1447 312
1447 496
1448 65
1448 112
1448 173
1448 201
1448 534
1448 623
1448 635
1448 1450
1448 2655
1449 65
1449 201
1449 422
1449 435
1449 494
1450 65
1450 201
1450 534
1450 623
1450 635
1450 770
1450 1448
1451 65
1451 201
1451 571
1451 635
1451 675
1451 809
1451 1452
1451 1457
1451 1458
1451 1459
1451 1460
1451 1463
1452 65
1452 201
1452 635
1452 675
1452 809
1452 1451
1452 1457
1452 1458
1452 1459
1452 1460
1452 1463
1453 65
1453 174
1453 201
1453 570
1453 768
1453 769
1453 1454
1453 1693
1454 65
1454 174
1454 201
1454 675
1454 769
1454 862
1454 1453
1454 1473
1454 1693
1455 65
1455 112
1455 192
1455 201
1455 675
1455 741
1455 768
1455 769
1455 770
1455 862
1455 1819
1456 65
1456 112
1456 312
1456 422
1456 435
1456 708
1456 709
1456 719
1456 754
1457 65
1457 201
1457 635
1457 675
1457 809
1457 1451
1457 1452
1457 1458
1457 1459
1457 1460
1457 3055
1458 65
1458 201
1458 635
1458 675
1458 809
1458 1451
1458 1452
1458 1457
1458 1458
1458 1459
1458 1460
1458 3056
1459 65
1459 82
1459 201
1459 635
1459 675
1459 809
1459 1451
1459 1452
1459 1457
1459 1458
1459 1460
1459 3057
1460 65
1460 201
1460 635
1460 675
1460 809
1460 1451
1460 1452
1460 1457
1460 1458
1460 1459
1461 65
1461 112
1461 312
1461 422
1461 435
1461 708
1461 709
1461 719
1462 65
1462 157
1462 201
1462 534
1462 555
1462 837
1462 838
1462 1675
1462 2308
1463 65
1463 201
1463 635
1463 675
1463 809
1463 1451
1463 1452
1463 1463
1464 65
1464 168
1464 201
1464 422
1464 435
1464 494
1465 65
1465 195
1465 197
1465 198
1465 200
1465 201
1465 312
1465 708
1465 965
1465 1047
1465 1466
1465 1467
1465 1468
1465 1469
1465 1470
1465 2556
1465 2752
1465 2753
1465 2869
1465 3058
1466 65
1466 91
1466 130
1466 133
1466 140
1466 141
1466 142
1466 143
1466 146
1466 153
1466 158
1466 160
1466 165
1466 167
1466 168
1466 170
1466 173
1466 180
1466 193
1466 195
1466 197
1466 198
1466 200
1466 201
1466 241
1466 251
1466 312
1466 343
1466 552
1466 708
1466 965
1466 1047
1466 1053
1466 1171
1466 1465
1466 1466
1466 1467
1466 1468
1466 1469
1466 1470
1466 1471
1466 1472
1466 2556
1466 2752
1466 2753
1466 2869
1466 3058
1467 65
1467 141
1467 195
1467 197
1467 198
1467 200
1467 201
1467 312
1467 708
1467 965
1467 1047
1467 1465
1467 1466
1467 1468
1467 1469
1467 1470
1467 1471
1467 1472
1467 2556
1467 2752
1467 2753
1467 2869
1467 3058
1468 65
1468 195
1468 197
1468 200
1468 201
1468 312
1468 708
1468 965
1468 1047
1468 1465
1468 1466
1468 1467
1468 1469
1468 1470
1468 1471
1468 1472
1468 2300
1468 2556
1468 2752
1468 2753
1468 2869
1468 3058
1469 65
1469 132
1469 195
1469 197
1469 198
1469 200
1469 201
1469 312
1469 708
1469 965
1469 1047
1469 1465
1469 1466
1469 1467
1469 1468
1469 1470
1469 2752
1469 2753
1469 3059
1470 65
1470 93
1470 96
1470 97
1470 98
1470 99
1470 101
1470 106
1470 107
1470 108
1470 110
1470 111
1470 112
1470 113
1470 115
1470 117
1470 123
1470 124
1470 125
1470 126
1470 127
1470 128
1470 134
1470 135
1470 137
1470 138
1470 144
1470 145
1470 146
1470 147
1470 148
1470 154
1470 157
1470 161
1470 162
1470 164
1470 167
1470 168
1470 169
1470 170
1470 175
1470 176
1470 179
1470 180
1470 181
1470 182
1470 184
1470 185
1470 192
1470 193
1470 194
1470 195
1470 197
1470 198
1470 199
1470 200
1470 201
1470 218
1470 224
1470 241
1470 258
1470 271
1470 391
1470 459
1470 500
1470 513
1470 547
1470 553
1470 558
1470 691
1470 692
1470 772
1470 843
1470 907
1470 927
1470 1049
1470 1050
1470 1161
1470 1311
1470 1359
1470 1465
1470 1466
1470 1467
1470 1468
1470 1469
1470 1471
1470 1472
1470 1529
1470 1773
1470 1788
1470 1825
1470 1862
1470 2300
1471 65
1471 195
1471 197
1471 198
1471 200
1471 201
1471 312
1471 708
1471 965
1471 1047
1471 1466
1471 1467
1471 1468
1471 1470
1471 1471
1471 2753
1472 65
1472 195
1472 197
1472 198
1472 200
1472 201
1472 312
1472 708
1472 965
1472 1047
1472 1466
1472 1467
1472 1468
1472 1470
1472 2753
1473 65
1473 142
1473 150
1473 168
1473 180
1473 188
1473 192
1473 445
1473 570
1473 585
1473 623
1473 1061
1473 1454
1473 1571
1473 1572
1474 65
1474 112
1474 312
1474 401
1474 435
1474 587
1474 1474
1475 67
1475 197
1475 456
1476 69
1476 183
1476 201
1476 204
1476 482
1476 1476
1476 1483
1476 1538
1477 69
1477 201
1477 680
1478 69
1478 302
1479 69
1479 201
1479 440
1479 544
1479 558
1479 616
1479 617
1479 1441
1480 69
1480 440
1480 442
1480 483
1480 484
1480 545
1480 1011
1480 1013
1480 1014
1480 1015
1480 1016
1480 1017
1480 1018
1480 1481
1480 1713
1480 1779
1481 69
1481 190
1481 440
1481 442
1481 483
1481 484
1481 544
1481 545
1481 1011
1481 1013
1481 1014
1481 1015
1481 1016
1481 1017
1481 1480
1481 1713
1481 1779
1482 69
1482 201
1482 480
1482 483
1482 484
1482 545
1482 546
1483 69
1483 201
1483 482
1483 1476
1483 1538
1484 69
1484 201
1484 290
1484 825
1484 826
1484 827
1484 1484
1484 1485
1484 1816
1484 2589
1484 2683
1484 3060
1485 69
1485 201
1485 290
1485 825
1485 826
1485 827
1485 1484
1485 1816
1485 2589
1485 2683
1486 69
1486 201
1486 290
1486 441
1486 2202
1487 69
1487 201
1487 290
1487 441
1488 69
1488 290
1488 440
1488 441
1488 482
1489 4
1489 69
1489 200
1489 201
1489 427
1489 442
1489 483
1489 484
1489 1867
1490 69
1490 201
1490 680
1490 825
1490 826
1490 1490
1490 1816
1490 2589
1490 2683
1491 69
1491 93
1491 96
1491 97
1491 98
1491 99
1491 101
1491 106
1491 107
1491 108
1491 110
1491 111
1491 113
1491 115
1491 117
1491 123
1491 124
1491 125
1491 126
1491 127
1491 128
1491 134
1491 135
1491 137
1491 138
1491 144
1491 145
1491 146
1491 147
1491 148
1491 154
1491 157
1491 161
1491 162
1491 164
1491 167
1491 168
1491 169
1491 170
1491 175
1491 176
1491 179
1491 180
1491 181
1491 182
1491 184
1491 185
1491 192
1491 193
1491 194
1491 195
1491 197
1491 198
1491 199
1491 200
1491 201
1491 218
1491 224
1491 241
1491 258
1491 271
1491 391
1491 400
1491 440
1491 459
1491 500
1491 513
1491 547
1491 553
1491 558
1491 691
1491 692
1491 772
1491 843
1491 907
1491 927
1491 953
1491 967
1491 1008
1491 1049
1491 1050
1491 1161
1491 1311
1491 1359
1491 1492
1491 1493
1491 1529
1491 1773
1491 1788
1491 1825
1491 1862
1491 1912
1492 69
1492 195
1492 197
1492 198
1492 200
1492 201
1492 400
1492 442
1492 953
1492 960
1492 967
1492 1011
1492 1013
1492 1019
1492 1491
1492 1492
1493 69
1493 195
1493 197
1493 198
1493 200
1493 201
1493 400
1493 442
1493 953
1493 960
1493 967
1493 1011
1493 1013
1493 1019
1493 1491
1494 69
1494 189
1494 200
1494 201
1494 480
1494 483
1494 484
1494 545
1494 546
1495 70
1495 190
1495 200
1495 201
1495 452
1495 481
1495 573
1495 1496
1495 1506
1495 1524
1495 2709
1496 70
1496 173
1496 201
1496 573
1496 760
1496 1439
1496 1495
1496 2709
1497 70
1497 201
1497 607
1497 723
1497 732
1497 736
1497 742
1497 815
1497 1687
1498 70
1498 177
1498 179
1498 201
1498 299
1498 1499
1498 3061
1498 3062
1499 70
1499 299
1499 1498
1499 3062
1500 70
1500 200
1500 201
1500 663
1500 671
1500 1502
1500 1503
1500 1815
1500 3061
1500 3063
1501 70
1501 201
1501 480
1501 481
1501 601
1501 608
1501 672
1501 981
1501 1010
1502 70
1502 93
1502 96
1502 97
1502 98
1502 99
1502 101
1502 106
1502 107
1502 108
1502 110
1502 111
1502 113
1502 115
1502 117
1502 123
1502 124
1502 125
1502 126
1502 127
1502 128
1502 134
1502 135
1502 137
1502 138
1502 144
1502 145
1502 146
1502 147
1502 148
1502 154
1502 157
1502 161
1502 162
1502 164
1502 167
1502 168
1502 169
1502 170
1502 175
1502 176
1502 179
1502 180
1502 181
1502 182
1502 184
1502 185
1502 192
1502 193
1502 194
1502 195
1502 197
1502 198
1502 199
1502 200
1502 201
1502 218
1502 224
1502 241
1502 258
1502 271
1502 391
1502 459
1502 481
1502 500
1502 513
1502 547
1502 553
1502 558
1502 691
1502 692
1502 772
1502 843
1502 907
1502 927
1502 1049
1502 1050
1502 1161
1502 1311
1502 1359
1502 1500
1502 1503
1502 1507
1502 1515
1502 1516
1502 1517
1502 1518
1502 1519
1502 1520
1502 1521
1502 1529
1502 1773
1502 1788
1502 1815
1502 1825
1502 1862
1502 3061
1503 70
1503 132
1503 195
1503 197
1503 198
1503 200
1503 201
1503 671
1503 1010
1503 1174
1503 1500
1503 1502
1503 1505
1503 1515
1503 1516
1503 1517
1503 1518
1503 2701
1503 3064
1504 70
1504 481
1504 601
1504 608
1504 671
1504 981
1504 1505
1504 1506
1504 2696
1504 2697
1504 2698
1504 2699
1504 2700
1504 2701
1504 2702
1505 70
1505 198
1505 200
1505 201
1505 481
1505 601
1505 608
1505 1174
1505 1503
1505 1504
1505 1506
1505 1515
1505 1516
1505 1517
1505 1518
1505 1519
1505 1521
1505 2696
1505 2697
1505 2698
1505 2699
1505 2700
1505 2701
1505 2702
1506 70
1506 173
1506 481
1506 601
1506 608
1506 671
1506 981
1506 1495
1506 1504
1506 1505
1506 2696
1506 2697
1506 2698
1506 2699
1506 2700
1506 2701
1506 2702
1507 70
1507 87
1507 189
1507 201
1507 245
1507 481
1507 663
1507 671
1507 723
1507 742
1507 815
1507 816
1507 1502
1507 1674
1507 2763
1507 2764
1507 2765
1508 70
1508 201
1508 607
1508 760
1508 818
1508 819
1508 1509
1508 1510
1508 1511
1508 2628
1508 3065
1509 70
1509 201
1509 607
1509 760
1509 818
1509 819
1509 1508
1509 1509
1509 1510
1509 1511
1509 2628
1509 3066
1510 70
1510 82
1510 201
1510 607
1510 760
1510 818
1510 819
1510 1508
1510 1509
1510 1511
1510 2628
1510 3067
1511 70
1511 201
1511 607
1511 760
1511 818
1511 819
1511 1508
1511 1509
1511 1510
1511 2628
1512 70
1512 201
1512 481
1512 607
1512 760
1512 818
1512 819
1512 1512
1512 2628
1513 3
1513 70
1513 201
1513 480
1513 601
1513 608
1513 672
1513 981
1513 1010
1514 70
1514 201
1514 480
1514 601
1514 608
1514 672
1514 981
1514 1010
1515 70
1515 195
1515 197
1515 198
1515 200
1515 201
1515 671
1515 1010
1515 1174
1515 1175
1515 1502
1515 1503
1515 1505
1515 1516
1515 1517
1515 1518
1515 1760
1515 2701
1516 70
1516 91
1516 130
1516 133
1516 140
1516 141
1516 142
1516 143
1516 146
1516 153
1516 158
1516 160
1516 165
1516 167
1516 168
1516 170
1516 173
1516 180
1516 193
1516 195
1516 197
1516 198
1516 200
1516 201
1516 241
1516 251
1516 343
1516 552
1516 671
1516 1010
1516 1053
1516 1171
1516 1174
1516 1175
1516 1502
1516 1503
1516 1505
1516 1515
1516 1516
1516 1517
1516 1518
1516 1519
1516 1521
1516 1760
1516 2701
1517 70
1517 141
1517 195
1517 197
1517 198
1517 200
1517 201
1517 671
1517 1010
1517 1174
1517 1175
1517 1502
1517 1503
1517 1505
1517 1515
1517 1516
1517 1518
1517 1519
1517 1521
1517 1760
1517 2701
1518 70
1518 195
1518 197
1518 200
1518 201
1518 671
1518 981
1518 1010
1518 1174
1518 1175
1518 1502
1518 1503
1518 1505
1518 1515
1518 1516
1518 1517
1518 1519
1518 1520
1518 1521
1518 1760
1518 2701
1519 70
1519 195
1519 197
1519 198
1519 200
1519 201
1519 671
1519 1010
1519 1174
1519 1502
1519 1505
1519 1516
1519 1517
1519 1518
1519 1519
1519 2701
1520 70
1520 201
1520 671
1520 1502
1520 1518
1521 70
1521 195
1521 197
1521 198
1521 200
1521 201
1521 671
1521 1010
1521 1174
1521 1502
1521 1505
1521 1516
1521 1517
1521 1518
1521 2701
1522 3
1522 70
1522 201
1522 480
1522 481
1522 601
1522 608
1522 672
1522 981
1522 1010
1523 70
1523 201
1523 299
1524 27
1524 70
1524 173
1524 481
1524 671
1524 981
1524 1088
1524 1089
1524 1090
1524 1091
1524 1092
1524 1093
1524 1094
1524 1095
1524 1495
1524 1778
1525 71
1525 139
1525 151
1525 152
1525 156
1525 159
1525 172
1525 178
1525 187
1525 190
1525 196
1525 199
1525 200
1525 201
1526 74
1526 201
1526 297
1526 298
1526 758
1526 811
1526 1115
1526 2245
1526 2246
1526 2249
1526 2250
1526 2251
1526 3068
1527 76
1527 155
1527 199
1527 200
1527 201
1527 3211
1527 3212
1528 77
1528 194
1528 197
1528 198
1528 200
1528 201
1528 1028
1528 1033
1528 1038
1528 1042
1528 1062
1528 1771
1528 1787
1528 1824
1528 2484
1528 2485
1528 2730
1529 77
1529 92
1529 106
1529 107
1529 111
1529 113
1529 115
1529 128
1529 194
1529 196
1529 197
1529 198
1529 200
1529 201
1529 323
1529 371
1529 392
1529 397
1529 410
1529 431
1529 436
1529 439
1529 443
1529 588
1529 879
1529 1049
1529 1050
1529 1152
1529 1172
1529 1225
1529 1264
1529 1307
1529 1323
1529 1344
1529 1374
1529 1470
1529 1491
1529 1502
1529 1563
1529 1773
1529 1788
1529 1825
1529 2003
1529 2169
1529 2313
1529 2343
1529 2391
1529 2432
1530 77
1530 200
1530 201
1530 264
1530 540
1530 541
1530 1043
1530 1045
1530 1922
1530 2561
1530 2660
1530 2661
1530 2662
1530 2663
1530 2664
1530 2665
1531 58
1531 77
1531 201
1531 307
1531 548
1531 1099
1531 1394
1531 1395
1531 1397
1531 1398
1531 1399
1531 1401
1531 1402
1531 1774
1531 1789
1531 2292
1531 2735
1532 26
1532 77
1532 194
1532 197
1532 198
1532 200
1532 201
1532 1037
1532 1051
1532 1074
1532 1075
1532 1076
1532 1077
1532 1078
1532 1079
1532 1781
1532 1799
1533 78
1534 79
1535 81
1535 170
1535 185
1535 196
1535 199
1535 200
1535 201
1535 317
1536 81
1536 194
1536 200
1536 201
1536 379
1537 82
1537 201
1537 304
1537 486
1537 784
1537 785
1537 788
1537 814
1537 1894
1537 2684
1537 3069
1538 69
1538 85
1538 183
1538 201
1538 482
1538 1476
1538 1483
1539 158
1539 196
1539 199
1539 200
1539 201
1539 311
1539 689
1539 1588
1539 2134
1539 2736
1539 3070
1539 3071
1539 3072
1539 3073
1539 3074
1539 3075
1539 3076
1540 158
1540 196
1540 199
1540 200
1540 201
1540 311
1540 620
1540 689
1540 1587
1540 2710
1540 3077
1540 3078
1540 3079
1540 3080
1540 3081
1540 3082
1540 3083
1541 86
1541 174
1541 201
1541 1547
1541 1738
1541 1907
1541 3267
1542 86
1542 174
1542 201
1542 464
1542 480
1542 1548
1542 1740
1543 158
1543 196
1543 199
1543 200
1543 201
1543 306
1543 311
1543 689
1543 1589
1543 3084
1543 3085
1543 3086
1543 3087
1543 3088
1543 3089
1543 3090
1543 3091
1544 87
1544 119
1544 151
1544 152
1544 156
1544 166
1544 172
1544 178
1544 187
1544 190
1544 196
1544 199
1544 200
1544 201
1544 1650
1545 158
1545 196
1545 199
1545 200
1545 201
1545 269
1545 311
1545 689
1545 1879
1545 2089
1545 3092
1545 3093
1545 3094
1545 3095
1545 3096
1545 3097
1545 3098
1546 89
1546 251
1546 252
1546 524
1546 650
1546 775
1546 791
1546 792
1546 1546
1546 1809
1547 89
1547 196
1547 199
1547 200
1547 201
1547 1541
1547 1738
1547 1907
1547 3267
1548 89
1548 196
1548 199
1548 200
1548 201
1548 464
1548 480
1548 1542
1548 1740
1549 58
1549 59
1549 90
1549 128
1549 182
1549 341
1549 350
1549 923
1549 965
1549 966
1549 980
1549 983
1549 1011
1549 1043
1549 1044
1549 1079
1549 1095
1549 1182
1549 1549
1549 2485
1549 2520
1549 2574
1549 2701
1549 2878
1549 2949
1549 2994
1549 3031
1549 3047
1549 3147
1549 3226
1549 3410
1550 92
1550 200
1550 201
1550 297
1550 668
1550 1116
1550 1551
1550 2381
1550 2850
1550 3099
1551 92
1551 192
1551 200
1551 201
1551 297
1551 668
1551 1550
1551 2381
1551 2850
1552 87
1552 92
1552 189
1552 201
1552 213
1552 245
1552 297
1552 437
1552 668
1552 728
1552 746
1552 759
1552 902
1552 1674
1552 1698
1552 1934
1552 1936
1552 2850
1553 92
1553 201
1553 297
1553 434
1553 668
1554 34
1554 46
1554 92
1554 195
1554 197
1554 198
1554 200
1554 201
1554 297
1554 434
1554 668
1554 1000
1554 1181
1554 1182
1554 1183
1555 58
1555 59
1555 94
1555 128
1555 182
1555 199
1555 200
1555 201
1555 341
1555 350
1555 923
1555 965
1555 966
1555 980
1555 983
1555 1011
1555 1043
1555 1044
1555 1079
1555 1095
1555 1182
1555 1555
1555 2485
1555 2520
1555 2574
1555 2701
1555 2878
1555 2949
1555 2994
1555 3031
1555 3047
1555 3147
1555 3226
1555 3410
1556 95
1556 168
1556 171
1556 323
1556 399
1556 512
1556 1065
1556 1823
1557 95
1557 258
1557 323
1557 1558
1558 95
1558 201
1558 285
1558 323
1558 1557
1559 95
1559 201
1559 243
1559 323
1559 430
1559 431
1559 3100
1560 95
1560 136
1560 194
1560 196
1560 197
1560 199
1560 200
1560 201
1560 328
1560 884
1560 1054
1560 1560
1560 1643
1560 1832
1561 101
1561 201
1561 243
1561 258
1561 285
1561 323
1561 430
1561 431
1561 926
1561 927
1561 928
1561 1617
1561 1862
1561 2832
1562 101
1562 191
1562 196
1562 198
1562 199
1562 200
1562 201
1562 3101
1562 3102
1563 106
1563 107
1563 111
1563 113
1563 115
1563 128
1563 194
1563 197
1563 198
1563 200
1563 201
1563 1049
1563 1050
1563 1529
1563 1773
1563 1788
1563 1825
1564 49
1564 108
1564 123
1564 124
1564 125
1564 126
1564 148
1564 164
1564 169
1564 200
1564 201
1564 915
1564 916
1564 959
1565 108
1565 123
1565 124
1565 125
1565 126
1565 148
1565 164
1565 169
1565 200
1565 201
1565 1060
1565 1565
1566 108
1566 123
1566 124
1566 125
1566 126
1566 148
1566 164
1566 169
1566 201
1566 214
1566 941
1566 949
1566 958
1566 959
1566 1579
1567 54
1567 109
1567 190
1567 462
1567 1326
1567 3036
1568 54
1568 109
1568 192
1568 376
1568 569
1568 580
1568 739
1568 798
1569 54
1569 109
1569 533
1569 1328
1569 1329
1569 1336
1569 1721
1570 65
1570 112
1570 201
1570 422
1570 435
1570 494
1571 112
1571 192
1571 201
1571 445
1571 570
1571 585
1571 675
1571 1473
1571 1572
1572 112
1572 192
1572 201
1572 445
1572 570
1572 585
1572 1473
1572 1571
1573 48
1573 113
1573 115
1573 128
1573 195
1573 197
1573 198
1573 200
1573 201
1573 323
1573 364
1573 430
1573 431
1573 998
1573 1035
1574 33
1574 39
1574 67
1574 114
1574 117
1574 189
1574 196
1574 199
1574 200
1574 201
1574 882
1575 114
1575 178
1576 114
1576 182
1576 237
1576 315
1577 63
1577 114
1577 127
1577 197
1577 375
1577 376
1578 115
1578 200
1578 201
1578 304
1578 480
1578 694
1578 695
1578 696
1578 985
1579 119
1579 121
1579 126
1579 145
1579 147
1579 154
1579 164
1579 181
1579 182
1579 184
1579 195
1579 196
1579 197
1579 198
1579 199
1579 200
1579 201
1579 1566
1580 119
1580 121
1580 126
1580 145
1580 147
1580 154
1580 181
1580 182
1580 184
1580 195
1580 196
1580 197
1580 198
1580 199
1580 200
1580 201
1580 217
1581 119
1581 121
1581 145
1581 147
1581 154
1581 181
1581 182
1581 184
1581 195
1581 196
1581 197
1581 198
1581 199
1581 200
1581 201
1581 1020
1582 119
1582 121
1582 145
1582 147
1582 154
1582 181
1582 182
1582 184
1582 195
1582 196
1582 197
1582 198
1582 199
1582 200
1582 201
1583 120
1583 194
1583 197
1583 201
1583 253
1583 506
1583 1584
1584 120
1584 194
1584 197
1584 201
1584 253
1584 365
1584 506
1584 552
1584 1065
1584 1583
1585 120
1585 194
1585 197
1585 201
1585 253
1585 506
1585 552
1585 773
1585 777
1585 778
1585 1065
1586 60
1586 61
1586 62
1586 68
1586 116
1586 118
1586 120
1586 194
1586 197
1586 200
1586 209
1586 242
1586 1424
1586 1586
1587 120
1587 150
1587 161
1587 165
1587 166
1587 171
1587 180
1587 355
1587 620
1587 700
1587 733
1587 753
1587 759
1587 816
1587 820
1587 835
1587 893
1587 899
1587 1540
1587 2508
1587 2759
1587 2767
1587 2792
1587 2953
1587 3151
1587 3236
1587 3312
1588 120
1588 150
1588 161
1588 165
1588 166
1588 171
1588 180
1588 700
1588 733
1588 753
1588 759
1588 816
1588 820
1588 835
1588 893
1588 899
1588 1539
1588 2134
1588 2508
1588 2759
1588 2767
1588 2792
1588 2953
1588 3151
1588 3236
1588 3312
1589 120
1589 150
1589 161
1589 165
1589 166
1589 171
1589 180
1589 189
1589 267
1589 306
1589 700
1589 733
1589 753
1589 759
1589 816
1589 820
1589 835
1589 893
1589 899
1589 1543
1589 2508
1589 2759
1589 2767
1589 2792
1589 2953
1589 3151
1589 3236
1589 3312
1590 120
1590 194
1590 197
1590 201
1590 253
1590 254
1590 506
1590 576
1591 56
1591 120
1591 150
1591 166
1591 171
1591 180
1591 323
1591 834
1591 840
1591 841
1591 842
1591 879
1592 121
1592 196
1592 199
1592 200
1592 201
1593 121
1593 145
1593 147
1593 154
1593 181
1593 182
1593 184
1593 195
1593 196
1593 197
1593 198
1593 199
1593 200
1593 201
1594 122
1594 144
1594 2310
1595 122
1595 200
1595 201
1595 304
1595 697
1595 698
1595 765
1595 797
1595 833
1596 124
1596 164
1597 48
1597 126
1597 181
1597 182
1597 184
1597 195
1597 196
1597 197
1597 198
1597 199
1597 200
1597 201
1597 364
1597 997
1597 998
1597 1035
1598 48
1598 126
1598 169
1598 181
1598 182
1598 184
1598 195
1598 196
1598 197
1598 198
1598 199
1598 200
1598 201
1598 364
1598 997
1598 998
1598 1035
1599 119
1599 121
1599 126
1599 145
1599 147
1599 154
1599 181
1599 182
1599 184
1599 195
1599 196
1599 197
1599 198
1599 199
1599 200
1599 201
1600 63
1600 127
1600 197
1600 375
1600 376
1600 1429
1601 63
1601 127
1601 190
1601 197
1601 375
1601 376
1601 513
1602 48
1602 128
1602 181
1602 182
1602 184
1602 195
1602 196
1602 197
1602 198
1602 199
1602 200
1602 201
1602 364
1602 997
1602 998
1602 1035
1603 129
1603 131
1603 375
1603 376
1603 1605
1604 131
1604 136
1604 137
1604 161
1604 358
1604 362
1604 363
1604 640
1604 642
1604 647
1604 848
1604 1604
1605 131
1605 196
1605 199
1605 200
1605 201
1605 1603
1606 131
1606 136
1606 138
1606 156
1606 179
1606 191
1606 197
1606 200
1606 201
1606 448
1606 643
1606 657
1606 1757
1606 2646
1607 131
1607 136
1607 157
1607 201
1607 445
1607 556
1607 624
1607 710
1607 2562
1608 131
1608 136
1608 197
1608 211
1608 271
1608 527
1608 553
1609 131
1609 196
1609 199
1609 200
1609 201
1610 131
1610 136
1610 138
1610 156
1610 175
1610 176
1610 179
1610 191
1610 194
1610 197
1610 200
1610 201
1610 460
1610 691
1610 692
1611 132
1611 191
1611 196
1611 199
1611 200
1611 201
1611 571
1612 132
1612 191
1612 192
1612 196
1612 199
1612 200
1612 201
1612 571
1613 132
1613 198
1613 200
1613 201
1613 3208
1614 133
1614 141
1614 146
1614 176
1614 201
1614 282
1614 460
1614 552
1614 574
1614 603
1614 1206
1614 1667
1615 12
1615 133
1615 201
1615 325
1615 885
1615 886
1615 891
1615 892
1615 2310
1615 2313
1615 2733
1615 2828
1615 2838
1615 2855
1616 56
1616 133
1616 142
1616 150
1616 158
1616 174
1616 574
1616 842
1617 101
1617 133
1617 201
1617 243
1617 258
1617 285
1617 323
1617 430
1617 431
1617 927
1617 928
1617 1561
1617 1862
1617 2832
1618 50
1618 133
1618 201
1618 1209
1618 1214
1618 1216
1618 1225
1618 1228
1618 1234
1618 1235
1618 1236
1618 1841
1618 2833
1618 2859
1619 51
1619 133
1619 201
1619 1247
1619 1253
1619 1255
1619 1264
1619 1267
1619 1273
1619 1274
1619 1275
1619 1843
1619 2834
1619 2860
1620 134
1620 135
1620 161
1620 170
1620 171
1620 185
1620 196
1620 199
1620 200
1620 201
1620 224
1620 311
1620 317
1621 134
1621 135
1621 161
1621 170
1621 191
1621 200
1621 201
1621 224
1621 317
1621 726
1622 136
1622 194
1622 197
1622 199
1622 201
1622 210
1622 212
1622 465
1622 466
1622 467
1622 470
1622 711
1622 958
1622 1622
1622 1928
1623 136
1623 137
1623 161
1623 201
1623 316
1623 572
1623 1623
1623 1810
1624 136
1624 201
1624 417
1624 451
1624 1909
1625 136
1625 177
1625 510
1625 532
1625 562
1625 563
1625 2680
1626 139
1626 151
1626 152
1626 172
1626 178
1626 187
1626 190
1626 200
1626 201
1626 3103
1627 140
1627 161
1627 201
1627 311
1628 141
1628 195
1628 197
1628 198
1628 200
1628 201
1628 226
1628 341
1628 342
1628 361
1628 394
1628 397
1628 413
1628 969
1628 972
1628 977
1628 1828
1628 1833
1628 1939
1628 2427
1628 2428
1628 2429
1628 2554
1629 141
1629 160
1629 179
1629 201
1629 771
1629 829
1629 986
1629 987
1629 988
1629 1671
1629 1672
1630 141
1630 181
1630 201
1630 713
1630 738
1630 740
1630 743
1630 771
1630 1631
1631 141
1631 201
1631 713
1631 738
1631 740
1631 743
1631 771
1631 1630
1632 143
1632 722
1632 727
1632 730
1632 777
1632 895
1632 897
1632 898
1633 143
1633 195
1633 197
1633 718
1633 730
1633 778
1633 860
1633 861
1633 863
1633 887
1633 888
1633 2615
1634 143
1634 195
1634 197
1634 722
1634 727
1634 730
1634 777
1634 778
1634 895
1634 897
1634 898
1635 144
1635 189
1635 200
1635 201
1635 300
1635 599
1635 603
1635 677
1635 807
1635 822
1635 823
1635 824
1635 929
1636 146
1636 197
1636 200
1636 564
1636 593
1636 613
1636 1636
1637 147
1637 198
1637 200
1637 201
1637 220
1637 270
1637 315
1637 3046
1637 3047
1637 3048
1637 3104
1637 3105
1637 3106
1637 3107
1637 3108
1637 3109
1637 3110
1637 3111
1638 59
1638 147
1638 198
1638 200
1638 201
1638 315
1638 1046
1638 1052
1638 1409
1638 1410
1638 1411
1638 1412
1638 1413
1638 1782
1638 1801
1638 2092
1639 148
1639 159
1639 164
1639 187
1639 189
1639 196
1639 199
1639 200
1639 201
1639 300
1639 307
1639 356
1639 689
1640 148
1641 148
1641 156
1641 157
1641 164
1641 187
1641 196
1641 199
1641 200
1641 201
1641 332
1641 1258
1641 1268
1642 148
1642 164
1642 177
1642 506
1642 561
1642 1642
1642 1754
1643 149
1643 151
1643 152
1643 172
1643 178
1643 187
1643 190
1643 200
1643 201
1643 323
1643 328
1643 430
1643 431
1643 1560
1643 2320
1643 2321
1643 2378
1643 2379
1644 149
1644 151
1644 152
1644 172
1644 178
1644 187
1644 190
1644 200
1644 201
1644 2141
1644 2310
1644 2313
1644 2375
1644 2733
1645 150
1645 161
1645 323
1645 700
1645 733
1645 753
1645 759
1645 816
1645 820
1645 835
1645 893
1645 899
1645 2508
1645 2759
1645 2767
1645 2792
1645 2953
1645 3151
1645 3236
1645 3312
1646 54
1646 150
1646 166
1646 171
1646 201
1646 462
1646 795
1646 1337
1646 1339
1647 150
1647 166
1647 171
1647 201
1647 535
1647 662
1647 1681
1647 1694
1647 2134
1648 150
1648 171
1648 201
1648 589
1648 609
1648 620
1648 1686
1648 1697
1649 150
1649 171
1649 201
1649 304
1649 735
1649 745
1649 765
1649 801
1649 803
1649 1690
1650 152
1650 156
1650 172
1650 178
1650 187
1650 196
1650 199
1650 200
1650 201
1650 880
1650 1132
1650 1544
1651 153
1651 200
1651 201
1651 304
1651 480
1651 694
1651 695
1651 696
1651 985
1652 156
1652 159
1652 173
1652 189
1652 200
1652 201
1652 413
1652 592
1652 598
1652 689
1652 2578
1653 156
1653 159
1653 173
1653 189
1653 200
1653 201
1653 297
1653 606
1653 689
1653 758
1653 1727
1654 156
1654 159
1654 173
1654 200
1654 201
1654 304
1654 689
1654 765
1654 828
1655 157
1655 201
1655 476
1655 479
1655 620
1655 2713
1656 65
1656 157
1656 201
1656 534
1656 837
1657 52
1657 157
1657 201
1657 627
1657 628
1658 158
1658 196
1658 199
1658 200
1658 201
1658 774
1658 779
1658 796
1658 831
1658 836
1658 1249
1658 1260
1659 158
1659 200
1659 201
1659 282
1659 465
1659 649
1659 650
1659 786
1659 1660
1659 1673
1659 1735
1660 158
1660 200
1660 201
1660 219
1660 282
1660 649
1660 786
1660 1659
1660 1665
1660 1673
1660 1735
1660 2140
1661 158
1661 200
1661 201
1661 282
1661 650
1661 651
1661 2418
1661 2810
1661 2811
1662 158
1662 168
1662 200
1662 201
1662 460
1662 528
1662 1663
1663 158
1663 197
1663 200
1663 201
1663 254
1663 691
1663 692
1663 1662
1664 158
1664 196
1664 199
1664 200
1664 201
1664 865
1664 867
1664 1162
1664 1436
1664 1826
1664 2604
1664 2751
1665 158
1665 201
1665 323
1665 387
1665 457
1665 650
1665 1660
1665 1859
1665 2319
1666 158
1666 200
1666 201
1666 304
1666 480
1666 694
1666 695
1666 696
1666 985
1667 158
1667 159
1667 200
1667 201
1667 282
1667 649
1667 650
1667 651
1667 1614
1668 69
1668 159
1668 201
1668 544
1668 616
1668 617
1668 1441
1669 160
1669 697
1669 698
1670 160
1671 160
1671 179
1671 201
1671 771
1671 829
1671 986
1671 987
1671 988
1671 1629
1672 160
1672 179
1672 197
1672 201
1672 506
1672 691
1672 692
1672 771
1672 829
1672 986
1672 987
1672 988
1672 1629
1673 158
1673 161
1673 200
1673 201
1673 282
1673 465
1673 649
1673 650
1673 786
1673 1659
1673 1660
1673 1735
1674 161
1674 200
1674 201
1674 645
1674 716
1674 720
1674 726
1674 733
1674 793
1674 798
1674 845
1674 901
1674 1194
1674 1233
1674 1272
1674 1378
1674 1507
1674 1552
1674 2178
1674 2315
1674 2352
1674 2393
1674 2434
1675 161
1675 166
1675 201
1675 555
1675 837
1675 838
1675 839
1675 1462
1675 2308
1676 162
1677 2
1677 64
1677 162
1677 174
1677 197
1677 200
1677 564
1677 582
1677 603
1677 834
1677 1433
1678 162
1678 196
1678 199
1678 200
1678 201
1678 460
1678 776
1678 781
1678 1678
1679 163
1680 164
1681 165
1681 201
1681 535
1681 1647
1681 1694
1681 2134
1681 2656
1681 2657
1681 2658
1682 37
1682 165
1682 201
1682 1137
1682 1139
1682 1143
1682 1145
1682 1146
1682 1695
1683 165
1683 200
1683 201
1683 413
1683 414
1683 751
1683 2577
1683 2581
1683 2582
1683 2695
1684 165
1684 201
1684 259
1684 712
1684 747
1684 752
1684 755
1684 1685
1684 1696
1685 165
1685 171
1685 201
1685 259
1685 712
1685 747
1685 752
1685 899
1685 900
1685 901
1685 1684
1685 1696
1685 1807
1685 2775
1686 165
1686 201
1686 505
1686 508
1686 589
1686 620
1686 1648
1686 1697
1686 2693
1687 70
1687 165
1687 201
1687 723
1687 732
1687 736
1687 742
1687 815
1687 1497
1688 57
1688 165
1688 201
1688 732
1688 903
1688 1367
1688 1369
1688 1376
1688 1377
1689 165
1689 201
1689 300
1689 610
1689 611
1689 1911
1689 2260
1689 2261
1690 165
1690 201
1690 304
1690 735
1690 745
1690 801
1690 803
1690 904
1690 905
1690 1649
1691 165
1691 171
1691 201
1691 266
1691 492
1691 619
1691 700
1691 1692
1691 1701
1691 1913
1692 165
1692 201
1692 266
1692 619
1692 1691
1692 1701
1692 1913
1692 2055
1692 2566
1693 65
1693 165
1693 188
1693 201
1693 768
1693 769
1693 770
1693 1453
1693 1454
1694 166
1694 201
1694 535
1694 1647
1694 1681
1694 2134
1694 2656
1694 2657
1694 2658
1695 37
1695 166
1695 201
1695 1137
1695 1139
1695 1143
1695 1145
1695 1146
1695 1682
1696 166
1696 201
1696 259
1696 712
1696 747
1696 752
1696 1684
1696 1685
1696 1807
1697 166
1697 201
1697 505
1697 508
1697 589
1697 620
1697 1648
1697 1686
1697 2693
1698 166
1698 174
1698 185
1698 201
1698 213
1698 297
1698 359
1698 728
1698 746
1698 902
1698 1552
1698 1762
1698 1933
1698 1934
1698 1936
1699 166
1699 185
1699 192
1699 200
1699 201
1699 612
1699 637
1699 641
1699 645
1699 660
1699 676
1699 1717
1700 166
1700 192
1700 201
1700 307
1700 615
1700 699
1700 845
1700 875
1700 876
1700 1718
1700 1763
1700 1842
1701 166
1701 201
1701 266
1701 619
1701 1691
1701 1692
1701 1913
1701 2055
1701 2566
1702 167
1702 201
1703 168
1703 201
1703 382
1703 401
1703 419
1703 445
1704 169
1704 181
1704 182
1704 184
1704 195
1704 196
1704 197
1704 198
1704 199
1704 200
1704 201
1704 961
1704 2335
1704 3213
1704 3214
1704 3215
1704 3216
1705 169
1705 173
1705 201
1705 412
1705 413
1706 169
1706 173
1706 200
1706 201
1706 490
1706 869
1707 119
1707 121
1707 145
1707 147
1707 154
1707 169
1707 181
1707 182
1707 184
1707 195
1707 196
1707 197
1707 198
1707 199
1707 200
1707 201
1708 105
1708 170
1708 181
1708 182
1708 184
1708 194
1708 197
1708 198
1708 200
1708 201
1708 754
1708 807
1708 1054
1708 1055
1708 1056
1708 1057
1708 1058
1708 1769
1709 170
1709 185
1709 196
1709 199
1709 200
1709 201
1709 317
1709 630
1710 170
1710 196
1710 199
1710 200
1710 201
1710 474
1711 54
1711 109
1711 170
1711 201
1711 739
1711 802
1711 804
1711 805
1711 806
1711 807
1712 170
1712 200
1712 201
1712 300
1712 599
1712 677
1712 807
1712 822
1712 823
1712 824
1713 170
1713 194
1713 197
1713 198
1713 200
1713 201
1713 483
1713 545
1713 960
1713 1011
1713 1013
1713 1014
1713 1015
1713 1016
1713 1017
1713 1018
1713 1480
1713 1481
1713 1779
1714 170
1714 185
1714 196
1714 199
1714 200
1714 201
1714 317
1714 630
1714 688
1715 171
1715 245
1716 171
1716 185
1716 196
1716 199
1716 200
1716 201
1716 766
1716 767
1716 864
1716 878
1716 893
1716 1252
1717 171
1717 185
1717 200
1717 201
1717 612
1717 637
1717 660
1717 676
1717 1699
1718 171
1718 192
1718 201
1718 307
1718 615
1718 875
1718 876
1718 1700
1719 63
1719 127
1719 173
1719 197
1719 375
1719 376
1719 501
1719 1719
1720 63
1720 127
1720 173
1720 197
1720 375
1720 376
1720 515
1721 54
1721 109
1721 173
1721 533
1721 1328
1721 1329
1721 1336
1721 1396
1721 1569
1721 3027
1721 3028
1721 3029
1721 3030
1721 3031
1721 3032
1721 3033
1721 3034
1722 173
1722 201
1722 338
1722 1062
1723 37
1723 173
1723 201
1723 1136
1723 1140
1723 1142
1723 2923
1724 14
1724 173
1724 341
1724 361
1724 412
1724 413
1724 421
1724 934
1724 972
1724 973
1724 1792
1724 2421
1724 2422
1724 2423
1724 2424
1724 2425
1724 2426
1725 173
1725 201
1725 259
1725 386
1725 416
1725 600
1725 1795
1725 2524
1726 173
1726 201
1726 268
1726 590
1726 1070
1726 1896
1726 2659
1727 173
1727 201
1727 297
1727 606
1727 1115
1727 1438
1727 1653
1727 2483
1728 173
1728 200
1728 201
1728 503
1728 520
1728 543
1728 951
1728 962
1728 1012
1728 1886
1728 2574
1728 2639
1728 2640
1728 2641
1728 2642
1728 2643
1728 2644
1729 69
1729 173
1729 201
1730 173
1730 201
1730 306
1730 1068
1730 2285
1730 2624
1730 3112
1731 173
1731 200
1731 201
1731 396
1731 444
1732 173
1732 201
1732 468
1732 843
1732 1732
1732 1733
1733 173
1733 468
1733 843
1733 1732
1733 1733
1734 63
1734 127
1734 173
1734 197
1734 375
1734 376
1735 158
1735 174
1735 200
1735 201
1735 282
1735 465
1735 649
1735 650
1735 786
1735 1659
1735 1660
1735 1673
1736 6
1736 15
1736 174
1736 200
1736 201
1736 516
1736 517
1736 518
1736 519
1736 946
1736 947
1736 950
1736 952
1736 993
1736 994
1736 995
1736 1875
1737 174
1737 201
1737 3282
1738 174
1738 201
1738 1541
1738 1547
1738 1907
1738 3267
1739 174
1739 196
1739 199
1739 200
1739 201
1739 615
1739 618
1739 655
1739 699
1740 174
1740 201
1740 464
1740 480
1740 1542
1740 1548
1741 175
1741 176
1741 177
1741 179
1741 200
1741 201
1741 506
1741 783
1741 1064
1741 3268
1741 3271
1742 175
1742 176
1742 177
1742 179
1742 200
1742 201
1742 331
1742 506
1742 800
1742 1330
1742 1332
1743 175
1743 176
1743 179
1743 200
1743 201
1743 506
1743 644
1743 1034
1743 1744
1744 175
1744 176
1744 179
1744 185
1744 200
1744 201
1744 644
1744 911
1744 1034
1744 1743
1745 175
1745 176
1745 177
1745 179
1745 200
1745 201
1745 292
1745 302
1745 506
1745 2203
1746 56
1746 175
1746 192
1746 196
1746 200
1746 201
1746 323
1746 426
1746 430
1746 1747
1747 175
1747 197
1747 200
1747 201
1747 399
1747 528
1747 1746
1748 158
1748 168
1748 176
1748 200
1748 201
1748 460
1748 528
1749 176
1749 177
1749 179
1749 200
1749 201
1749 239
1749 340
1749 506
1749 799
1749 1063
1749 1141
1750 177
1750 179
1750 200
1750 201
1750 372
1750 388
1750 506
1750 2576
1751 177
1751 179
1751 201
1751 259
1751 263
1751 296
1751 1999
1751 3113
1752 177
1752 179
1752 200
1752 201
1752 506
1752 656
1752 701
1752 919
1752 1846
1753 177
1753 450
1753 563
1754 177
1754 561
1754 1642
1754 1754
1755 178
1756 179
1756 200
1756 201
1756 577
1756 586
1756 596
1756 618
1756 2645
1757 179
1757 200
1757 201
1757 643
1757 657
1757 702
1757 707
1757 1606
1757 2646
1758 181
1758 182
1758 184
1758 195
1758 196
1758 197
1758 198
1758 199
1758 200
1758 201
1758 2485
1758 2486
1758 2542
1758 2543
1758 2544
1758 2545
1759 181
1759 182
1759 184
1759 195
1759 196
1759 197
1759 198
1759 199
1759 200
1759 201
1759 2486
1759 2542
1759 2543
1759 2544
1759 2545
1760 181
1760 182
1760 184
1760 195
1760 196
1760 197
1760 198
1760 199
1760 200
1760 201
1760 1010
1760 1515
1760 1516
1760 1517
1760 1518
1761 183
1762 185
1762 201
1762 213
1762 297
1762 728
1762 746
1762 757
1762 758
1762 1698
1762 1933
1763 185
1763 192
1763 196
1763 199
1763 200
1763 201
1763 615
1763 845
1763 875
1763 876
1763 1700
1763 1842
1764 186
1764 201
1764 323
1764 430
1764 431
1765 186
1765 193
1766 45
1766 119
1766 121
1766 145
1766 147
1766 154
1766 181
1766 182
1766 184
1766 187
1766 195
1766 196
1766 197
1766 198
1766 199
1766 200
1766 201
1767 41
1767 119
1767 121
1767 145
1767 147
1767 154
1767 181
1767 182
1767 184
1767 187
1767 195
1767 196
1767 197
1767 198
1767 199
1767 200
1767 201
1768 188
1769 105
1769 181
1769 182
1769 184
1769 189
1769 192
1769 194
1769 197
1769 198
1769 200
1769 201
1769 754
1769 807
1769 1054
1769 1055
1769 1056
1769 1057
1769 1058
1769 1708
1770 120
1770 150
1770 161
1770 165
1770 166
1770 171
1770 180
1770 189
1770 448
1770 700
1770 733
1770 753
1770 759
1770 816
1770 820
1770 835
1770 893
1770 899
1770 2508
1770 2604
1770 2759
1770 2767
1770 2792
1770 2953
1770 3151
1770 3236
1770 3312
1771 189
1771 192
1771 194
1771 197
1771 198
1771 200
1771 201
1771 1028
1771 1033
1771 1038
1771 1042
1771 1528
1771 1787
1771 1824
1771 2484
1771 2485
1771 2730
1772 189
1772 191
1772 196
1772 199
1772 200
1772 201
1772 817
1772 820
1772 903
1772 1376
1772 1377
1772 1378
1773 92
1773 106
1773 107
1773 111
1773 113
1773 115
1773 128
1773 189
1773 192
1773 194
1773 196
1773 197
1773 198
1773 200
1773 201
1773 371
1773 392
1773 397
1773 410
1773 431
1773 436
1773 439
1773 443
1773 588
1773 879
1773 1049
1773 1050
1773 1152
1773 1172
1773 1225
1773 1264
1773 1307
1773 1323
1773 1344
1773 1374
1773 1470
1773 1491
1773 1502
1773 1529
1773 1563
1773 1788
1773 1825
1773 2003
1773 2169
1773 2313
1773 2343
1773 2391
1773 2432
1774 58
1774 189
1774 192
1774 194
1774 197
1774 198
1774 200
1774 201
1774 1394
1774 1395
1774 1397
1774 1398
1774 1399
1774 1401
1774 1402
1774 1531
1774 1789
1774 2735
1775 13
1775 189
1775 192
1775 194
1775 197
1775 198
1775 200
1775 201
1775 909
1775 917
1775 918
1775 920
1775 921
1775 922
1775 923
1775 924
1775 970
1775 1791
1776 189
1776 192
1776 194
1776 197
1776 198
1776 200
1776 201
1776 694
1776 939
1776 943
1776 954
1776 975
1776 999
1776 1780
1776 1827
1776 2276
1776 2520
1776 2521
1777 189
1777 192
1777 194
1777 197
1777 198
1777 200
1777 201
1777 579
1777 583
1777 614
1777 621
1777 983
1777 1022
1777 1027
1777 1032
1777 1041
1777 1048
1777 1796
1778 27
1778 189
1778 192
1778 194
1778 197
1778 198
1778 200
1778 201
1778 1088
1778 1089
1778 1090
1778 1091
1778 1092
1778 1093
1778 1094
1778 1095
1778 1524
1778 2921
1779 189
1779 192
1779 194
1779 197
1779 198
1779 200
1779 201
1779 483
1779 545
1779 960
1779 1011
1779 1013
1779 1014
1779 1015
1779 1016
1779 1017
1779 1018
1779 1480
1779 1481
1779 1713
1780 189
1780 190
1780 304
1780 490
1780 690
1780 694
1780 695
1780 939
1780 943
1780 954
1780 975
1780 999
1780 1776
1780 1827
1780 2276
1780 2520
1781 26
1781 189
1781 192
1781 194
1781 197
1781 198
1781 200
1781 201
1781 1037
1781 1051
1781 1074
1781 1075
1781 1076
1781 1077
1781 1078
1781 1079
1781 1532
1781 1799
1782 59
1782 189
1782 192
1782 194
1782 197
1782 198
1782 200
1782 201
1782 1046
1782 1052
1782 1409
1782 1410
1782 1411
1782 1412
1782 1413
1782 1638
1782 1801
1782 2092
1783 16
1783 189
1783 192
1783 194
1783 197
1783 198
1783 200
1783 201
1783 422
1783 708
1783 709
1783 719
1783 965
1783 1026
1783 1031
1783 1036
1783 1040
1783 1047
1784 189
1784 192
1784 194
1784 197
1784 198
1784 200
1784 201
1784 424
1784 940
1784 944
1784 955
1784 964
1784 966
1784 968
1784 974
1784 976
1784 1291
1784 1292
1785 36
1785 119
1785 121
1785 145
1785 147
1785 154
1785 181
1785 182
1785 184
1785 189
1785 195
1785 196
1785 197
1785 198
1785 199
1785 200
1785 201
1786 190
1786 201
1786 324
1786 344
1787 189
1787 190
1787 194
1787 197
1787 198
1787 200
1787 201
1787 1028
1787 1033
1787 1038
1787 1042
1787 1528
1787 1771
1787 1824
1787 2484
1787 2485
1787 2730
1788 92
1788 106
1788 107
1788 111
1788 113
1788 115
1788 128
1788 189
1788 190
1788 194
1788 196
1788 197
1788 198
1788 200
1788 201
1788 371
1788 392
1788 397
1788 410
1788 431
1788 436
1788 439
1788 443
1788 588
1788 879
1788 1049
1788 1050
1788 1152
1788 1172
1788 1225
1788 1264
1788 1307
1788 1323
1788 1344
1788 1374
1788 1470
1788 1491
1788 1502
1788 1529
1788 1563
1788 1773
1788 1825
1788 2003
1788 2169
1788 2313
1788 2343
1788 2391
1788 2432
1789 58
1789 189
1789 190
1789 194
1789 197
1789 198
1789 200
1789 201
1789 1394
1789 1395
1789 1397
1789 1398
1789 1399
1789 1401
1789 1402
1789 1531
1789 1774
1789 2735
1790 190
1790 201
1790 300
1790 461
1790 821
1790 929
1790 2257
1791 13
1791 189
1791 190
1791 194
1791 197
1791 198
1791 200
1791 201
1791 909
1791 917
1791 918
1791 920
1791 921
1791 922
1791 923
1791 924
1791 970
1791 1775
1792 190
1792 200
1792 201
1792 412
1792 413
1792 418
1792 592
1792 1724
1792 2578
1793 190
1793 201
1793 356
1793 425
1793 871
1794 50
1794 190
1794 200
1794 201
1795 190
1795 200
1795 201
1795 432
1795 539
1795 1725
1795 2007
1796 189
1796 190
1796 194
1796 197
1796 198
1796 200
1796 201
1796 579
1796 583
1796 614
1796 621
1796 983
1796 1022
1796 1027
1796 1032
1796 1041
1796 1048
1796 1777
1797 190
1797 200
1797 201
1797 2110
1797 2117
1797 2565
1798 47
1798 190
1798 200
1798 201
1798 531
1798 870
1798 1184
1798 2677
1799 26
1799 189
1799 190
1799 194
1799 197
1799 198
1799 200
1799 201
1799 1037
1799 1051
1799 1074
1799 1075
1799 1076
1799 1077
1799 1078
1799 1079
1799 1532
1799 1781
1800 51
1800 190
1800 200
1800 201
1801 59
1801 189
1801 190
1801 194
1801 197
1801 198
1801 200
1801 201
1801 1046
1801 1052
1801 1409
1801 1410
1801 1411
1801 1412
1801 1413
1801 1638
1801 1782
1801 2092
1802 190
1802 201
1802 448
1802 472
1802 706
1802 2620
1803 191
1803 200
1803 201
1803 766
1803 767
1803 864
1803 878
1803 893
1803 1252
1803 1272
1804 191
1804 196
1804 198
1804 199
1804 200
1804 201
1804 3278
1804 3442
1804 3443
1805 191
1805 196
1805 198
1805 199
1805 200
1805 201
1805 1805
1805 1830
1805 3000
1806 191
1806 200
1806 201
1806 817
1806 820
1806 903
1806 1367
1806 1376
1806 1377
1806 1378
1807 191
1807 200
1807 201
1807 752
1807 755
1807 899
1807 900
1807 901
1807 1685
1807 1696
1808 192
1808 200
1808 201
1808 246
1808 253
1808 254
1808 317
1808 319
1808 320
1808 399
1808 789
1809 89
1809 192
1809 200
1809 251
1809 524
1809 775
1809 791
1809 792
1809 1546
1809 1809
1810 192
1810 316
1810 317
1810 319
1810 320
1810 572
1810 1623
1810 1810
1810 2304
1811 192
1811 194
1811 197
1811 211
1811 317
1811 319
1811 320
1811 908
1812 192
1812 317
1812 319
1812 320
1813 192
1813 317
1813 319
1813 320
1813 1813
1814 192
1814 200
1814 201
1814 652
1814 653
1814 2310
1814 2313
1814 2732
1814 2733
1815 70
1815 192
1815 200
1815 201
1815 663
1815 671
1815 1500
1815 1502
1815 3061
1816 69
1816 192
1816 201
1816 290
1816 680
1816 825
1816 826
1816 827
1816 1484
1816 1485
1816 1490
1816 2589
1816 2683
1817 47
1817 192
1817 201
1817 549
1817 1187
1818 192
1818 201
1818 270
1818 402
1818 2113
1819 65
1819 112
1819 192
1819 201
1819 741
1819 768
1819 769
1819 770
1819 862
1819 1455
1820 192
1820 197
1820 201
1820 495
1820 1820
1821 193
1821 196
1821 199
1821 200
1821 201
1822 194
1822 197
1822 201
1822 253
1822 460
1823 168
1823 194
1823 197
1823 201
1823 460
1823 1556
1824 194
1824 197
1824 198
1824 200
1824 201
1824 1028
1824 1033
1824 1038
1824 1042
1824 1528
1824 1771
1824 1787
1824 1824
1824 2484
1824 2485
1824 2730
1825 92
1825 106
1825 107
1825 111
1825 113
1825 115
1825 128
1825 194
1825 196
1825 197
1825 198
1825 200
1825 201
1825 371
1825 392
1825 397
1825 410
1825 431
1825 436
1825 439
1825 443
1825 588
1825 879
1825 1049
1825 1050
1825 1152
1825 1172
1825 1225
1825 1264
1825 1307
1825 1323
1825 1344
1825 1374
1825 1470
1825 1491
1825 1502
1825 1529
1825 1563
1825 1773
1825 1788
1825 2003
1825 2169
1825 2313
1825 2343
1825 2391
1825 2432
1826 194
1826 196
1826 199
1826 200
1826 201
1826 865
1826 867
1826 1162
1826 1436
1826 1664
1826 2604
1826 2751
1827 194
1827 197
1827 198
1827 199
1827 200
1827 201
1827 629
1827 694
1827 939
1827 943
1827 954
1827 975
1827 999
1827 1776
1827 1780
1827 2276
1827 2520
1827 2521
1828 194
1828 197
1828 198
1828 199
1828 200
1828 201
1828 226
1828 341
1828 342
1828 394
1828 969
1828 972
1828 977
1828 1628
1828 1833
1828 1939
1828 2421
1828 2422
1828 2423
1828 2424
1828 2425
1828 2426
1828 2428
1828 2429
1829 194
1829 200
1829 495
1829 1900
1829 2632
1830 191
1830 195
1830 196
1830 198
1830 199
1830 200
1830 201
1830 1805
1830 3000
1831 195
1831 197
1831 198
1831 200
1831 201
1831 1001
1831 1003
1831 1006
1831 2310
1831 2313
1831 2733
1831 2877
1831 2878
1831 2879
1832 195
1832 291
1832 1560
1833 195
1833 197
1833 198
1833 200
1833 201
1833 226
1833 341
1833 342
1833 361
1833 394
1833 397
1833 413
1833 969
1833 972
1833 977
1833 1628
1833 1828
1833 1939
1833 2427
1833 2554
1834 196
1834 199
1834 200
1834 201
1834 463
1834 1110
1835 196
1835 199
1835 200
1835 201
1835 247
1835 248
1835 883
1835 884
1835 1072
1835 1837
1835 1838
1835 1984
1835 2827
1836 196
1836 199
1836 200
1836 201
1836 1062
1836 2528
1836 2533
1836 2534
1836 2538
1836 2539
1836 2540
1836 2541
1836 2830
1836 2857
1837 72
1837 82
1837 155
1837 196
1837 199
1837 200
1837 201
1837 247
1837 248
1837 883
1837 884
1837 1072
1837 1835
1837 1838
1837 1984
1837 2827
1838 133
1838 196
1838 199
1838 200
1838 201
1838 247
1838 248
1838 883
1838 884
1838 1072
1838 1835
1838 1837
1838 1984
1838 2827
1839 196
1839 199
1839 200
1839 201
1839 3261
1839 3272
1839 3274
1840 196
1840 199
1840 200
1840 201
1840 3263
1841 50
1841 196
1841 199
1841 200
1841 201
1841 1209
1841 1216
1841 1228
1841 1234
1841 1235
1841 1236
1841 1618
1841 2833
1841 2859
1842 196
1842 199
1842 200
1842 201
1842 615
1842 699
1842 845
1842 875
1842 876
1842 877
1842 1700
1842 1763
1843 51
1843 196
1843 199
1843 200
1843 201
1843 1247
1843 1255
1843 1267
1843 1273
1843 1274
1843 1275
1843 1619
1843 2834
1843 2860
1844 158
1844 196
1844 199
1844 200
1844 201
1844 774
1844 779
1844 796
1844 831
1844 836
1844 1260
1845 197
1845 200
1845 201
1845 253
1845 691
1845 692
1845 703
1845 704
1845 705
1846 197
1846 200
1846 201
1846 365
1846 552
1846 656
1846 701
1846 919
1846 1364
1846 1752
1846 1901
1847 197
1847 553
1847 555
1847 838
1847 2308
1848 197
1848 343
1848 651
1848 1848
1849 197
1849 201
1849 451
1849 1906
1850 197
1850 200
1850 273
1850 564
1850 582
1850 603
1850 613
1850 631
1851 54
1851 198
1851 201
1851 1338
1851 1347
1852 198
1852 201
1852 378
1852 2134
1852 2501
1853 37
1853 198
1853 201
1853 408
1853 920
1854 198
1854 201
1854 300
1854 409
1854 2259
1855 47
1855 198
1855 201
1855 1188
1855 1189
1856 198
1856 201
1856 449
1856 1857
1856 1858
1857 89
1857 196
1857 198
1857 199
1857 200
1857 201
1857 449
1857 1856
1857 1858
1858 174
1858 198
1858 201
1858 449
1858 1856
1858 1857
1859 199
1859 200
1859 201
1859 219
1859 312
1859 323
1859 387
1859 1665
1859 2319
1860 199
1860 201
1860 2310
1860 2843
1860 2844
1861 199
1861 200
1861 201
1861 366
1861 2310
1862 92
1862 101
1862 196
1862 199
1862 200
1862 201
1862 243
1862 258
1862 285
1862 323
1862 371
1862 392
1862 397
1862 410
1862 431
1862 436
1862 439
1862 443
1862 588
1862 879
1862 927
1862 928
1862 1152
1862 1172
1862 1225
1862 1264
1862 1307
1862 1323
1862 1344
1862 1374
1862 1470
1862 1491
1862 1502
1862 1561
1862 1617
1862 2003
1862 2169
1862 2313
1862 2343
1862 2391
1862 2432
1862 2832
1863 199
1863 200
1863 201
1863 458
1863 498
1863 500
1864 50
1864 199
1864 201
1864 1237
1864 1910
1865 50
1865 199
1865 200
1865 201
1865 1238
1866 199
1866 201
1866 297
1866 326
1867 4
1867 69
1867 199
1867 200
1867 201
1867 442
1867 483
1867 484
1867 1489
1868 199
1868 200
1868 201
1868 303
1868 323
1868 500
1868 547
1869 51
1869 199
1869 201
1869 1276
1869 1914
1870 51
1870 199
1870 200
1870 201
1870 1277
1871 52
1871 199
1871 200
1871 201
1871 1300
1872 199
1872 200
1872 201
1872 323
1872 500
1872 591
1872 629
1873 122
1873 144
1873 200
1874 200
1874 201
1874 573
1874 607
1875 200
1875 201
1875 517
1875 518
1875 946
1875 947
1875 950
1875 952
1875 956
1875 994
1875 995
1875 1736
1876 200
1876 201
1876 247
1876 321
1876 1986
1877 190
1877 200
1877 201
1877 2310
1878 190
1878 200
1878 201
1878 662
1878 1908
1878 2134
1878 2136
1879 64
1879 146
1879 200
1879 201
1879 522
1879 523
1879 1545
1879 3092
1879 3093
1879 3094
1879 3095
1879 3096
1879 3097
1879 3098
1880 200
1880 201
1880 598
1880 717
1880 721
1880 724
1880 729
1880 1880
1881 200
1881 201
1881 255
1881 256
1881 413
1881 598
1881 717
1881 721
1881 724
1881 729
1881 896
1882 200
1882 201
1882 372
1882 388
1882 413
1883 190
1883 200
1883 201
1883 286
1883 2144
1884 169
1884 173
1884 200
1884 201
1884 437
1885 200
1885 201
1885 304
1885 697
1885 698
1885 797
1885 833
1886 200
1886 201
1886 503
1886 520
1886 543
1886 951
1886 1728
1887 200
1887 201
1887 300
1887 599
1887 603
1887 677
1887 821
1887 822
1887 823
1887 824
1888 200
1888 201
1888 599
1888 677
1888 822
1888 823
1888 824
1889 69
1889 200
1889 201
1889 442
1889 483
1889 484
1890 69
1890 200
1890 201
1890 480
1890 483
1890 484
1890 545
1890 546
1891 53
1891 200
1891 201
1891 487
1891 488
1891 686
1892 200
1892 201
1892 317
1892 489
1892 681
1892 682
1892 683
1892 684
1892 1318
1893 200
1893 201
1893 317
1893 477
1893 489
1893 683
1894 200
1894 201
1894 304
1894 486
1894 784
1894 785
1894 788
1894 814
1894 1537
1894 2684
1895 200
1895 201
1895 207
1895 304
1895 480
1895 694
1895 695
1895 696
1895 985
1896 173
1896 200
1896 201
1896 268
1896 590
1896 1726
1896 2659
1897 200
1897 201
1897 356
1897 1898
1897 1899
1898 200
1898 201
1898 356
1898 371
1898 701
1898 906
1898 1897
1898 1899
1898 2464
1899 200
1899 201
1899 356
1899 371
1899 906
1899 1897
1899 1898
1899 2466
1900 200
1900 201
1900 495
1900 556
1900 710
1900 1829
1900 2632
1901 197
1901 200
1901 201
1901 399
1901 552
1901 1364
1901 1846
1902 201
1902 3283
1903 201
1903 445
1903 554
1903 556
1903 557
1903 710
1903 2562
1904 201
1904 1069
1904 2134
1904 2135
1905 201
1905 1273
1905 1276
1906 201
1906 417
1906 450
1906 451
1906 1849
1907 201
1907 1541
1907 1547
1907 1738
1907 3267
1908 201
1908 662
1908 1878
1908 2134
1908 2135
1908 2136
1909 201
1909 417
1909 450
1909 451
1909 1624
1910 50
1910 201
1910 1234
1910 1864
1911 201
1911 300
1911 610
1911 611
1911 637
1911 641
1911 645
1911 660
1911 1689
1912 69
1912 201
1912 400
1912 442
1912 1491
1913 201
1913 266
1913 492
1913 619
1913 700
1913 1691
1913 1692
1913 1701
1913 1913
1914 51
1914 201
1914 1273
1914 1869
1915 202
1916 203
1916 215
1916 217
1917 203
1917 249
1918 203
1919 204
1920 205
1921 201
1921 206
1921 264
1921 2025
1921 2026
1921 2030
1921 2570
1921 3116
1922 201
1922 206
1922 264
1922 480
1922 540
1922 541
1922 1530
1923 206
1924 207
1925 208
1926 209
1927 210
1928 210
1928 465
1928 466
1928 467
1928 470
1928 1622
1929 211
1930 56
1930 120
1930 150
1930 166
1930 171
1930 180
1930 211
1930 323
1930 834
1930 840
1930 841
1930 842
1931 197
1931 211
1931 271
1931 527
1931 538
1931 553
1932 212
1933 64
1933 177
1933 201
1933 213
1933 297
1933 326
1933 359
1933 668
1933 728
1933 746
1933 757
1933 759
1933 1698
1933 1762
1934 189
1934 191
1934 196
1934 199
1934 200
1934 201
1934 213
1934 728
1934 746
1934 759
1934 902
1934 1552
1934 1698
1935 213
1936 191
1936 200
1936 201
1936 213
1936 728
1936 746
1936 759
1936 902
1936 1552
1936 1698
1937 214
1938 215
1939 195
1939 197
1939 200
1939 201
1939 216
1939 341
1939 342
1939 361
1939 394
1939 397
1939 413
1939 421
1939 912
1939 969
1939 972
1939 973
1939 977
1939 1628
1939 1828
1939 1833
1939 1954
1940 201
1940 216
1940 421
1940 423
1940 1941
1941 174
1941 201
1941 216
1941 421
1941 423
1941 1940
1942 216
1943 217
1944 218
1945 219
1946 1947
1947 198
1947 201
1947 221
1947 269
1947 1946
1947 2092
1947 2107
1948 201
1948 221
1948 269
1948 2091
1948 2094
1948 2098
1948 3118
1949 221
1950 222
1951 3014
1952 224
1953 225
1954 226
1954 341
1954 342
1954 1939
1955 226
1956 227
1957 228
1958 229
1959 230
1960 231
1960 318
1960 346
1960 1182
1961 231
1962 232
1963 194
1963 197
1963 198
1963 199
1963 200
1963 201
1963 233
1963 350
1963 351
1963 352
1963 963
1963 1102
1963 1103
1963 1104
1963 1105
1963 1107
1963 1325
1963 2438
1963 2439
1963 2440
1963 2441
1963 2442
1963 2443
1964 233
1964 350
1964 351
1964 352
1965 233
1966 234
1967 235
1968 236
1969 237
1970 238
1971 239
1972 240
1973 197
1973 201
1973 240
1973 246
1974 241
1975 242
1976 201
1976 243
1977 244
1977 358
1978 244
1978 358
1978 362
1978 399
1978 460
1978 634
1978 639
1979 201
1979 246
1980 197
1980 201
1980 246
1980 357
1981 200
1981 201
1981 247
1981 308
1982 201
1982 247
1983 247
1983 3120
1984 196
1984 199
1984 200
1984 201
1984 247
1984 248
1984 883
1984 884
1984 926
1984 1072
1984 1835
1984 1837
1984 1838
1984 2827
1985 200
1985 201
1985 247
1985 321
1986 201
1986 247
1986 1876
1987 201
1987 248
1988 201
1988 248
1988 2177
1989 249
1990 201
1990 250
1991 201
1991 251
1991 252
1991 524
1991 791
1991 792
1992 251
1992 252
1993 200
1993 201
1993 253
1993 254
1994 253
1994 254
1995 201
1995 255
1996 201
1996 256
1997 201
1997 257
1998 201
1998 258
1999 259
1999 1751
2000 201
2000 259
2000 405
2000 2003
2000 2013
2001 200
2001 201
2001 259
2001 405
2001 2002
2001 2003
2001 2004
2001 2849
2001 3113
2001 3121
2002 192
2002 200
2002 201
2002 259
2002 405
2002 2001
2002 2003
2002 2849
2002 3113
2003 93
2003 96
2003 97
2003 98
2003 99
2003 101
2003 106
2003 107
2003 108
2003 110
2003 111
2003 113
2003 115
2003 117
2003 123
2003 124
2003 125
2003 126
2003 127
2003 128
2003 134
2003 135
2003 137
2003 138
2003 144
2003 145
2003 146
2003 147
2003 148
2003 154
2003 157
2003 161
2003 162
2003 164
2003 167
2003 168
2003 169
2003 170
2003 175
2003 176
2003 179
2003 180
2003 181
2003 182
2003 184
2003 185
2003 192
2003 193
2003 194
2003 195
2003 197
2003 198
2003 199
2003 200
2003 201
2003 218
2003 224
2003 241
2003 258
2003 259
2003 271
2003 391
2003 432
2003 459
2003 500
2003 513
2003 547
2003 553
2003 558
2003 691
2003 692
2003 772
2003 843
2003 901
2003 907
2003 927
2003 1049
2003 1050
2003 1161
2003 1311
2003 1359
2003 1529
2003 1773
2003 1788
2003 1825
2003 1862
2003 2000
2003 2001
2003 2002
2003 2004
2003 2010
2003 2011
2003 2012
2003 2013
2003 2014
2003 2015
2003 3113
2004 132
2004 195
2004 197
2004 198
2004 200
2004 201
2004 259
2004 405
2004 978
2004 980
2004 2001
2004 2003
2004 2006
2004 2010
2004 2011
2004 2012
2004 2013
2004 2874
2004 3122
2005 259
2005 405
2005 432
2005 433
2005 664
2005 665
2005 980
2005 2006
2005 2007
2005 2738
2005 2739
2005 2740
2005 2741
2005 2742
2005 2743
2006 198
2006 200
2006 201
2006 259
2006 432
2006 664
2006 665
2006 980
2006 2004
2006 2005
2006 2007
2006 2010
2006 2011
2006 2012
2006 2013
2006 2014
2006 2015
2006 2738
2006 2739
2006 2740
2006 2741
2006 2742
2006 2743
2006 2874
2007 173
2007 259
2007 405
2007 432
2007 433
2007 664
2007 665
2007 980
2007 1795
2007 2005
2007 2006
2007 2738
2007 2739
2007 2740
2007 2741
2007 2742
2007 2743
2008 200
2008 201
2008 259
2008 433
2008 480
2008 664
2008 665
2008 667
2008 978
2009 115
2009 200
2009 201
2009 259
2009 433
2009 480
2009 664
2009 665
2009 667
2009 978
2010 195
2010 197
2010 198
2010 200
2010 201
2010 259
2010 405
2010 978
2010 980
2010 2003
2010 2004
2010 2006
2010 2011
2010 2012
2010 2013
2010 2872
2010 2873
2010 2874
2011 91
2011 130
2011 133
2011 140
2011 141
2011 142
2011 143
2011 146
2011 153
2011 158
2011 160
2011 165
2011 167
2011 168
2011 170
2011 173
2011 180
2011 193
2011 195
2011 197
2011 198
2011 200
2011 201
2011 241
2011 251
2011 259
2011 343
2011 405
2011 552
2011 978
2011 980
2011 1053
2011 1171
2011 2003
2011 2004
2011 2006
2011 2010
2011 2011
2011 2012
2011 2013
2011 2014
2011 2015
2011 2872
2011 2873
2011 2874
2012 141
2012 195
2012 197
2012 198
2012 200
2012 201
2012 259
2012 405
2012 978
2012 980
2012 2003
2012 2004
2012 2006
2012 2010
2012 2011
2012 2013
2012 2014
2012 2015
2012 2872
2012 2873
2012 2874
2013 195
2013 197
2013 200
2013 201
2013 259
2013 405
2013 433
2013 978
2013 980
2013 2000
2013 2003
2013 2004
2013 2006
2013 2010
2013 2011
2013 2012
2013 2014
2013 2015
2013 2872
2013 2873
2013 2874
2014 195
2014 197
2014 198
2014 200
2014 201
2014 259
2014 405
2014 978
2014 980
2014 2003
2014 2006
2014 2011
2014 2012
2014 2013
2014 2014
2014 2874
2015 195
2015 197
2015 198
2015 200
2015 201
2015 259
2015 405
2015 978
2015 980
2015 2003
2015 2006
2015 2011
2015 2012
2015 2013
2015 2874
2016 201
2016 259
2016 296
2017 260
2017 347
2018 201
2018 261
2019 201
2019 262
2020 263
2020 296
2021 120
2021 150
2021 161
2021 165
2021 166
2021 171
2021 180
2021 189
2021 264
2021 410
2021 700
2021 733
2021 753
2021 759
2021 816
2021 820
2021 835
2021 893
2021 899
2021 2032
2021 2508
2021 2759
2021 2767
2021 2792
2021 2953
2021 3151
2021 3236
2021 3312
2022 173
2022 201
2022 264
2022 509
2022 2026
2022 2030
2022 3116
2023 201
2023 264
2023 2024
2023 2025
2023 2027
2024 166
2024 201
2024 264
2024 2023
2024 2025
2024 2027
2024 2031
2024 2033
2024 2034
2025 201
2025 264
2025 1921
2025 2023
2025 2024
2025 2027
2025 2031
2025 2033
2025 2034
2026 23
2026 24
2026 25
2026 201
2026 264
2026 1921
2026 2022
2026 2570
2027 165
2027 201
2027 264
2027 2023
2027 2024
2027 2025
2027 2031
2027 2033
2027 2034
2028 201
2028 264
2028 2029
2029 264
2029 2028
2030 201
2030 264
2030 509
2030 1921
2030 2022
2030 2031
2030 3116
2030 3123
2031 150
2031 171
2031 201
2031 264
2031 2024
2031 2025
2031 2027
2031 2030
2032 158
2032 196
2032 199
2032 200
2032 201
2032 264
2032 311
2032 689
2032 2021
2032 2816
2032 3123
2032 3124
2032 3125
2032 3126
2032 3127
2032 3128
2032 3129
2033 201
2033 264
2033 2024
2033 2025
2033 2027
2033 2033
2033 2034
2034 165
2034 171
2034 201
2034 264
2034 2024
2034 2025
2034 2027
2034 2033
2035 195
2035 197
2035 198
2035 200
2035 201
2035 264
2035 367
2035 398
2035 410
2035 1005
2035 1043
2035 1045
2035 2036
2035 2037
2035 2038
2035 2039
2035 2561
2035 2885
2035 2886
2035 2887
2036 91
2036 130
2036 133
2036 140
2036 141
2036 142
2036 143
2036 146
2036 153
2036 158
2036 160
2036 165
2036 167
2036 168
2036 170
2036 173
2036 180
2036 193
2036 195
2036 197
2036 198
2036 200
2036 201
2036 241
2036 251
2036 264
2036 343
2036 367
2036 398
2036 410
2036 552
2036 1005
2036 1043
2036 1045
2036 1053
2036 1171
2036 2035
2036 2036
2036 2037
2036 2038
2036 2039
2036 2040
2036 2041
2036 2561
2036 2885
2036 2886
2036 2887
2037 141
2037 195
2037 197
2037 198
2037 200
2037 201
2037 264
2037 367
2037 398
2037 410
2037 1005
2037 1043
2037 1045
2037 2035
2037 2036
2037 2038
2037 2039
2037 2040
2037 2041
2037 2561
2037 2885
2037 2886
2037 2887
2038 195
2038 197
2038 200
2038 201
2038 264
2038 367
2038 398
2038 410
2038 1005
2038 1043
2038 1045
2038 2035
2038 2036
2038 2037
2038 2039
2038 2040
2038 2041
2038 2494
2038 2561
2038 2885
2038 2886
2038 2887
2039 132
2039 195
2039 197
2039 198
2039 200
2039 201
2039 264
2039 367
2039 398
2039 410
2039 1005
2039 1043
2039 1045
2039 2035
2039 2036
2039 2037
2039 2038
2039 2561
2039 3130
2040 195
2040 197
2040 198
2040 200
2040 201
2040 264
2040 367
2040 410
2040 1005
2040 1043
2040 1045
2040 2036
2040 2037
2040 2038
2040 2040
2040 2561
2041 195
2041 197
2041 198
2041 200
2041 201
2041 264
2041 367
2041 410
2041 1005
2041 1043
2041 1045
2041 2036
2041 2037
2041 2038
2041 2561
2042 265
2042 306
2043 201
2043 266
2043 491
2043 492
2043 493
2043 550
2044 173
2044 201
2044 266
2044 2045
2044 2048
2044 2054
2044 3131
2045 173
2045 200
2045 201
2045 266
2045 2044
2045 2054
2045 3131
2046 192
2046 201
2046 266
2046 2047
2046 2048
2047 201
2047 266
2047 619
2047 2046
2047 2048
2047 2053
2047 2054
2047 3131
2048 23
2048 24
2048 25
2048 201
2048 266
2048 2044
2048 2046
2048 2047
2049 198
2049 201
2049 266
2049 2051
2049 2053
2050 201
2050 266
2050 2052
2051 201
2051 266
2051 2049
2051 2051
2051 2053
2052 266
2052 2050
2053 201
2053 266
2053 2047
2053 2049
2053 2051
2054 201
2054 266
2054 2044
2054 2045
2054 2047
2054 2055
2054 2694
2054 3131
2055 150
2055 171
2055 201
2055 266
2055 619
2055 1692
2055 1701
2055 2054
2056 199
2056 200
2056 201
2056 266
2056 493
2057 173
2057 201
2057 267
2057 2059
2057 2069
2057 2912
2057 3132
2058 201
2058 267
2058 404
2058 478
2058 1071
2058 2059
2059 201
2059 267
2059 1071
2059 2057
2059 2058
2059 2061
2059 2068
2059 2069
2060 166
2060 201
2060 267
2060 2061
2060 2063
2060 2070
2060 2071
2060 2072
2060 2073
2061 201
2061 267
2061 2059
2061 2060
2061 2063
2061 2070
2061 2071
2061 2072
2061 2073
2062 201
2062 267
2062 547
2062 2074
2062 2075
2063 165
2063 201
2063 267
2063 2060
2063 2061
2063 2070
2063 2071
2063 2072
2063 2073
2064 198
2064 201
2064 267
2064 2066
2064 2068
2065 201
2065 267
2065 2067
2066 201
2066 267
2066 2064
2066 2066
2066 2068
2067 267
2067 2065
2068 201
2068 267
2068 2059
2068 2064
2068 2066
2069 201
2069 267
2069 2057
2069 2059
2069 2070
2069 2912
2069 3091
2069 3132
2070 150
2070 171
2070 201
2070 267
2070 2060
2070 2061
2070 2063
2070 2069
2071 201
2071 267
2071 2060
2071 2061
2071 2063
2072 201
2072 267
2072 2060
2072 2061
2072 2063
2072 2072
2072 2073
2073 165
2073 171
2073 201
2073 267
2073 2060
2073 2061
2073 2063
2073 2072
2074 201
2074 267
2074 2062
2074 2074
2075 201
2075 267
2075 2062
2076 192
2076 201
2076 268
2076 536
2076 1070
2077 166
2077 201
2077 268
2077 2078
2077 2079
2077 2085
2077 2086
2077 2087
2077 2088
2078 201
2078 268
2078 536
2078 2077
2078 2079
2078 2085
2078 2086
2078 2087
2078 2088
2079 165
2079 201
2079 268
2079 2077
2079 2078
2079 2085
2079 2086
2079 2087
2079 2088
2080 198
2080 201
2080 268
2080 2082
2080 2084
2081 201
2081 268
2081 2083
2082 201
2082 268
2082 2080
2082 2082
2082 2084
2083 268
2083 2081
2084 201
2084 268
2084 536
2084 2080
2084 2082
2085 150
2085 171
2085 201
2085 268
2085 590
2085 2077
2085 2078
2085 2079
2086 201
2086 268
2086 2077
2086 2078
2086 2079
2087 201
2087 268
2087 2077
2087 2078
2087 2079
2087 2087
2087 2088
2088 165
2088 171
2088 201
2088 268
2088 2077
2088 2078
2088 2079
2088 2087
2089 120
2089 150
2089 161
2089 165
2089 166
2089 171
2089 180
2089 189
2089 269
2089 270
2089 443
2089 700
2089 733
2089 753
2089 759
2089 816
2089 820
2089 835
2089 893
2089 899
2089 1545
2089 2508
2089 2759
2089 2767
2089 2792
2089 2953
2089 3151
2089 3236
2089 3312
2090 173
2090 201
2090 269
2090 2094
2090 2098
2090 3118
2090 3133
2091 192
2091 201
2091 269
2091 1948
2091 2094
2092 59
2092 147
2092 198
2092 200
2092 201
2092 269
2092 315
2092 1046
2092 1052
2092 1409
2092 1410
2092 1411
2092 1412
2092 1413
2092 1638
2092 1782
2092 1801
2092 1947
2093 166
2093 201
2093 269
2093 551
2093 2095
2093 2099
2093 2100
2093 2101
2093 2102
2094 23
2094 24
2094 25
2094 201
2094 269
2094 1948
2094 2090
2094 2091
2095 165
2095 201
2095 269
2095 551
2095 2093
2095 2099
2095 2100
2095 2101
2095 2102
2096 201
2096 269
2096 2097
2097 269
2097 2096
2098 201
2098 269
2098 1948
2098 2090
2098 2099
2098 3098
2098 3118
2098 3133
2099 150
2099 171
2099 201
2099 269
2099 551
2099 2093
2099 2095
2099 2098
2100 201
2100 269
2100 551
2100 2093
2100 2095
2101 201
2101 269
2101 551
2101 2093
2101 2095
2101 2101
2101 2102
2102 165
2102 171
2102 201
2102 269
2102 551
2102 2093
2102 2095
2102 2101
2103 201
2103 269
2103 446
2104 59
2104 195
2104 197
2104 198
2104 200
2104 201
2104 269
2104 443
2104 446
2104 1046
2104 1052
2104 1414
2104 1418
2104 2105
2104 2106
2104 2107
2104 3052
2105 59
2105 91
2105 130
2105 133
2105 140
2105 141
2105 142
2105 143
2105 146
2105 153
2105 158
2105 160
2105 165
2105 167
2105 168
2105 170
2105 173
2105 180
2105 193
2105 195
2105 197
2105 198
2105 200
2105 201
2105 241
2105 251
2105 269
2105 343
2105 443
2105 446
2105 552
2105 1046
2105 1052
2105 1053
2105 1171
2105 1414
2105 1418
2105 2104
2105 2105
2105 2106
2105 2107
2105 2108
2105 2109
2105 3052
2106 59
2106 141
2106 195
2106 197
2106 198
2106 200
2106 201
2106 269
2106 443
2106 446
2106 1046
2106 1052
2106 1414
2106 1418
2106 2104
2106 2105
2106 2107
2106 2108
2106 2109
2106 3052
2107 59
2107 195
2107 197
2107 200
2107 201
2107 269
2107 443
2107 446
2107 1046
2107 1052
2107 1414
2107 1418
2107 1947
2107 2104
2107 2105
2107 2106
2107 2108
2107 2109
2107 2590
2107 3052
2108 59
2108 195
2108 197
2108 198
2108 200
2108 201
2108 269
2108 443
2108 446
2108 1046
2108 1052
2108 1418
2108 2105
2108 2106
2108 2107
2108 2108
2109 59
2109 195
2109 197
2109 198
2109 200
2109 201
2109 269
2109 443
2109 446
2109 1046
2109 1052
2109 1418
2109 2105
2109 2106
2109 2107
2110 173
2110 201
2110 270
2110 1797
2110 2113
2110 2117
2110 2565
2111 166
2111 201
2111 270
2111 2112
2111 2114
2111 2118
2111 2119
2111 2120
2111 2121
2112 201
2112 270
2112 402
2112 2111
2112 2114
2112 2118
2112 2119
2112 2120
2112 2121
2113 23
2113 24
2113 25
2113 201
2113 270
2113 402
2113 1818
2113 2110
2114 165
2114 201
2114 270
2114 2111
2114 2112
2114 2118
2114 2119
2114 2120
2114 2121
2115 201
2115 270
2115 2116
2116 270
2116 2115
2117 201
2117 270
2117 402
2117 1797
2117 2110
2117 2118
2117 2565
2117 3098
2118 150
2118 171
2118 201
2118 270
2118 2111
2118 2112
2118 2114
2118 2117
2119 201
2119 270
2119 2111
2119 2112
2119 2114
2120 201
2120 270
2120 2111
2120 2112
2120 2114
2120 2120
2120 2121
2121 165
2121 171
2121 201
2121 270
2121 2111
2121 2112
2121 2114
2121 2120
2122 201
2122 270
2122 447
2123 271
2123 406
2124 271
2125 272
2125 1165
2126 273
2126 631
2127 201
2127 274
2127 306
2128 67
2128 197
2128 275
2129 67
2129 275
2129 511
2129 512
2129 2298
2129 2497
2130 201
2130 248
2130 276
2131 67
2131 197
2131 277
2132 39
2132 67
2132 197
2132 277
2133 201
2133 2538
2133 2907
2134 201
2134 278
2134 378
2134 535
2134 662
2134 1069
2134 1539
2134 1588
2134 1647
2134 1681
2134 1694
2134 1852
2134 1878
2134 1904
2134 1908
2134 2135
2134 2136
2134 2501
2134 2656
2134 2657
2134 2658
2134 3134
2135 201
2135 278
2135 378
2135 535
2135 662
2135 1069
2135 1904
2135 1908
2135 2134
2136 201
2136 278
2136 662
2136 1069
2136 1878
2136 1908
2136 2134
2137 67
2137 197
2137 279
2138 280
2138 293
2138 304
2139 67
2139 197
2139 281
2140 282
2140 649
2140 1660
2141 149
2141 151
2141 152
2141 172
2141 178
2141 187
2141 190
2141 200
2141 201
2141 859
2141 1644
2141 2310
2141 2313
2141 2316
2141 2373
2141 2375
2141 2733
2141 2824
2142 187
2142 190
2142 200
2142 201
2142 289
2142 2432
2142 2435
2142 3264
2142 3269
2142 3279
2142 3280
2142 3381
2142 3382
2142 3383
2143 195
2143 291
2143 3136
2144 120
2144 150
2144 161
2144 165
2144 166
2144 171
2144 180
2144 286
2144 700
2144 733
2144 753
2144 759
2144 816
2144 820
2144 835
2144 893
2144 899
2144 1883
2144 2152
2144 2154
2144 2169
2144 2177
2144 2178
2144 2508
2144 2759
2144 2767
2144 2792
2144 2953
2144 3136
2144 3151
2144 3236
2144 3312
2145 174
2145 201
2145 284
2146 201
2146 285
2147 174
2147 201
2147 285
2148 285
2148 3137
2149 201
2149 285
2149 323
2149 2151
2149 2322
2150 201
2150 285
2150 323
2150 2322
2151 201
2151 285
2151 2149
2152 286
2152 2144
2152 2153
2152 2154
2153 201
2153 286
2153 2152
2153 2158
2153 2160
2153 2166
2153 2169
2153 2172
2153 2173
2153 2179
2153 2180
2153 2181
2153 2182
2153 2831
2153 2858
2153 3138
2154 201
2154 286
2154 2144
2154 2152
2154 2179
2155 131
2155 137
2155 159
2155 169
2155 187
2155 189
2155 192
2155 195
2155 196
2155 198
2155 199
2155 200
2155 201
2155 286
2155 502
2155 2166
2155 2167
2155 2168
2155 2178
2155 3139
2155 3140
2156 77
2156 194
2156 197
2156 198
2156 200
2156 201
2156 286
2156 2171
2156 3141
2156 3142
2156 3143
2156 3144
2156 3145
2156 3146
2156 3147
2156 3148
2156 3149
2157 73
2157 80
2157 81
2157 83
2157 85
2157 134
2157 135
2157 138
2157 161
2157 174
2157 185
2157 196
2157 199
2157 200
2157 201
2157 224
2157 286
2157 317
2157 834
2157 946
2157 2178
2157 3140
2157 3150
2157 3151
2157 3152
2157 3153
2157 3154
2157 3155
2157 3156
2158 201
2158 286
2158 491
2158 2153
2158 2166
2158 2167
2158 2168
2158 2170
2158 2172
2158 2173
2158 2174
2158 2175
2158 2176
2158 2177
2158 2178
2158 2179
2158 2180
2158 2181
2158 2182
2158 2186
2158 2188
2158 2189
2158 2190
2158 2191
2158 2192
2158 2193
2158 2194
2158 2831
2158 2858
2158 3157
2158 3158
2158 3159
2159 130
2159 142
2159 143
2159 150
2159 160
2159 165
2159 167
2159 168
2159 170
2159 180
2159 187
2159 189
2159 192
2159 200
2159 201
2159 286
2159 517
2159 1061
2159 3160
2160 196
2160 199
2160 200
2160 201
2160 286
2160 2153
2160 2172
2160 2173
2160 2179
2160 2180
2160 2181
2160 2182
2160 2831
2160 2858
2161 174
2161 195
2161 196
2161 197
2161 199
2161 200
2161 201
2161 286
2161 2170
2161 2188
2161 2189
2161 2190
2161 2191
2161 3144
2161 3147
2161 3161
2161 3162
2161 3163
2161 3164
2161 3165
2161 3166
2161 3167
2162 175
2162 176
2162 177
2162 179
2162 200
2162 201
2162 286
2162 2162
2162 2165
2162 2166
2162 2171
2162 3160
2162 3168
2162 3169
2163 129
2163 169
2163 190
2163 199
2163 200
2163 201
2163 286
2163 3158
2163 3159
2163 3170
2163 3171
2163 3172
2164 122
2164 144
2164 286
2165 131
2165 136
2165 156
2165 175
2165 176
2165 177
2165 179
2165 191
2165 197
2165 200
2165 201
2165 286
2165 2162
2165 2165
2165 2171
2165 3160
2165 3168
2165 3169
2166 200
2166 201
2166 286
2166 2153
2166 2155
2166 2158
2166 2162
2166 2167
2166 2168
2166 2169
2166 3139
2167 192
2167 200
2167 201
2167 286
2167 2155
2167 2158
2167 2166
2167 2168
2167 2169
2168 200
2168 201
2168 286
2168 2155
2168 2158
2168 2166
2168 2167
2168 2169
2168 2170
2168 3139
2169 93
2169 96
2169 97
2169 98
2169 99
2169 101
2169 106
2169 107
2169 108
2169 110
2169 111
2169 113
2169 115
2169 117
2169 123
2169 124
2169 125
2169 126
2169 127
2169 128
2169 134
2169 135
2169 137
2169 138
2169 144
2169 145
2169 146
2169 147
2169 148
2169 154
2169 157
2169 161
2169 162
2169 164
2169 167
2169 168
2169 169
2169 170
2169 175
2169 176
2169 179
2169 180
2169 181
2169 182
2169 184
2169 185
2169 192
2169 193
2169 194
2169 195
2169 197
2169 198
2169 199
2169 200
2169 201
2169 218
2169 224
2169 241
2169 258
2169 271
2169 286
2169 391
2169 459
2169 500
2169 513
2169 547
2169 553
2169 558
2169 691
2169 692
2169 772
2169 843
2169 907
2169 927
2169 1049
2169 1050
2169 1161
2169 1311
2169 1359
2169 1529
2169 1773
2169 1788
2169 1825
2169 1862
2169 2144
2169 2153
2169 2166
2169 2167
2169 2168
2169 2170
2169 2172
2169 2173
2169 2174
2169 2175
2169 2176
2169 2177
2169 2178
2169 2179
2169 2180
2169 2181
2169 2182
2169 2188
2169 2189
2169 2190
2169 2191
2169 2192
2169 2193
2169 2194
2169 2831
2169 2858
2169 3158
2169 3159
2170 132
2170 195
2170 197
2170 198
2170 200
2170 201
2170 286
2170 2158
2170 2161
2170 2168
2170 2169
2170 2188
2170 2189
2170 2190
2170 2191
2170 3144
2170 3147
2170 3163
2170 3173
2171 198
2171 201
2171 286
2171 2156
2171 2162
2171 2165
2171 3141
2171 3142
2171 3143
2171 3144
2171 3145
2171 3146
2171 3147
2171 3148
2171 3149
2172 201
2172 286
2172 2153
2172 2158
2172 2160
2172 2169
2172 2173
2172 2179
2172 2180
2172 2181
2172 2182
2172 2831
2172 2858
2173 201
2173 286
2173 2153
2173 2158
2173 2160
2173 2169
2173 2172
2173 2179
2173 2180
2173 2181
2173 2182
2173 2831
2173 2858
2173 3174
2174 71
2174 149
2174 151
2174 152
2174 159
2174 172
2174 178
2174 187
2174 190
2174 200
2174 201
2174 286
2174 2158
2174 2169
2174 2175
2174 3158
2174 3170
2174 3172
2175 149
2175 151
2175 152
2175 172
2175 178
2175 187
2175 190
2175 200
2175 201
2175 286
2175 2158
2175 2169
2175 2174
2175 2176
2175 3136
2175 3158
2175 3159
2175 3172
2176 149
2176 151
2176 152
2176 172
2176 178
2176 187
2176 190
2176 200
2176 201
2176 286
2176 2158
2176 2169
2176 2175
2176 3159
2177 201
2177 286
2177 1988
2177 2144
2177 2158
2177 2169
2177 2180
2178 87
2178 189
2178 201
2178 245
2178 286
2178 1674
2178 2144
2178 2155
2178 2157
2178 2158
2178 2169
2178 3140
2178 3150
2178 3151
2178 3152
2178 3153
2178 3154
2179 75
2179 201
2179 286
2179 2153
2179 2154
2179 2158
2179 2160
2179 2169
2179 2172
2179 2173
2179 2180
2179 2181
2179 2182
2179 2183
2179 2184
2179 2831
2179 2858
2179 3175
2179 3176
2179 3177
2179 3178
2180 74
2180 201
2180 286
2180 2153
2180 2158
2180 2160
2180 2169
2180 2172
2180 2173
2180 2177
2180 2179
2180 2181
2180 2182
2180 2831
2180 2858
2180 3179
2181 72
2181 82
2181 155
2181 201
2181 286
2181 2153
2181 2158
2181 2160
2181 2169
2181 2172
2181 2173
2181 2179
2181 2180
2181 2182
2181 2831
2181 2858
2182 133
2182 201
2182 286
2182 2153
2182 2158
2182 2160
2182 2169
2182 2172
2182 2173
2182 2179
2182 2180
2182 2181
2182 2831
2182 2858
2183 201
2183 286
2183 2179
2183 2185
2183 3178
2184 201
2184 286
2184 2179
2184 2185
2185 199
2185 201
2185 286
2185 2183
2185 2184
2186 185
2186 199
2186 200
2186 201
2186 286
2186 2158
2186 2187
2186 3157
2186 3180
2187 199
2187 200
2187 201
2187 286
2187 2186
2188 195
2188 197
2188 198
2188 200
2188 201
2188 286
2188 2158
2188 2161
2188 2169
2188 2170
2188 2189
2188 2190
2188 2191
2188 3144
2188 3147
2188 3161
2188 3162
2188 3163
2188 3181
2188 3182
2189 91
2189 130
2189 133
2189 140
2189 141
2189 142
2189 143
2189 146
2189 153
2189 158
2189 160
2189 165
2189 167
2189 168
2189 170
2189 173
2189 180
2189 193
2189 195
2189 197
2189 198
2189 200
2189 201
2189 241
2189 251
2189 286
2189 343
2189 552
2189 1053
2189 1171
2189 2158
2189 2161
2189 2169
2189 2170
2189 2188
2189 2189
2189 2190
2189 2191
2189 2192
2189 2194
2189 3144
2189 3147
2189 3161
2189 3162
2189 3163
2189 3181
2189 3182
2190 141
2190 195
2190 197
2190 198
2190 200
2190 201
2190 286
2190 2158
2190 2161
2190 2169
2190 2170
2190 2188
2190 2189
2190 2191
2190 2192
2190 2194
2190 3144
2190 3147
2190 3161
2190 3162
2190 3163
2190 3181
2190 3182
2191 195
2191 197
2191 200
2191 201
2191 286
2191 2158
2191 2161
2191 2169
2191 2170
2191 2188
2191 2189
2191 2190
2191 2192
2191 2193
2191 2194
2191 3144
2191 3147
2191 3161
2191 3162
2191 3163
2191 3181
2191 3182
2192 195
2192 197
2192 198
2192 200
2192 201
2192 286
2192 2158
2192 2169
2192 2189
2192 2190
2192 2191
2192 2192
2192 3144
2192 3147
2192 3163
2193 201
2193 286
2193 2158
2193 2169
2193 2191
2194 195
2194 197
2194 198
2194 200
2194 201
2194 286
2194 2158
2194 2169
2194 2189
2194 2190
2194 2191
2194 3144
2194 3147
2194 3163
2195 201
2195 248
2195 2433
2196 56
2196 120
2196 150
2196 166
2196 171
2196 180
2196 283
2196 323
2196 834
2196 840
2196 841
2196 842
2196 2325
2196 2327
2196 2343
2196 2351
2196 2352
2197 195
2197 288
2197 291
2198 148
2198 156
2198 157
2198 164
2198 187
2198 196
2198 199
2198 200
2198 201
2198 2337
2198 3209
2198 3220
2199 329
2199 2337
2199 3190
2199 3220
2200 2374
2200 2549
2200 2550
2201 174
2201 201
2201 290
2202 201
2202 290
2202 1486
2203 292
2203 302
2203 1745
2204 197
2204 200
2204 201
2204 253
2204 293
2204 679
2204 691
2204 692
2204 693
2205 293
2205 679
2205 693
2206 120
2206 150
2206 161
2206 165
2206 166
2206 171
2206 180
2206 294
2206 295
2206 700
2206 733
2206 753
2206 759
2206 816
2206 820
2206 835
2206 893
2206 899
2206 2223
2206 2508
2206 2759
2206 2767
2206 2792
2206 2953
2206 3151
2206 3236
2206 3312
2207 201
2207 294
2207 2208
2207 2210
2207 2218
2207 2221
2208 190
2208 200
2208 201
2208 294
2208 2207
2208 2218
2208 2221
2209 201
2209 294
2209 2211
2209 2212
2209 2214
2210 201
2210 294
2210 2207
2210 2212
2210 2213
2210 2219
2210 2220
2210 2221
2210 2502
2211 166
2211 201
2211 294
2211 2209
2211 2212
2211 2214
2211 2222
2211 2224
2211 2225
2212 201
2212 294
2212 2209
2212 2210
2212 2211
2212 2214
2212 2222
2212 2224
2212 2225
2213 23
2213 24
2213 25
2213 201
2213 294
2213 2210
2213 2218
2213 2502
2214 165
2214 201
2214 294
2214 2209
2214 2211
2214 2212
2214 2222
2214 2224
2214 2225
2215 198
2215 201
2215 294
2215 2217
2215 2220
2216 201
2216 294
2216 2219
2217 201
2217 294
2217 2215
2217 2217
2217 2220
2218 201
2218 294
2218 2207
2218 2208
2218 2213
2218 2219
2218 2221
2219 157
2219 201
2219 294
2219 2210
2219 2216
2219 2218
2220 201
2220 294
2220 2210
2220 2215
2220 2217
2221 201
2221 294
2221 856
2221 2207
2221 2208
2221 2210
2221 2218
2221 2222
2222 150
2222 166
2222 171
2222 201
2222 294
2222 2211
2222 2212
2222 2214
2222 2221
2223 158
2223 196
2223 199
2223 200
2223 201
2223 294
2223 311
2223 689
2223 856
2223 2206
2223 2817
2223 2818
2223 2819
2223 2820
2223 2821
2223 2822
2223 3183
2224 201
2224 294
2224 2211
2224 2212
2224 2214
2224 2224
2224 2225
2225 165
2225 171
2225 201
2225 294
2225 2211
2225 2212
2225 2214
2225 2224
2226 201
2226 295
2226 2227
2226 2229
2226 2237
2226 2240
2227 190
2227 200
2227 201
2227 295
2227 2226
2227 2237
2227 2240
2228 201
2228 295
2228 2230
2228 2231
2228 2233
2229 201
2229 295
2229 2226
2229 2231
2229 2232
2229 2238
2229 2239
2229 2240
2229 2503
2230 166
2230 201
2230 295
2230 2228
2230 2231
2230 2233
2230 2241
2230 2242
2230 2243
2231 201
2231 295
2231 2228
2231 2229
2231 2230
2231 2233
2231 2241
2231 2242
2231 2243
2232 23
2232 24
2232 25
2232 201
2232 295
2232 2229
2232 2237
2232 2503
2233 165
2233 201
2233 295
2233 2228
2233 2230
2233 2231
2233 2241
2233 2242
2233 2243
2234 198
2234 201
2234 295
2234 2236
2234 2239
2235 201
2235 295
2235 2238
2236 201
2236 295
2236 2234
2236 2236
2236 2239
2237 201
2237 295
2237 2226
2237 2227
2237 2232
2237 2238
2237 2240
2238 157
2238 201
2238 295
2238 2229
2238 2235
2238 2237
2239 201
2239 295
2239 2229
2239 2234
2239 2236
2240 201
2240 295
2240 856
2240 2226
2240 2227
2240 2229
2240 2237
2240 2241
2241 150
2241 166
2241 171
2241 201
2241 295
2241 2230
2241 2231
2241 2233
2241 2240
2242 201
2242 295
2242 2230
2242 2231
2242 2233
2242 2242
2242 2243
2243 165
2243 171
2243 201
2243 295
2243 2230
2243 2231
2243 2233
2243 2242
2244 297
2244 330
2244 345
2245 201
2245 297
2245 298
2245 571
2245 758
2245 811
2245 1115
2245 1526
2245 2246
2245 2249
2245 2250
2245 2251
2245 2252
2246 201
2246 297
2246 298
2246 758
2246 811
2246 1115
2246 1526
2246 2245
2246 2249
2246 2250
2246 2251
2246 2252
2247 201
2247 297
2247 298
2248 297
2248 437
2248 602
2248 604
2248 668
2248 670
2248 979
2248 1181
2248 1182
2248 2703
2248 2704
2248 2705
2248 2706
2248 2707
2248 2708
2249 201
2249 297
2249 298
2249 758
2249 811
2249 1115
2249 1526
2249 2245
2249 2246
2249 2250
2249 2251
2249 3184
2250 82
2250 201
2250 297
2250 298
2250 758
2250 811
2250 1115
2250 1526
2250 2245
2250 2246
2250 2249
2250 2251
2250 3185
2251 201
2251 297
2251 298
2251 758
2251 811
2251 1115
2251 1526
2251 2245
2251 2246
2251 2249
2251 2250
2252 201
2252 297
2252 298
2252 758
2252 1115
2252 2245
2252 2246
2252 2252
2253 299
2254 192
2254 200
2254 201
2254 300
2254 376
2254 641
2254 645
2254 676
2254 677
2255 201
2255 300
2255 438
2255 2258
2256 201
2256 300
2256 3186
2257 201
2257 300
2257 438
2257 461
2257 821
2257 1790
2258 23
2258 24
2258 25
2258 201
2258 300
2258 438
2258 461
2258 2255
2259 201
2259 300
2259 409
2259 438
2259 1854
2260 150
2260 171
2260 201
2260 300
2260 610
2260 611
2260 821
2260 1689
2261 201
2261 300
2261 610
2261 611
2261 1689
2262 201
2262 300
2262 381
2262 439
2262 612
2262 676
2262 678
2262 962
2262 2269
2262 2711
2263 195
2263 197
2263 198
2263 200
2263 201
2263 300
2263 381
2263 411
2263 439
2263 543
2263 951
2263 962
2263 1012
2263 2264
2263 2265
2263 2266
2263 2574
2263 2668
2263 2669
2263 2863
2263 2864
2264 91
2264 130
2264 133
2264 140
2264 141
2264 142
2264 143
2264 146
2264 153
2264 158
2264 160
2264 165
2264 167
2264 168
2264 170
2264 173
2264 180
2264 193
2264 195
2264 197
2264 198
2264 200
2264 201
2264 241
2264 251
2264 300
2264 343
2264 381
2264 411
2264 439
2264 543
2264 552
2264 951
2264 962
2264 1012
2264 1053
2264 1171
2264 2263
2264 2264
2264 2265
2264 2266
2264 2267
2264 2268
2264 2574
2264 2668
2264 2669
2264 2863
2264 2864
2265 141
2265 195
2265 197
2265 198
2265 200
2265 201
2265 300
2265 381
2265 411
2265 439
2265 543
2265 951
2265 962
2265 1012
2265 2263
2265 2264
2265 2266
2265 2267
2265 2268
2265 2574
2265 2668
2265 2669
2265 2863
2265 2864
2266 195
2266 197
2266 200
2266 201
2266 300
2266 381
2266 411
2266 439
2266 543
2266 951
2266 962
2266 1012
2266 2263
2266 2264
2266 2265
2266 2267
2266 2268
2266 2504
2266 2574
2266 2668
2266 2669
2266 2863
2266 2864
2267 195
2267 197
2267 198
2267 200
2267 201
2267 300
2267 381
2267 439
2267 951
2267 962
2267 1012
2267 2264
2267 2265
2267 2266
2267 2267
2267 2574
2268 195
2268 197
2268 198
2268 200
2268 201
2268 300
2268 381
2268 439
2268 951
2268 962
2268 1012
2268 2264
2268 2265
2268 2266
2268 2574
2269 201
2269 300
2269 381
2269 439
2269 612
2269 676
2269 678
2269 2262
2270 301
2270 305
2271 69
2271 201
2271 302
2272 190
2272 200
2272 201
2272 304
2272 490
2272 869
2272 2273
2273 201
2273 304
2273 486
2273 765
2273 828
2273 2272
2274 200
2274 201
2274 304
2274 690
2274 1172
2274 1173
2274 2275
2274 2737
2274 2746
2274 2789
2275 192
2275 200
2275 201
2275 304
2275 690
2275 1172
2275 2274
2275 2746
2275 2789
2276 304
2276 490
2276 690
2276 694
2276 695
2276 939
2276 943
2276 954
2276 975
2276 999
2276 1776
2276 1780
2276 1827
2276 2520
2277 201
2277 304
2277 385
2277 690
2277 1172
2278 201
2278 306
2278 2279
2278 2280
2278 2281
2279 166
2279 201
2279 306
2279 2278
2279 2280
2279 2281
2279 2286
2279 2287
2279 2288
2280 201
2280 306
2280 478
2280 2278
2280 2279
2280 2281
2280 2286
2280 2287
2280 2288
2281 165
2281 201
2281 306
2281 2278
2281 2279
2281 2280
2281 2286
2281 2287
2281 2288
2282 198
2282 201
2282 306
2282 2283
2282 2284
2283 201
2283 306
2283 2282
2283 2283
2283 2284
2284 201
2284 306
2284 478
2284 2282
2284 2283
2285 201
2285 306
2285 478
2285 1730
2285 2286
2285 2624
2285 3091
2285 3112
2286 150
2286 171
2286 201
2286 306
2286 2279
2286 2280
2286 2281
2286 2285
2287 201
2287 306
2287 2279
2287 2280
2287 2281
2287 2287
2287 2288
2288 165
2288 171
2288 201
2288 306
2288 2279
2288 2280
2288 2281
2288 2287
2289 190
2289 201
2289 307
2289 618
2290 201
2290 307
2290 749
2291 64
2291 146
2291 201
2291 307
2291 522
2291 523
2291 877
2292 201
2292 307
2292 548
2292 1099
2292 1401
2292 1402
2292 1531
2293 201
2293 307
2293 395
2293 588
2293 1406
2294 201
2294 356
2294 425
2294 2370
2294 2469
2295 39
2295 67
2295 197
2295 309
2296 67
2296 197
2296 309
2297 39
2297 67
2297 114
2297 197
2297 310
2298 67
2298 310
2298 511
2298 512
2298 2129
2298 2497
2299 67
2299 197
2299 310
2300 65
2300 201
2300 312
2300 1468
2300 1470
2301 200
2301 201
2301 313
2301 374
2302 201
2302 314
2302 773
2302 2302
2302 2303
2303 201
2303 314
2303 773
2303 2302
2304 201
2304 316
2304 572
2304 1810
2305 316
2306 191
2306 200
2306 201
2306 320
2306 426
2306 716
2306 733
2306 734
2306 750
2307 171
2307 185
2307 196
2307 199
2307 200
2307 201
2307 320
2307 426
2307 733
2307 734
2307 750
2308 5
2308 320
2308 555
2308 837
2308 838
2308 839
2308 1462
2308 1675
2308 1847
2309 321
2310 12
2310 18
2310 159
2310 192
2310 201
2310 322
2310 325
2310 327
2310 360
2310 366
2310 383
2310 652
2310 653
2310 780
2310 794
2310 859
2310 885
2310 886
2310 891
2310 892
2310 989
2310 991
2310 1001
2310 1003
2310 1006
2310 1023
2310 1594
2310 1615
2310 1644
2310 1814
2310 1831
2310 1860
2310 1861
2310 1877
2310 2141
2310 2311
2310 2312
2310 2313
2310 2314
2310 2315
2310 2526
2310 2732
2310 2733
2310 2828
2310 2838
2310 2843
2310 2844
2310 2855
2310 2880
2310 2888
2311 322
2311 325
2311 2310
2311 2312
2312 201
2312 322
2312 891
2312 2310
2312 2311
2313 12
2313 93
2313 96
2313 97
2313 98
2313 99
2313 101
2313 106
2313 107
2313 108
2313 110
2313 111
2313 113
2313 115
2313 117
2313 123
2313 124
2313 125
2313 126
2313 127
2313 128
2313 134
2313 135
2313 137
2313 138
2313 144
2313 145
2313 146
2313 147
2313 148
2313 154
2313 157
2313 161
2313 162
2313 164
2313 167
2313 168
2313 169
2313 170
2313 175
2313 176
2313 179
2313 180
2313 181
2313 182
2313 184
2313 185
2313 192
2313 193
2313 194
2313 195
2313 197
2313 198
2313 199
2313 200
2313 201
2313 218
2313 224
2313 241
2313 258
2313 271
2313 322
2313 325
2313 360
2313 391
2313 459
2313 500
2313 513
2313 547
2313 553
2313 558
2313 652
2313 653
2313 691
2313 692
2313 772
2313 843
2313 859
2313 885
2313 886
2313 891
2313 892
2313 907
2313 927
2313 989
2313 991
2313 1001
2313 1003
2313 1006
2313 1049
2313 1050
2313 1161
2313 1311
2313 1359
2313 1529
2313 1615
2313 1644
2313 1773
2313 1788
2313 1814
2313 1825
2313 1831
2313 1862
2313 2141
2313 2310
2313 2314
2313 2315
2313 2373
2313 2375
2313 2526
2313 2828
2313 2855
2314 201
2314 322
2314 892
2314 2310
2314 2313
2314 2733
2314 3188
2315 87
2315 189
2315 201
2315 245
2315 322
2315 383
2315 1674
2315 2310
2315 2313
2315 2506
2315 2507
2315 2508
2315 2509
2315 2510
2315 2511
2315 2732
2315 2733
2316 136
2316 194
2316 196
2316 197
2316 199
2316 200
2316 201
2316 322
2316 884
2316 1054
2316 2141
2316 2316
2316 2373
2316 3192
2317 192
2317 200
2317 201
2317 323
2317 404
2317 430
2317 431
2317 491
2317 2318
2318 200
2318 201
2318 323
2318 404
2318 430
2318 431
2318 491
2318 1200
2318 2317
2318 2569
2319 201
2319 323
2319 387
2319 1665
2319 1859
2320 71
2320 149
2320 151
2320 152
2320 159
2320 172
2320 178
2320 187
2320 190
2320 200
2320 201
2320 323
2320 328
2320 430
2320 431
2320 1643
2320 2378
2320 2801
2321 149
2321 151
2321 152
2321 172
2321 178
2321 187
2321 190
2321 200
2321 201
2321 323
2321 430
2321 431
2321 1643
2321 2379
2322 199
2322 201
2322 323
2322 2149
2322 2150
2323 199
2323 200
2323 201
2323 323
2323 428
2324 199
2324 200
2324 201
2324 323
2324 499
2324 500
2325 2196
2325 2327
2325 2386
2325 3193
2326 201
2326 2388
2326 2389
2326 2391
2326 3194
2326 3195
2326 3196
2326 3197
2326 3198
2326 3200
2326 3201
2326 3202
2326 3203
2326 3204
2326 3205
2326 3435
2327 201
2327 2196
2327 2325
2327 2353
2327 2386
2328 190
2328 200
2328 201
2328 2388
2329 131
2329 137
2329 159
2329 169
2329 187
2329 189
2329 192
2329 195
2329 196
2329 198
2329 199
2329 200
2329 201
2329 502
2329 2341
2329 2342
2329 2388
2329 2393
2329 3196
2329 3310
2329 3392
2330 77
2330 194
2330 197
2330 198
2330 200
2330 201
2330 2345
2330 2388
2330 2896
2330 2897
2330 2898
2330 2899
2330 2900
2330 2901
2330 2902
2330 3409
2330 3410
2331 73
2331 80
2331 81
2331 83
2331 85
2331 134
2331 135
2331 138
2331 161
2331 174
2331 185
2331 196
2331 199
2331 200
2331 201
2331 224
2331 317
2331 834
2331 946
2331 2388
2331 2393
2331 3310
2331 3311
2331 3312
2331 3313
2331 3314
2331 3315
2331 3429
2331 3430
2332 201
2332 491
2332 2340
2332 2346
2332 2347
2332 2351
2332 2352
2332 2353
2332 2354
2332 2355
2332 2356
2332 2386
2332 2829
2332 2856
2332 3189
2332 3190
2332 3193
2332 3206
2332 3207
2332 3208
2332 3209
2332 3210
2332 3211
2332 3212
2332 3213
2332 3214
2332 3215
2332 3216
2332 3217
2332 3218
2332 3219
2332 3220
2333 130
2333 142
2333 143
2333 150
2333 160
2333 165
2333 167
2333 168
2333 170
2333 180
2333 187
2333 189
2333 192
2333 200
2333 201
2333 517
2333 1061
2333 2388
2333 3400
2334 196
2334 199
2334 200
2334 201
2334 2346
2334 2347
2334 2353
2334 2354
2334 2355
2334 2356
2334 2386
2334 2829
2334 2856
2334 3193
2335 174
2335 195
2335 196
2335 197
2335 199
2335 200
2335 201
2335 961
2335 1039
2335 1044
2335 1704
2335 2386
2335 2865
2335 3208
2335 3213
2335 3214
2335 3215
2335 3216
2335 3405
2335 3406
2335 3407
2335 3408
2336 175
2336 176
2336 177
2336 179
2336 200
2336 201
2336 2336
2336 2339
2336 2345
2336 2388
2336 3196
2336 3399
2336 3400
2336 3401
2337 129
2337 169
2337 190
2337 199
2337 200
2337 201
2337 329
2337 2198
2337 2199
2337 2386
2337 3190
2337 3220
2338 122
2338 144
2338 2388
2339 131
2339 136
2339 156
2339 175
2339 176
2339 177
2339 179
2339 191
2339 197
2339 200
2339 201
2339 2336
2339 2339
2339 2345
2339 2388
2339 3399
2339 3400
2339 3401
2340 200
2340 201
2340 2332
2340 2343
2340 2386
2340 3193
2340 3206
2340 3207
2340 3221
2340 3222
2340 3223
2341 192
2341 200
2341 201
2341 2329
2341 2342
2341 2388
2341 2391
2341 3194
2341 3196
2342 200
2342 201
2342 2329
2342 2341
2342 2344
2342 2388
2342 2391
2342 3194
2342 3196
2342 3392
2343 93
2343 96
2343 97
2343 98
2343 99
2343 101
2343 106
2343 107
2343 108
2343 110
2343 111
2343 113
2343 115
2343 117
2343 123
2343 124
2343 125
2343 126
2343 127
2343 128
2343 134
2343 135
2343 137
2343 138
2343 144
2343 145
2343 146
2343 147
2343 148
2343 154
2343 157
2343 161
2343 162
2343 164
2343 167
2343 168
2343 169
2343 170
2343 175
2343 176
2343 179
2343 180
2343 181
2343 182
2343 184
2343 185
2343 192
2343 193
2343 194
2343 195
2343 197
2343 198
2343 199
2343 200
2343 201
2343 218
2343 224
2343 241
2343 258
2343 271
2343 391
2343 459
2343 500
2343 513
2343 547
2343 553
2343 558
2343 691
2343 692
2343 772
2343 843
2343 907
2343 927
2343 1049
2343 1050
2343 1161
2343 1311
2343 1359
2343 1529
2343 1773
2343 1788
2343 1825
2343 1862
2343 2196
2343 2340
2343 2346
2343 2347
2343 2351
2343 2352
2343 2353
2343 2354
2343 2355
2343 2356
2343 2386
2343 2829
2343 2856
2343 3189
2343 3190
2343 3193
2343 3206
2343 3207
2343 3208
2343 3209
2343 3210
2343 3213
2343 3214
2343 3215
2343 3216
2343 3217
2343 3218
2343 3219
2343 3220
2344 132
2344 195
2344 197
2344 198
2344 200
2344 201
2344 2342
2344 2362
2344 2363
2344 2364
2344 2365
2344 2388
2344 2391
2344 3194
2344 3224
2344 3409
2344 3410
2344 3413
2344 3436
2345 198
2345 201
2345 2330
2345 2336
2345 2339
2345 2388
2345 2896
2345 2897
2345 2898
2345 2899
2345 2900
2345 2901
2345 2902
2345 3409
2345 3410
2346 201
2346 2332
2346 2334
2346 2343
2346 2347
2346 2353
2346 2354
2346 2355
2346 2356
2346 2386
2346 2829
2346 2856
2346 3193
2347 201
2347 2332
2347 2334
2347 2343
2347 2346
2347 2353
2347 2354
2347 2355
2347 2356
2347 2386
2347 2829
2347 2856
2347 3193
2347 3229
2348 71
2348 149
2348 151
2348 152
2348 159
2348 172
2348 178
2348 187
2348 190
2348 200
2348 201
2348 2349
2348 2388
2348 2391
2348 3194
2348 3231
2348 3307
2348 3434
2349 149
2349 151
2349 152
2349 172
2349 178
2349 187
2349 190
2349 200
2349 201
2349 2348
2349 2350
2349 2388
2349 2391
2349 2394
2349 3194
2349 3231
2349 3307
2349 3308
2350 149
2350 151
2350 152
2350 172
2350 178
2350 187
2350 190
2350 200
2350 201
2350 2349
2350 2388
2350 2391
2350 3194
2350 3308
2351 201
2351 2196
2351 2332
2351 2343
2351 2354
2351 2386
2351 3232
2352 87
2352 189
2352 201
2352 245
2352 1674
2352 2196
2352 2332
2352 2343
2352 2386
2352 3221
2352 3233
2352 3234
2352 3235
2352 3236
2352 3237
2352 3238
2352 3239
2353 75
2353 201
2353 2327
2353 2332
2353 2334
2353 2343
2353 2346
2353 2347
2353 2354
2353 2355
2353 2356
2353 2386
2353 2829
2353 2856
2353 3193
2353 3240
2353 3241
2353 3242
2353 3243
2353 3244
2353 3245
2354 74
2354 201
2354 2332
2354 2334
2354 2343
2354 2346
2354 2347
2354 2351
2354 2353
2354 2355
2354 2356
2354 2386
2354 2829
2354 2856
2354 3193
2354 3246
2355 72
2355 82
2355 155
2355 201
2355 2332
2355 2334
2355 2343
2355 2346
2355 2347
2355 2353
2355 2354
2355 2356
2355 2386
2355 2829
2355 2856
2355 3193
2356 133
2356 201
2356 2332
2356 2334
2356 2343
2356 2346
2356 2347
2356 2353
2356 2354
2356 2355
2356 2386
2356 2829
2356 2856
2356 3193
2357 201
2357 2388
2357 3200
2357 3248
2357 3397
2358 201
2358 2388
2358 3200
2358 3248
2359 199
2359 201
2359 2386
2359 3243
2359 3244
2360 185
2360 199
2360 200
2360 201
2360 2388
2360 3194
2360 3250
2360 3391
2360 3438
2361 199
2361 200
2361 201
2361 2386
2361 3212
2362 195
2362 197
2362 198
2362 200
2362 201
2362 2344
2362 2363
2362 2364
2362 2365
2362 2388
2362 2391
2362 3194
2362 3224
2362 3251
2362 3254
2362 3409
2362 3410
2362 3411
2362 3412
2362 3413
2363 91
2363 130
2363 133
2363 140
2363 141
2363 142
2363 143
2363 146
2363 153
2363 158
2363 160
2363 165
2363 167
2363 168
2363 170
2363 173
2363 180
2363 193
2363 195
2363 197
2363 198
2363 200
2363 201
2363 241
2363 251
2363 343
2363 552
2363 1053
2363 1171
2363 2344
2363 2362
2363 2363
2363 2364
2363 2365
2363 2366
2363 2368
2363 2388
2363 2391
2363 3194
2363 3224
2363 3251
2363 3254
2363 3409
2363 3410
2363 3411
2363 3412
2363 3413
2364 141
2364 195
2364 197
2364 198
2364 200
2364 201
2364 2344
2364 2362
2364 2363
2364 2365
2364 2366
2364 2368
2364 2388
2364 2391
2364 3194
2364 3224
2364 3251
2364 3254
2364 3409
2364 3410
2364 3411
2364 3412
2364 3413
2365 195
2365 197
2365 200
2365 201
2365 2344
2365 2362
2365 2363
2365 2364
2365 2366
2365 2367
2365 2368
2365 2388
2365 2391
2365 3194
2365 3224
2365 3251
2365 3254
2365 3409
2365 3410
2365 3411
2365 3412
2365 3413
2366 195
2366 197
2366 198
2366 200
2366 201
2366 2363
2366 2364
2366 2365
2366 2366
2366 2388
2366 2391
2366 3194
2366 3409
2366 3410
2366 3413
2367 201
2367 2365
2367 2388
2367 2391
2367 3194
2368 195
2368 197
2368 198
2368 200
2368 201
2368 2363
2368 2364
2368 2365
2368 2388
2368 2391
2368 3194
2368 3409
2368 3410
2368 3413
2369 201
2369 2528
2370 356
2370 425
2370 2294
2370 2464
2371 148
2371 156
2371 157
2371 164
2371 187
2371 196
2371 199
2371 200
2371 201
2371 2535
2371 2550
2371 2905
2372 2374
2372 2549
2372 2550
2372 2905
2373 187
2373 190
2373 200
2373 201
2373 327
2373 859
2373 2141
2373 2313
2373 2316
2373 2375
2373 2733
2373 2824
2373 3255
2373 3256
2374 187
2374 190
2374 196
2374 199
2374 200
2374 201
2374 2200
2374 2372
2374 2535
2374 2536
2374 2549
2374 2550
2374 2905
2375 156
2375 157
2375 187
2375 190
2375 200
2375 201
2375 327
2375 1644
2375 2141
2375 2313
2375 2373
2375 2733
2375 2823
2375 2824
2375 3255
2375 3256
2376 328
2376 841
2376 2378
2376 2379
2377 328
2377 2378
2377 2379
2378 187
2378 190
2378 196
2378 199
2378 200
2378 201
2378 328
2378 841
2378 1643
2378 2320
2378 2376
2378 2377
2378 2379
2379 156
2379 157
2379 187
2379 190
2379 200
2379 201
2379 328
2379 430
2379 431
2379 841
2379 1643
2379 2321
2379 2376
2379 2377
2379 2378
2379 2801
2380 2960
2380 2961
2380 2975
2381 92
2381 200
2381 201
2381 297
2381 330
2381 668
2381 1550
2381 1551
2381 2850
2381 3099
2382 54
2382 201
2382 331
2382 800
2383 51
2383 332
2383 336
2383 354
2384 332
2384 336
2384 354
2384 1258
2385 190
2385 200
2385 201
2385 333
2386 159
2386 192
2386 201
2386 333
2386 2325
2386 2327
2386 2332
2386 2334
2386 2335
2386 2337
2386 2340
2386 2343
2386 2346
2386 2347
2386 2351
2386 2352
2386 2353
2386 2354
2386 2355
2386 2356
2386 2359
2386 2361
2386 2829
2386 2856
2386 3189
2386 3193
2386 3206
2386 3207
2386 3208
2386 3209
2386 3210
2386 3212
2386 3213
2386 3214
2386 3215
2386 3216
2386 3217
2386 3218
2386 3219
2386 3221
2386 3222
2386 3233
2386 3243
2386 3244
2386 3300
2386 3301
2386 3302
2386 3303
2386 3304
2386 3305
2387 136
2387 194
2387 196
2387 197
2387 199
2387 200
2387 201
2387 334
2387 884
2387 1054
2387 1230
2387 2387
2387 2960
2387 3306
2388 159
2388 192
2388 201
2388 335
2388 2326
2388 2328
2388 2329
2388 2330
2388 2331
2388 2333
2388 2336
2388 2338
2388 2339
2388 2341
2388 2342
2388 2344
2388 2345
2388 2348
2388 2349
2388 2350
2388 2357
2388 2358
2388 2360
2388 2362
2388 2363
2388 2364
2388 2365
2388 2366
2388 2367
2388 2368
2388 2389
2388 2390
2388 2391
2388 2392
2388 2393
2388 3194
2388 3195
2388 3196
2388 3197
2388 3198
2388 3200
2388 3201
2388 3202
2388 3203
2388 3204
2388 3205
2388 3224
2388 3248
2388 3250
2388 3257
2389 335
2389 2326
2389 2388
2389 2390
2390 201
2390 335
2390 2388
2390 2389
2390 3200
2391 93
2391 96
2391 97
2391 98
2391 99
2391 101
2391 106
2391 107
2391 108
2391 110
2391 111
2391 113
2391 115
2391 117
2391 123
2391 124
2391 125
2391 126
2391 127
2391 128
2391 134
2391 135
2391 137
2391 138
2391 144
2391 145
2391 146
2391 147
2391 148
2391 154
2391 157
2391 161
2391 162
2391 164
2391 167
2391 168
2391 169
2391 170
2391 175
2391 176
2391 179
2391 180
2391 181
2391 182
2391 184
2391 185
2391 192
2391 193
2391 194
2391 195
2391 197
2391 198
2391 199
2391 200
2391 201
2391 218
2391 224
2391 241
2391 258
2391 271
2391 335
2391 391
2391 459
2391 500
2391 513
2391 547
2391 553
2391 558
2391 691
2391 692
2391 772
2391 843
2391 907
2391 927
2391 1049
2391 1050
2391 1161
2391 1311
2391 1359
2391 1529
2391 1773
2391 1788
2391 1825
2391 1862
2391 2326
2391 2341
2391 2342
2391 2344
2391 2348
2391 2349
2391 2350
2391 2362
2391 2363
2391 2364
2391 2365
2391 2366
2391 2367
2391 2368
2391 2388
2391 2392
2391 2393
2391 3196
2391 3197
2391 3198
2391 3200
2391 3201
2391 3202
2391 3203
2391 3204
2391 3205
2391 3307
2391 3308
2392 201
2392 335
2392 2388
2392 2391
2392 3194
2392 3201
2392 3309
2393 87
2393 189
2393 201
2393 245
2393 335
2393 1674
2393 2329
2393 2331
2393 2388
2393 2391
2393 3194
2393 3310
2393 3311
2393 3312
2393 3313
2393 3314
2393 3315
2394 136
2394 194
2394 196
2394 197
2394 199
2394 200
2394 201
2394 335
2394 884
2394 1054
2394 2349
2394 2394
2394 3307
2394 3316
2395 337
2395 347
2396 338
2396 1062
2396 2397
2396 2528
2397 201
2397 338
2397 1062
2397 2396
2397 2538
2398 201
2398 338
2398 390
2398 392
2398 1062
2398 2539
2398 3317
2399 136
2399 194
2399 196
2399 197
2399 199
2399 200
2399 201
2399 338
2399 884
2399 1054
2399 2399
2399 2536
2399 2549
2399 3318
2400 120
2400 150
2400 161
2400 165
2400 166
2400 171
2400 180
2400 339
2400 700
2400 733
2400 753
2400 759
2400 816
2400 820
2400 835
2400 893
2400 899
2400 2418
2400 2508
2400 2759
2400 2767
2400 2792
2400 2953
2400 3151
2400 3236
2400 3312
2401 201
2401 339
2401 2402
2401 2404
2401 2412
2401 2415
2402 190
2402 200
2402 201
2402 339
2402 2401
2402 2412
2402 2415
2403 201
2403 339
2403 2404
2403 2407
2404 201
2404 339
2404 2401
2404 2403
2404 2406
2404 2407
2404 2413
2404 2414
2404 2415
2405 166
2405 201
2405 339
2405 2406
2405 2408
2405 2416
2405 2417
2405 2419
2405 2420
2406 201
2406 339
2406 2404
2406 2405
2406 2408
2406 2416
2406 2417
2406 2419
2406 2420
2407 23
2407 24
2407 25
2407 201
2407 339
2407 2403
2407 2404
2407 2412
2408 165
2408 201
2408 339
2408 2405
2408 2406
2408 2416
2408 2417
2408 2419
2408 2420
2409 198
2409 201
2409 339
2409 2411
2409 2414
2410 201
2410 339
2410 2413
2411 201
2411 339
2411 2409
2411 2411
2411 2414
2412 201
2412 339
2412 2401
2412 2402
2412 2407
2412 2413
2412 2415
2413 157
2413 201
2413 339
2413 2404
2413 2410
2413 2412
2414 201
2414 339
2414 2404
2414 2409
2414 2411
2415 201
2415 339
2415 853
2415 2401
2415 2402
2415 2404
2415 2412
2415 2416
2416 150
2416 166
2416 171
2416 201
2416 339
2416 2405
2416 2406
2416 2408
2416 2415
2417 201
2417 339
2417 2405
2417 2406
2417 2408
2418 158
2418 196
2418 199
2418 200
2418 201
2418 311
2418 339
2418 689
2418 853
2418 1661
2418 2400
2418 2810
2418 2811
2418 2812
2418 2813
2418 2814
2418 2815
2419 201
2419 339
2419 2405
2419 2406
2419 2408
2419 2419
2419 2420
2420 165
2420 171
2420 201
2420 339
2420 2405
2420 2406
2420 2408
2420 2419
2421 14
2421 194
2421 197
2421 198
2421 200
2421 201
2421 341
2421 934
2421 972
2421 973
2421 1724
2421 1828
2421 2422
2421 2423
2421 2424
2421 2425
2421 2426
2422 14
2422 100
2422 114
2422 139
2422 172
2422 173
2422 178
2422 194
2422 197
2422 198
2422 200
2422 201
2422 341
2422 934
2422 938
2422 972
2422 973
2422 1724
2422 1828
2422 2421
2422 2423
2422 2424
2422 2425
2422 2426
2423 14
2423 194
2423 197
2423 198
2423 199
2423 200
2423 201
2423 341
2423 629
2423 934
2423 972
2423 973
2423 1724
2423 1828
2423 2421
2423 2422
2423 2424
2423 2425
2423 2426
2424 14
2424 129
2424 139
2424 172
2424 173
2424 178
2424 189
2424 191
2424 194
2424 197
2424 198
2424 200
2424 201
2424 341
2424 883
2424 934
2424 972
2424 973
2424 1724
2424 1828
2424 2421
2424 2422
2424 2423
2424 2425
2424 2426
2425 14
2425 170
2425 194
2425 197
2425 198
2425 200
2425 201
2425 341
2425 934
2425 972
2425 973
2425 1724
2425 1828
2425 2421
2425 2422
2425 2423
2425 2424
2425 2426
2426 14
2426 189
2426 192
2426 194
2426 197
2426 198
2426 200
2426 201
2426 341
2426 934
2426 972
2426 973
2426 1724
2426 1828
2426 2421
2426 2422
2426 2423
2426 2424
2426 2425
2427 181
2427 182
2427 184
2427 195
2427 196
2427 197
2427 198
2427 199
2427 200
2427 201
2427 341
2427 394
2427 969
2427 977
2427 1628
2427 1833
2428 195
2428 197
2428 198
2428 200
2428 201
2428 341
2428 361
2428 394
2428 397
2428 413
2428 969
2428 972
2428 977
2428 1628
2428 1828
2428 2428
2429 195
2429 197
2429 198
2429 200
2429 201
2429 341
2429 361
2429 394
2429 397
2429 413
2429 969
2429 972
2429 977
2429 1628
2429 1828
2430 324
2430 344
2430 2431
2430 3260
2431 201
2431 324
2431 344
2431 2430
2431 3282
2432 93
2432 96
2432 97
2432 98
2432 99
2432 101
2432 106
2432 107
2432 108
2432 110
2432 111
2432 113
2432 115
2432 117
2432 123
2432 124
2432 125
2432 126
2432 127
2432 128
2432 134
2432 135
2432 137
2432 138
2432 144
2432 145
2432 146
2432 147
2432 148
2432 154
2432 157
2432 161
2432 162
2432 164
2432 167
2432 168
2432 169
2432 170
2432 175
2432 176
2432 179
2432 180
2432 181
2432 182
2432 184
2432 185
2432 192
2432 193
2432 194
2432 195
2432 197
2432 198
2432 199
2432 200
2432 201
2432 218
2432 224
2432 241
2432 258
2432 271
2432 289
2432 324
2432 344
2432 391
2432 459
2432 500
2432 513
2432 547
2432 553
2432 558
2432 691
2432 692
2432 772
2432 843
2432 907
2432 927
2432 1049
2432 1050
2432 1161
2432 1311
2432 1359
2432 1529
2432 1773
2432 1788
2432 1825
2432 1862
2432 2142
2432 2433
2432 2434
2432 3260
2432 3272
2432 3273
2432 3274
2432 3275
2432 3277
2432 3278
2432 3279
2432 3280
2432 3281
2432 3282
2432 3283
2432 3284
2432 3285
2432 3286
2432 3287
2432 3293
2432 3294
2432 3295
2432 3296
2432 3297
2432 3298
2432 3299
2433 201
2433 324
2433 344
2433 2195
2433 2432
2433 3264
2433 3283
2434 87
2434 189
2434 201
2434 245
2434 324
2434 344
2434 731
2434 894
2434 1674
2434 2432
2434 2766
2434 2767
2434 2768
2434 2769
2434 3261
2434 3263
2434 3264
2435 136
2435 194
2435 196
2435 197
2435 199
2435 200
2435 201
2435 344
2435 884
2435 1054
2435 2142
2435 2435
2435 3280
2435 3319
2436 348
2436 1096
2437 201
2437 300
2437 349
2438 194
2438 197
2438 198
2438 200
2438 201
2438 350
2438 686
2438 687
2438 963
2438 1316
2438 1317
2438 1963
2438 2439
2438 2440
2438 2441
2438 2442
2438 2443
2439 100
2439 114
2439 139
2439 172
2439 173
2439 178
2439 194
2439 197
2439 198
2439 200
2439 201
2439 350
2439 686
2439 687
2439 938
2439 963
2439 1316
2439 1317
2439 1963
2439 2438
2439 2440
2439 2441
2439 2442
2439 2443
2440 194
2440 197
2440 198
2440 199
2440 200
2440 201
2440 350
2440 629
2440 686
2440 687
2440 963
2440 1316
2440 1317
2440 1963
2440 2438
2440 2439
2440 2441
2440 2442
2440 2443
2441 129
2441 139
2441 172
2441 173
2441 178
2441 189
2441 191
2441 194
2441 197
2441 198
2441 200
2441 201
2441 350
2441 686
2441 687
2441 883
2441 963
2441 1316
2441 1317
2441 1963
2441 2438
2441 2439
2441 2440
2441 2442
2441 2443
2442 170
2442 194
2442 197
2442 198
2442 200
2442 201
2442 350
2442 686
2442 687
2442 963
2442 1316
2442 1317
2442 1963
2442 2438
2442 2439
2442 2440
2442 2441
2442 2443
2443 189
2443 192
2443 194
2443 197
2443 198
2443 200
2443 201
2443 350
2443 686
2443 687
2443 963
2443 1316
2443 1317
2443 1963
2443 2438
2443 2439
2443 2440
2443 2441
2443 2442
2444 136
2444 194
2444 196
2444 197
2444 199
2444 200
2444 201
2444 353
2444 354
2444 884
2444 1054
2444 1269
2444 2444
2444 3320
2445 201
2445 355
2445 2446
2445 2448
2445 2456
2445 2459
2446 190
2446 200
2446 201
2446 355
2446 2445
2446 2456
2446 2459
2447 201
2447 355
2447 2448
2447 2451
2448 201
2448 355
2448 2445
2448 2447
2448 2450
2448 2451
2448 2457
2448 2458
2448 2459
2449 166
2449 201
2449 355
2449 2450
2449 2452
2449 2460
2449 2461
2449 2462
2449 2463
2450 201
2450 355
2450 2448
2450 2449
2450 2452
2450 2460
2450 2461
2450 2462
2450 2463
2451 23
2451 24
2451 25
2451 201
2451 355
2451 2447
2451 2448
2451 2456
2452 165
2452 201
2452 355
2452 2449
2452 2450
2452 2460
2452 2461
2452 2462
2452 2463
2453 198
2453 201
2453 355
2453 2455
2453 2458
2454 201
2454 355
2454 2457
2455 201
2455 355
2455 2453
2455 2455
2455 2458
2456 201
2456 355
2456 2445
2456 2446
2456 2451
2456 2457
2456 2459
2457 157
2457 201
2457 355
2457 2448
2457 2454
2457 2456
2458 201
2458 355
2458 2448
2458 2453
2458 2455
2459 201
2459 355
2459 2445
2459 2446
2459 2448
2459 2456
2459 2460
2459 2710
2460 150
2460 171
2460 201
2460 355
2460 2449
2460 2450
2460 2452
2460 2459
2461 201
2461 355
2461 2449
2461 2450
2461 2452
2462 201
2462 355
2462 2449
2462 2450
2462 2452
2462 2462
2462 2463
2463 165
2463 171
2463 201
2463 355
2463 2449
2463 2450
2463 2452
2463 2462
2464 201
2464 356
2464 371
2464 906
2464 1898
2464 2370
2464 2465
2464 2467
2464 2468
2464 2469
2464 2470
2464 2471
2464 2472
2464 2835
2464 2861
2464 3322
2465 196
2465 199
2465 200
2465 201
2465 356
2465 2464
2465 2467
2465 2468
2465 2469
2465 2470
2465 2471
2465 2472
2465 2835
2465 2861
2466 132
2466 195
2466 197
2466 198
2466 200
2466 201
2466 356
2466 371
2466 578
2466 621
2466 622
2466 906
2466 983
2466 992
2466 1002
2466 1004
2466 1007
2466 1048
2466 1899
2466 3323
2467 201
2467 356
2467 371
2467 906
2467 2464
2467 2465
2467 2468
2467 2469
2467 2470
2467 2471
2467 2472
2467 2835
2467 2861
2468 201
2468 356
2468 371
2468 906
2468 2464
2468 2465
2468 2467
2468 2469
2468 2470
2468 2471
2468 2472
2468 2835
2468 2861
2468 3324
2469 75
2469 201
2469 356
2469 371
2469 906
2469 2294
2469 2464
2469 2465
2469 2467
2469 2468
2469 2470
2469 2471
2469 2472
2469 2473
2469 2474
2469 2835
2469 2861
2469 3325
2469 3326
2469 3327
2469 3328
2470 74
2470 201
2470 287
2470 356
2470 371
2470 906
2470 2464
2470 2465
2470 2467
2470 2468
2470 2469
2470 2471
2470 2472
2470 2835
2470 2861
2470 3329
2471 72
2471 82
2471 155
2471 201
2471 356
2471 371
2471 906
2471 2464
2471 2465
2471 2467
2471 2468
2471 2469
2471 2470
2471 2472
2471 2835
2471 2861
2472 133
2472 201
2472 356
2472 371
2472 906
2472 2464
2472 2465
2472 2467
2472 2468
2472 2469
2472 2470
2472 2471
2472 2835
2472 2861
2473 201
2473 356
2473 2469
2473 2475
2473 3328
2474 201
2474 356
2474 2469
2474 2475
2475 199
2475 201
2475 356
2475 2473
2475 2474
2476 195
2476 197
2476 198
2476 200
2476 201
2476 356
2476 371
2476 578
2476 621
2476 906
2476 983
2476 1002
2476 1004
2476 1007
2476 1048
2476 2476
2477 201
2477 356
2477 371
2477 906
2477 1007
2478 195
2478 197
2478 198
2478 200
2478 201
2478 356
2478 371
2478 578
2478 621
2478 906
2478 983
2478 1002
2478 1004
2478 1007
2478 1048
2479 357
2479 474
2480 358
2480 362
2480 363
2480 453
2480 633
2481 358
2481 362
2481 363
2481 453
2481 454
2481 633
2482 359
2482 418
2482 452
2482 539
2482 869
2483 190
2483 200
2483 201
2483 359
2483 606
2483 979
2483 1727
2484 194
2484 197
2484 198
2484 200
2484 201
2484 384
2484 1028
2484 1033
2484 1038
2484 1042
2484 1528
2484 1771
2484 1787
2484 1824
2484 2484
2484 2485
2484 2486
2484 2532
2484 2542
2484 2543
2484 2544
2484 2545
2484 2546
2484 2548
2484 2730
2485 90
2485 94
2485 102
2485 103
2485 104
2485 105
2485 140
2485 153
2485 155
2485 158
2485 160
2485 162
2485 164
2485 166
2485 173
2485 178
2485 184
2485 189
2485 194
2485 197
2485 198
2485 200
2485 201
2485 238
2485 370
2485 384
2485 449
2485 498
2485 499
2485 528
2485 1028
2485 1033
2485 1038
2485 1042
2485 1167
2485 1393
2485 1528
2485 1549
2485 1555
2485 1758
2485 1771
2485 1787
2485 1824
2485 2484
2485 2486
2485 2532
2485 2542
2485 2543
2485 2544
2485 2545
2485 2546
2485 2548
2485 2730
2486 195
2486 196
2486 197
2486 198
2486 199
2486 200
2486 201
2486 384
2486 1758
2486 1759
2486 2484
2486 2485
2486 2514
2486 2515
2486 2532
2486 2542
2486 2543
2486 2544
2486 2545
2486 2546
2486 2548
2487 132
2487 198
2487 200
2487 201
2487 2532
2488 201
2488 361
2488 394
2488 397
2488 413
2489 201
2489 323
2489 364
2489 430
2489 431
2490 194
2490 197
2490 201
2490 253
2490 365
2491 199
2491 200
2491 201
2491 312
2491 366
2491 430
2491 2733
2491 3362
2492 76
2492 155
2492 199
2492 200
2492 201
2492 2910
2492 3340
2493 37
2493 201
2493 1150
2493 1152
2493 2933
2494 201
2494 264
2494 367
2494 410
2494 2038
2495 39
2495 67
2495 114
2495 197
2495 368
2496 67
2496 197
2496 368
2497 67
2497 368
2497 511
2497 512
2497 2129
2497 2298
2498 67
2498 197
2498 369
2499 399
2499 417
2499 450
2499 451
2499 2500
2500 377
2500 399
2500 417
2500 451
2500 2499
2501 201
2501 378
2501 1852
2501 2134
2501 2501
2502 201
2502 294
2502 380
2502 2210
2502 2213
2503 201
2503 295
2503 380
2503 2229
2503 2232
2504 201
2504 300
2504 381
2504 439
2504 2266
2505 201
2505 382
2505 401
2505 419
2505 445
2506 78
2506 79
2506 162
2506 167
2506 168
2506 177
2506 180
2506 193
2506 200
2506 201
2506 383
2506 630
2506 2315
2506 2507
2506 2508
2506 2509
2506 2510
2506 2511
2506 2732
2506 3330
2507 185
2507 192
2507 196
2507 199
2507 200
2507 201
2507 383
2507 2315
2507 2506
2507 2507
2507 2508
2507 2509
2507 2510
2507 2511
2507 3330
2508 84
2508 88
2508 95
2508 109
2508 112
2508 166
2508 171
2508 180
2508 185
2508 192
2508 196
2508 199
2508 200
2508 201
2508 322
2508 333
2508 338
2508 344
2508 383
2508 396
2508 412
2508 425
2508 432
2508 437
2508 440
2508 444
2508 481
2508 485
2508 490
2508 929
2508 984
2508 1135
2508 1587
2508 1588
2508 1589
2508 1645
2508 1770
2508 2021
2508 2089
2508 2144
2508 2206
2508 2315
2508 2400
2508 2506
2508 2507
2508 2509
2508 2510
2508 2511
2508 3330
2509 189
2509 191
2509 196
2509 199
2509 200
2509 201
2509 383
2509 2315
2509 2506
2509 2507
2509 2508
2509 2510
2510 171
2510 185
2510 192
2510 196
2510 199
2510 200
2510 201
2510 383
2510 2315
2510 2506
2510 2507
2510 2508
2510 2509
2510 2511
2510 3330
2510 3331
2511 191
2511 200
2511 201
2511 383
2511 2315
2511 2506
2511 2507
2511 2508
2511 2510
2512 196
2512 199
2512 200
2512 201
2512 2756
2513 171
2513 185
2513 196
2513 199
2513 200
2513 201
2513 2756
2513 2757
2513 2758
2513 2759
2513 2761
2514 181
2514 182
2514 184
2514 195
2514 196
2514 197
2514 198
2514 199
2514 200
2514 201
2514 384
2514 2486
2514 2542
2514 2543
2514 2544
2514 2545
2515 169
2515 181
2515 182
2515 184
2515 195
2515 196
2515 197
2515 198
2515 199
2515 200
2515 201
2515 384
2515 2486
2515 2542
2515 2543
2515 2544
2515 2545
2516 86
2516 174
2516 201
2516 2517
2516 2518
2516 2519
2516 2880
2517 201
2517 2516
2517 2518
2517 2519
2517 2880
2518 89
2518 196
2518 199
2518 200
2518 201
2518 2516
2518 2517
2518 2519
2518 2880
2519 174
2519 201
2519 2516
2519 2517
2519 2518
2519 2880
2520 44
2520 90
2520 94
2520 102
2520 103
2520 104
2520 105
2520 140
2520 153
2520 155
2520 158
2520 160
2520 162
2520 164
2520 166
2520 173
2520 178
2520 184
2520 189
2520 194
2520 197
2520 198
2520 200
2520 201
2520 238
2520 370
2520 385
2520 449
2520 498
2520 499
2520 528
2520 694
2520 939
2520 943
2520 948
2520 954
2520 975
2520 999
2520 1009
2520 1167
2520 1173
2520 1176
2520 1177
2520 1393
2520 1549
2520 1555
2520 1776
2520 1780
2520 1827
2520 2276
2520 2521
2520 2522
2521 44
2521 194
2521 197
2521 198
2521 199
2521 200
2521 201
2521 385
2521 939
2521 943
2521 948
2521 954
2521 975
2521 999
2521 1009
2521 1173
2521 1176
2521 1177
2521 1776
2521 1827
2521 2520
2522 44
2522 181
2522 182
2522 184
2522 195
2522 196
2522 197
2522 198
2522 199
2522 200
2522 201
2522 385
2522 948
2522 985
2522 1009
2522 2520
2523 44
2523 181
2523 182
2523 184
2523 195
2523 196
2523 197
2523 198
2523 199
2523 200
2523 201
2523 385
2523 948
2523 985
2523 1009
2524 201
2524 259
2524 386
2524 416
2524 1725
2525 52
2525 201
2525 389
2525 424
2525 429
2526 201
2526 1006
2526 2310
2526 2313
2526 2733
2527 132
2527 198
2527 200
2527 201
2527 391
2528 201
2528 390
2528 392
2528 1062
2528 1836
2528 2369
2528 2396
2528 2529
2528 2533
2528 2534
2528 2538
2528 2539
2528 2540
2528 2541
2528 2830
2528 2857
2529 200
2529 201
2529 390
2529 392
2529 529
2529 1034
2529 1062
2529 2528
2529 2530
2529 2531
2529 2652
2530 192
2530 200
2530 201
2530 390
2530 392
2530 529
2530 1062
2530 2529
2530 2531
2531 200
2531 201
2531 390
2531 392
2531 529
2531 1062
2531 2529
2531 2530
2531 2532
2531 2652
2532 132
2532 195
2532 197
2532 198
2532 200
2532 201
2532 384
2532 390
2532 392
2532 1062
2532 2484
2532 2485
2532 2486
2532 2487
2532 2531
2532 2542
2532 2543
2532 2544
2532 2545
2533 201
2533 390
2533 392
2533 1062
2533 1836
2533 2528
2533 2534
2533 2538
2533 2539
2533 2540
2533 2541
2533 2830
2533 2857
2534 201
2534 390
2534 392
2534 1062
2534 1836
2534 2528
2534 2533
2534 2538
2534 2539
2534 2540
2534 2541
2534 2830
2534 2857
2534 3333
2535 71
2535 149
2535 151
2535 152
2535 159
2535 172
2535 178
2535 187
2535 190
2535 200
2535 201
2535 390
2535 392
2535 1062
2535 2371
2535 2374
2535 2536
2535 2549
2536 149
2536 151
2536 152
2536 172
2536 178
2536 187
2536 190
2536 200
2536 201
2536 390
2536 392
2536 1062
2536 2374
2536 2399
2536 2535
2536 2537
2536 2549
2536 2550
2537 149
2537 151
2537 152
2537 172
2537 178
2537 187
2537 190
2537 200
2537 201
2537 390
2537 392
2537 1062
2537 2536
2537 2550
2538 75
2538 201
2538 390
2538 392
2538 1062
2538 1836
2538 2133
2538 2397
2538 2528
2538 2533
2538 2534
2538 2539
2538 2540
2538 2541
2538 2830
2538 2857
2538 2907
2538 2908
2538 3334
2538 3335
2538 3336
2539 74
2539 201
2539 390
2539 392
2539 1062
2539 1836
2539 2398
2539 2528
2539 2533
2539 2534
2539 2538
2539 2540
2539 2541
2539 2830
2539 2857
2539 3337
2540 72
2540 82
2540 155
2540 201
2540 390
2540 392
2540 1062
2540 1836
2540 2528
2540 2533
2540 2534
2540 2538
2540 2539
2540 2541
2540 2830
2540 2857
2541 133
2541 201
2541 390
2541 392
2541 1062
2541 1836
2541 2528
2541 2533
2541 2534
2541 2538
2541 2539
2541 2540
2541 2830
2541 2857
2542 195
2542 197
2542 198
2542 200
2542 201
2542 384
2542 390
2542 392
2542 1062
2542 1758
2542 1759
2542 2484
2542 2485
2542 2486
2542 2514
2542 2515
2542 2532
2542 2543
2542 2544
2542 2545
2543 91
2543 130
2543 133
2543 140
2543 141
2543 142
2543 143
2543 146
2543 153
2543 158
2543 160
2543 165
2543 167
2543 168
2543 170
2543 173
2543 180
2543 193
2543 195
2543 197
2543 198
2543 200
2543 201
2543 241
2543 251
2543 343
2543 384
2543 390
2543 392
2543 552
2543 1053
2543 1062
2543 1171
2543 1758
2543 1759
2543 2484
2543 2485
2543 2486
2543 2514
2543 2515
2543 2532
2543 2542
2543 2543
2543 2544
2543 2545
2543 2546
2543 2548
2544 141
2544 195
2544 197
2544 198
2544 200
2544 201
2544 384
2544 390
2544 392
2544 1062
2544 1758
2544 1759
2544 2484
2544 2485
2544 2486
2544 2514
2544 2515
2544 2532
2544 2542
2544 2543
2544 2545
2544 2546
2544 2548
2545 195
2545 197
2545 200
2545 201
2545 384
2545 390
2545 392
2545 1062
2545 1758
2545 1759
2545 2484
2545 2485
2545 2486
2545 2514
2545 2515
2545 2532
2545 2542
2545 2543
2545 2544
2545 2546
2545 2547
2545 2548
2546 195
2546 197
2546 198
2546 200
2546 201
2546 390
2546 392
2546 1062
2546 2484
2546 2485
2546 2486
2546 2543
2546 2544
2546 2545
2546 2546
2547 201
2547 390
2547 392
2547 1062
2547 2545
2548 195
2548 197
2548 198
2548 200
2548 201
2548 390
2548 392
2548 1062
2548 2484
2548 2485
2548 2486
2548 2543
2548 2544
2548 2545
2549 187
2549 190
2549 200
2549 201
2549 390
2549 392
2549 2200
2549 2372
2549 2374
2549 2399
2549 2535
2549 2536
2549 2550
2549 2905
2550 156
2550 157
2550 187
2550 190
2550 200
2550 201
2550 390
2550 392
2550 2200
2550 2371
2550 2372
2550 2374
2550 2536
2550 2537
2550 2549
2550 2905
2551 78
2551 79
2551 162
2551 167
2551 168
2551 177
2551 180
2551 193
2551 200
2551 201
2551 393
2551 630
2551 782
2551 830
2551 832
2551 835
2551 1194
2551 2552
2551 2937
2552 189
2552 191
2552 196
2552 199
2552 200
2552 201
2552 393
2552 830
2552 832
2552 835
2552 1194
2552 2551
2553 196
2553 199
2553 200
2553 201
2553 393
2554 181
2554 182
2554 184
2554 195
2554 196
2554 197
2554 198
2554 199
2554 200
2554 201
2554 394
2554 969
2554 977
2554 1628
2554 1833
2555 395
2556 181
2556 182
2556 184
2556 195
2556 196
2556 197
2556 198
2556 199
2556 200
2556 201
2556 1465
2556 1466
2556 1467
2556 1468
2556 2752
2556 2753
2557 86
2557 174
2557 201
2557 2558
2557 2559
2557 2560
2557 2867
2558 201
2558 2557
2558 2559
2558 2560
2558 2867
2559 89
2559 196
2559 199
2559 200
2559 201
2559 2557
2559 2558
2559 2560
2559 2867
2560 174
2560 201
2560 2557
2560 2558
2560 2559
2560 2867
2561 194
2561 197
2561 198
2561 200
2561 201
2561 398
2561 540
2561 541
2561 1005
2561 1043
2561 1045
2561 1530
2561 2035
2561 2036
2561 2037
2561 2038
2561 2039
2561 2040
2561 2041
2561 2660
2561 2661
2561 2662
2561 2663
2561 2664
2561 2665
2562 201
2562 399
2562 445
2562 554
2562 556
2562 557
2562 710
2562 1607
2562 1903
2562 2592
2563 181
2563 182
2563 184
2563 195
2563 196
2563 197
2563 198
2563 199
2563 200
2563 201
2563 400
2563 953
2563 967
2563 1008
2563 1011
2563 1019
2564 181
2564 182
2564 184
2564 195
2564 196
2564 197
2564 198
2564 199
2564 200
2564 201
2564 400
2564 953
2564 967
2564 1008
2564 1019
2565 173
2565 201
2565 270
2565 402
2565 1797
2565 2110
2565 2117
2566 201
2566 266
2566 403
2566 619
2566 1692
2566 1701
2567 196
2567 199
2567 200
2567 201
2567 403
2568 37
2568 201
2568 404
2568 1138
2568 1140
2569 196
2569 199
2569 200
2569 201
2569 404
2569 491
2569 2318
2570 201
2570 264
2570 404
2570 1921
2570 2026
2571 201
2571 306
2571 404
2571 478
2571 1068
2572 408
2573 409
2574 90
2574 94
2574 102
2574 103
2574 104
2574 105
2574 140
2574 153
2574 155
2574 158
2574 160
2574 162
2574 164
2574 166
2574 173
2574 178
2574 184
2574 189
2574 194
2574 197
2574 198
2574 200
2574 201
2574 238
2574 370
2574 411
2574 449
2574 498
2574 499
2574 503
2574 520
2574 528
2574 543
2574 962
2574 1012
2574 1167
2574 1393
2574 1549
2574 1555
2574 1728
2574 2263
2574 2264
2574 2265
2574 2266
2574 2267
2574 2268
2574 2639
2574 2640
2574 2641
2574 2642
2574 2643
2574 2644
2574 2863
2575 132
2575 198
2575 200
2575 201
2575 411
2576 177
2576 179
2576 200
2576 201
2576 372
2576 388
2576 413
2576 1750
2577 200
2577 201
2577 413
2577 414
2577 751
2577 753
2577 1683
2577 2581
2577 2582
2577 2695
2578 200
2578 201
2578 413
2578 592
2578 598
2578 1437
2578 1652
2578 1792
2579 414
2579 415
2579 681
2579 682
2579 684
2580 414
2580 415
2581 200
2581 201
2581 414
2581 751
2581 753
2581 1683
2581 2577
2581 2581
2581 2582
2581 2695
2582 200
2582 201
2582 415
2582 598
2582 753
2582 1683
2582 2577
2582 2581
2582 2695
2583 200
2583 201
2583 420
2583 442
2583 483
2583 484
2583 737
2583 763
2583 2583
2584 196
2584 199
2584 200
2584 201
2584 426
2585 76
2585 155
2585 199
2585 200
2585 201
2585 428
2585 537
2586 199
2586 200
2586 201
2586 323
2586 428
2586 457
2587 169
2587 173
2587 200
2587 201
2587 432
2588 201
2588 259
2588 405
2588 433
2588 664
2589 69
2589 201
2589 290
2589 440
2589 680
2589 825
2589 826
2589 827
2589 1484
2589 1485
2589 1490
2589 1816
2589 2683
2590 201
2590 269
2590 443
2590 446
2590 2107
2591 47
2591 200
2591 201
2591 444
2591 566
2591 1196
2591 1197
2591 1442
2591 2591
2592 201
2592 445
2592 554
2592 556
2592 710
2592 2562
2593 200
2593 201
2593 445
2593 557
2594 201
2594 270
2594 447
2594 879
2594 1419
2595 201
2595 448
2595 475
2595 1067
2596 166
2596 201
2596 448
2596 2597
2596 2598
2596 2602
2596 2603
2596 2605
2596 2606
2597 201
2597 448
2597 475
2597 2596
2597 2598
2597 2602
2597 2603
2597 2605
2597 2606
2598 165
2598 201
2598 448
2598 2596
2598 2597
2598 2602
2598 2603
2598 2605
2598 2606
2599 198
2599 201
2599 448
2599 2600
2599 2601
2600 201
2600 448
2600 2599
2600 2600
2600 2601
2601 201
2601 448
2601 475
2601 2599
2601 2600
2602 150
2602 166
2602 171
2602 201
2602 448
2602 706
2602 2596
2602 2597
2602 2598
2603 201
2603 448
2603 2596
2603 2597
2603 2598
2604 158
2604 196
2604 199
2604 200
2604 201
2604 311
2604 448
2604 689
2604 865
2604 867
2604 1162
2604 1436
2604 1664
2604 1770
2604 1826
2604 2751
2604 2825
2605 201
2605 448
2605 2596
2605 2597
2605 2598
2605 2605
2605 2606
2606 165
2606 171
2606 201
2606 448
2606 2596
2606 2597
2606 2598
2606 2605
2607 169
2607 173
2607 200
2607 201
2607 452
2607 481
2608 67
2608 197
2608 455
2609 63
2609 127
2609 173
2609 197
2609 375
2609 376
2609 459
2609 2609
2610 63
2610 127
2610 197
2610 375
2610 376
2610 459
2611 63
2611 127
2611 173
2611 197
2611 375
2611 376
2611 459
2612 63
2612 127
2612 190
2612 197
2612 375
2612 376
2612 459
2613 63
2613 127
2613 173
2613 197
2613 375
2613 376
2613 459
2613 881
2614 19
2614 32
2614 42
2614 55
2614 153
2614 208
2614 460
2614 463
2614 512
2614 851
2614 854
2614 1021
2614 1025
2615 143
2615 460
2615 692
2615 718
2615 730
2615 778
2615 860
2615 861
2615 863
2615 887
2615 888
2615 1633
2615 2615
2615 2754
2615 2755
2616 49
2616 123
2616 124
2616 125
2616 126
2616 148
2616 164
2616 169
2616 200
2616 201
2616 465
2616 958
2617 63
2617 127
2617 197
2617 375
2617 376
2617 468
2618 63
2618 127
2618 197
2618 375
2618 376
2618 469
2619 170
2619 185
2619 196
2619 199
2619 200
2619 201
2619 317
2619 474
2620 201
2620 448
2620 472
2620 475
2620 706
2620 1802
2621 201
2621 476
2621 479
2621 609
2621 620
2621 2622
2622 190
2622 200
2622 201
2622 476
2622 609
2622 620
2622 2621
2623 23
2623 24
2623 25
2623 201
2623 476
2623 479
2623 620
2623 2625
2624 173
2624 201
2624 306
2624 478
2624 1730
2624 2285
2624 3112
2625 201
2625 479
2625 620
2625 2623
2626 201
2626 479
2626 620
2626 2712
2626 2714
2627 200
2627 201
2627 304
2627 480
2627 694
2627 695
2627 696
2627 985
2628 70
2628 201
2628 481
2628 607
2628 760
2628 818
2628 819
2628 1508
2628 1509
2628 1510
2628 1511
2628 1512
2629 53
2629 201
2629 257
2629 262
2629 284
2629 485
2629 488
2629 658
2629 669
2629 685
2629 1320
2630 130
2630 142
2630 143
2630 150
2630 160
2630 165
2630 167
2630 168
2630 170
2630 180
2630 187
2630 189
2630 192
2630 200
2630 201
2630 492
2630 517
2630 1061
2631 76
2631 155
2631 199
2631 200
2631 201
2631 493
2631 550
2632 495
2632 1829
2632 1900
2633 201
2633 445
2633 496
2633 497
2633 624
2633 625
2634 64
2634 146
2634 200
2634 201
2634 496
2634 522
2634 523
2634 624
2635 76
2635 155
2635 199
2635 200
2635 201
2635 500
2635 547
2636 63
2636 127
2636 197
2636 375
2636 376
2636 501
2637 63
2637 127
2637 173
2637 197
2637 375
2637 376
2637 501
2638 63
2638 127
2638 173
2638 197
2638 375
2638 376
2638 501
2638 881
2639 194
2639 197
2639 198
2639 200
2639 201
2639 503
2639 520
2639 962
2639 1012
2639 1728
2639 2574
2639 2639
2639 2640
2639 2641
2639 2642
2639 2643
2639 2644
2640 194
2640 197
2640 198
2640 199
2640 200
2640 201
2640 503
2640 520
2640 629
2640 962
2640 1012
2640 1728
2640 2574
2640 2639
2640 2641
2640 2642
2640 2643
2640 2644
2641 129
2641 139
2641 172
2641 173
2641 178
2641 189
2641 191
2641 194
2641 197
2641 198
2641 200
2641 201
2641 503
2641 520
2641 883
2641 962
2641 1012
2641 1728
2641 2574
2641 2639
2641 2640
2641 2642
2641 2643
2641 2644
2642 170
2642 194
2642 197
2642 198
2642 200
2642 201
2642 503
2642 520
2642 962
2642 1012
2642 1728
2642 2574
2642 2639
2642 2640
2642 2641
2642 2643
2642 2644
2643 189
2643 192
2643 194
2643 197
2643 198
2643 200
2643 201
2643 503
2643 520
2643 962
2643 1012
2643 1728
2643 2574
2643 2639
2643 2640
2643 2641
2643 2642
2643 2644
2644 189
2644 190
2644 194
2644 197
2644 198
2644 200
2644 201
2644 503
2644 520
2644 962
2644 1012
2644 1728
2644 2574
2644 2639
2644 2640
2644 2641
2644 2642
2644 2643
2645 179
2645 200
2645 201
2645 506
2645 577
2645 586
2645 596
2645 1756
2646 179
2646 200
2646 201
2646 506
2646 643
2646 657
2646 702
2646 1606
2646 1757
2647 197
2647 200
2647 201
2647 399
2647 507
2647 528
2647 560
2648 175
2648 176
2648 177
2648 179
2648 200
2648 201
2648 506
2648 512
2648 634
2648 808
2648 2649
2649 175
2649 176
2649 177
2649 179
2649 200
2649 201
2649 512
2649 634
2649 808
2649 2648
2649 2649
2650 63
2650 127
2650 197
2650 375
2650 376
2650 515
2651 521
2652 196
2652 199
2652 200
2652 201
2652 529
2652 2529
2652 2531
2653 181
2653 182
2653 184
2653 195
2653 196
2653 197
2653 198
2653 199
2653 200
2653 201
2653 533
2653 1348
2653 1349
2653 1350
2653 1351
2653 3031
2654 181
2654 182
2654 184
2654 195
2654 196
2654 197
2654 198
2654 199
2654 200
2654 201
2654 533
2654 1348
2654 1349
2654 1350
2654 1351
2655 64
2655 146
2655 200
2655 201
2655 522
2655 523
2655 534
2655 1448
2656 201
2656 535
2656 1681
2656 1694
2656 2134
2657 201
2657 535
2657 1681
2657 1694
2657 2134
2657 2657
2657 2658
2658 165
2658 171
2658 201
2658 535
2658 1681
2658 1694
2658 2134
2658 2657
2659 173
2659 201
2659 268
2659 536
2659 590
2659 1726
2659 1896
2660 194
2660 197
2660 198
2660 200
2660 201
2660 540
2660 541
2660 1043
2660 1045
2660 1530
2660 2561
2660 2660
2660 2661
2660 2662
2660 2663
2660 2664
2660 2665
2661 194
2661 197
2661 198
2661 199
2661 200
2661 201
2661 540
2661 541
2661 629
2661 1043
2661 1045
2661 1530
2661 2561
2661 2660
2661 2662
2661 2663
2661 2664
2661 2665
2662 129
2662 139
2662 172
2662 173
2662 178
2662 189
2662 191
2662 194
2662 197
2662 198
2662 200
2662 201
2662 540
2662 541
2662 883
2662 1043
2662 1045
2662 1530
2662 2561
2662 2660
2662 2661
2662 2663
2662 2664
2662 2665
2663 170
2663 194
2663 197
2663 198
2663 200
2663 201
2663 540
2663 541
2663 1043
2663 1045
2663 1530
2663 2561
2663 2660
2663 2661
2663 2662
2663 2664
2663 2665
2664 189
2664 192
2664 194
2664 197
2664 198
2664 200
2664 201
2664 540
2664 541
2664 1043
2664 1045
2664 1530
2664 2561
2664 2660
2664 2661
2664 2662
2664 2663
2664 2665
2665 189
2665 190
2665 194
2665 197
2665 198
2665 200
2665 201
2665 540
2665 541
2665 1043
2665 1045
2665 1530
2665 2561
2665 2660
2665 2661
2665 2662
2665 2663
2665 2664
2666 56
2666 120
2666 150
2666 166
2666 171
2666 180
2666 323
2666 540
2666 834
2666 840
2666 841
2666 842
2667 200
2667 201
2667 542
2667 761
2668 181
2668 182
2668 184
2668 195
2668 196
2668 197
2668 198
2668 199
2668 200
2668 201
2668 543
2668 951
2668 2263
2668 2264
2668 2265
2668 2266
2669 169
2669 181
2669 182
2669 184
2669 195
2669 196
2669 197
2669 198
2669 199
2669 200
2669 201
2669 543
2669 951
2669 2263
2669 2264
2669 2265
2669 2266
2670 86
2670 174
2670 201
2670 543
2670 2671
2670 2672
2670 2673
2671 201
2671 543
2671 2670
2671 2672
2671 2673
2672 89
2672 196
2672 199
2672 200
2672 201
2672 543
2672 2670
2672 2671
2672 2673
2673 174
2673 201
2673 543
2673 2670
2673 2671
2673 2672
2674 69
2674 201
2674 544
2675 181
2675 182
2675 184
2675 195
2675 196
2675 197
2675 198
2675 199
2675 200
2675 201
2675 548
2675 1403
2675 1404
2675 1405
2675 1406
2676 548
2677 47
2677 173
2677 201
2677 531
2677 549
2677 1184
2677 1798
2678 56
2678 64
2678 159
2678 192
2678 201
2678 273
2678 522
2678 553
2678 565
2679 559
2680 177
2680 510
2680 532
2680 561
2680 562
2680 1625
2680 2680
2681 562
2682 57
2682 201
2682 571
2682 761
2682 1366
2682 1368
2682 1379
2682 1380
2682 1381
2682 1382
2682 1383
2682 2744
2683 69
2683 201
2683 290
2683 571
2683 680
2683 825
2683 826
2683 827
2683 1484
2683 1485
2683 1490
2683 1816
2683 2589
2684 201
2684 304
2684 486
2684 571
2684 784
2684 785
2684 788
2684 814
2684 1537
2684 1894
2685 52
2685 201
2685 559
2685 571
2685 1285
2685 1287
2685 1290
2685 1296
2685 1297
2685 1298
2685 1299
2685 1301
2686 200
2686 201
2686 578
2686 579
2686 583
2686 614
2686 621
2686 622
2687 181
2687 182
2687 184
2687 195
2687 196
2687 197
2687 198
2687 199
2687 200
2687 201
2687 578
2687 983
2687 992
2687 1002
2687 1004
2687 1007
2688 181
2688 182
2688 184
2688 195
2688 196
2688 197
2688 198
2688 199
2688 200
2688 201
2688 578
2688 992
2688 1002
2688 1004
2688 1007
2689 191
2689 200
2689 201
2689 580
2689 654
2689 659
2689 790
2689 795
2689 798
2689 1340
2689 1341
2690 174
2690 196
2690 199
2690 200
2690 201
2690 580
2690 584
2690 654
2690 1342
2691 146
2691 197
2691 200
2691 564
2691 582
2691 2691
2691 2692
2692 197
2692 200
2692 273
2692 564
2692 582
2692 603
2692 2691
2693 201
2693 589
2693 620
2693 1686
2693 1697
2694 122
2694 196
2694 199
2694 200
2694 201
2694 590
2694 849
2694 2054
2694 2803
2694 2805
2694 2806
2694 2807
2694 2808
2694 2809
2695 200
2695 201
2695 413
2695 414
2695 598
2695 751
2695 1683
2695 2577
2695 2581
2695 2582
2696 194
2696 197
2696 198
2696 200
2696 201
2696 601
2696 608
2696 1174
2696 1504
2696 1505
2696 1506
2696 2697
2696 2698
2696 2699
2696 2700
2696 2701
2696 2702
2697 100
2697 114
2697 139
2697 172
2697 173
2697 178
2697 194
2697 197
2697 198
2697 200
2697 201
2697 601
2697 608
2697 938
2697 1174
2697 1504
2697 1505
2697 1506
2697 2696
2697 2698
2697 2699
2697 2700
2697 2701
2697 2702
2698 194
2698 197
2698 198
2698 199
2698 200
2698 201
2698 601
2698 608
2698 629
2698 1174
2698 1504
2698 1505
2698 1506
2698 2696
2698 2697
2698 2699
2698 2700
2698 2701
2698 2702
2699 129
2699 139
2699 172
2699 173
2699 178
2699 189
2699 191
2699 194
2699 197
2699 198
2699 200
2699 201
2699 601
2699 608
2699 883
2699 1174
2699 1504
2699 1505
2699 1506
2699 2696
2699 2697
2699 2698
2699 2700
2699 2701
2699 2702
2700 170
2700 194
2700 197
2700 198
2700 200
2700 201
2700 601
2700 608
2700 1174
2700 1504
2700 1505
2700 1506
2700 2696
2700 2697
2700 2698
2700 2699
2700 2701
2700 2702
2701 90
2701 94
2701 102
2701 103
2701 104
2701 105
2701 140
2701 153
2701 155
2701 158
2701 160
2701 162
2701 164
2701 166
2701 173
2701 178
2701 184
2701 189
2701 194
2701 197
2701 198
2701 200
2701 201
2701 238
2701 370
2701 449
2701 498
2701 499
2701 528
2701 601
2701 608
2701 1167
2701 1174
2701 1175
2701 1393
2701 1503
2701 1504
2701 1505
2701 1506
2701 1515
2701 1516
2701 1517
2701 1518
2701 1519
2701 1521
2701 1549
2701 1555
2701 2696
2701 2697
2701 2698
2701 2699
2701 2700
2701 2702
2702 189
2702 192
2702 194
2702 197
2702 198
2702 200
2702 201
2702 601
2702 608
2702 1174
2702 1504
2702 1505
2702 1506
2702 2696
2702 2697
2702 2698
2702 2699
2702 2700
2702 2701
2703 194
2703 197
2703 198
2703 200
2703 201
2703 602
2703 604
2703 979
2703 1181
2703 1182
2703 1183
2703 2248
2703 2704
2703 2705
2703 2706
2703 2707
2703 2708
2704 100
2704 114
2704 139
2704 172
2704 173
2704 178
2704 194
2704 197
2704 198
2704 200
2704 201
2704 602
2704 604
2704 938
2704 979
2704 1181
2704 1182
2704 1183
2704 2248
2704 2703
2704 2705
2704 2706
2704 2707
2704 2708
2705 194
2705 197
2705 198
2705 199
2705 200
2705 201
2705 602
2705 604
2705 629
2705 979
2705 1181
2705 1182
2705 1183
2705 2248
2705 2703
2705 2704
2705 2706
2705 2707
2705 2708
2706 129
2706 139
2706 172
2706 173
2706 178
2706 189
2706 191
2706 194
2706 197
2706 198
2706 200
2706 201
2706 602
2706 604
2706 883
2706 979
2706 1181
2706 1182
2706 1183
2706 2248
2706 2703
2706 2704
2706 2705
2706 2707
2706 2708
2707 170
2707 194
2707 197
2707 198
2707 200
2707 201
2707 602
2707 604
2707 979
2707 1181
2707 1182
2707 1183
2707 2248
2707 2703
2707 2704
2707 2705
2707 2706
2707 2708
2708 189
2708 192
2708 194
2708 197
2708 198
2708 200
2708 201
2708 602
2708 604
2708 979
2708 1181
2708 1182
2708 1183
2708 2248
2708 2703
2708 2704
2708 2705
2708 2706
2708 2707
2709 70
2709 173
2709 201
2709 573
2709 607
2709 1439
2709 1495
2709 1496
2710 122
2710 196
2710 199
2710 200
2710 201
2710 609
2710 1540
2710 2459
2710 3077
2710 3079
2710 3080
2710 3081
2710 3082
2710 3083
2711 174
2711 196
2711 199
2711 200
2711 201
2711 612
2711 676
2711 678
2711 2262
2712 198
2712 201
2712 620
2712 2626
2712 2714
2713 201
2713 620
2713 1655
2714 201
2714 620
2714 2626
2714 2712
2714 2714
2715 181
2715 182
2715 184
2715 195
2715 196
2715 197
2715 198
2715 199
2715 200
2715 201
2715 578
2715 622
2715 992
2715 1002
2715 1004
2715 1007
2716 86
2716 174
2716 201
2716 622
2716 2717
2716 2718
2716 2719
2717 201
2717 622
2717 2716
2717 2718
2717 2719
2718 89
2718 196
2718 199
2718 200
2718 201
2718 622
2718 2716
2718 2717
2718 2719
2719 174
2719 201
2719 622
2719 2716
2719 2717
2719 2718
2720 200
2720 201
2720 623
2720 2720
2720 2722
2720 2745
2721 623
2721 3338
2722 200
2722 201
2722 623
2722 688
2722 2720
2722 2745
2723 200
2723 201
2723 625
2723 2723
2723 2725
2723 2731
2724 625
2724 3339
2725 200
2725 201
2725 625
2725 688
2725 2723
2725 2731
2726 41
2726 119
2726 121
2726 145
2726 147
2726 154
2726 181
2726 182
2726 184
2726 195
2726 196
2726 197
2726 198
2726 199
2726 200
2726 201
2726 630
2727 63
2727 127
2727 197
2727 375
2727 376
2727 632
2728 200
2728 358
2728 362
2728 363
2728 453
2728 454
2728 633
2728 844
2728 846
2728 847
2728 850
2728 931
2728 936
2728 2728
2729 56
2729 120
2729 150
2729 166
2729 171
2729 180
2729 323
2729 639
2729 834
2729 840
2729 841
2729 842
2730 198
2730 201
2730 644
2730 1028
2730 1033
2730 1034
2730 1038
2730 1042
2730 1062
2730 1528
2730 1771
2730 1787
2730 1824
2730 2484
2730 2485
2731 200
2731 201
2731 625
2731 646
2731 2723
2731 2725
2732 131
2732 137
2732 159
2732 169
2732 187
2732 189
2732 192
2732 195
2732 196
2732 198
2732 199
2732 200
2732 201
2732 502
2732 652
2732 653
2732 1814
2732 2310
2732 2315
2732 2506
2732 2734
2733 12
2733 201
2733 325
2733 360
2733 366
2733 491
2733 652
2733 653
2733 859
2733 885
2733 886
2733 891
2733 892
2733 989
2733 991
2733 1001
2733 1003
2733 1006
2733 1615
2733 1644
2733 1814
2733 1831
2733 2141
2733 2310
2733 2314
2733 2315
2733 2373
2733 2375
2733 2491
2733 2526
2733 2828
2733 2855
2734 196
2734 199
2734 200
2734 201
2734 652
2734 653
2734 2732
2735 58
2735 194
2735 197
2735 198
2735 200
2735 201
2735 655
2735 1394
2735 1395
2735 1397
2735 1398
2735 1399
2735 1401
2735 1402
2735 1403
2735 1404
2735 1405
2735 1406
2735 1407
2735 1408
2735 1531
2735 1774
2735 1789
2736 122
2736 196
2736 199
2736 200
2736 201
2736 662
2736 1539
2736 3070
2736 3072
2736 3073
2736 3074
2736 3075
2736 3076
2737 196
2737 199
2737 200
2737 201
2737 2274
2737 2746
2737 2789
2738 100
2738 114
2738 139
2738 172
2738 173
2738 178
2738 194
2738 197
2738 198
2738 200
2738 201
2738 664
2738 665
2738 938
2738 980
2738 2005
2738 2006
2738 2007
2738 2739
2738 2740
2738 2741
2738 2742
2738 2743
2738 2874
2739 194
2739 197
2739 198
2739 199
2739 200
2739 201
2739 629
2739 664
2739 665
2739 980
2739 2005
2739 2006
2739 2007
2739 2738
2739 2740
2739 2741
2739 2742
2739 2743
2739 2874
2740 129
2740 139
2740 172
2740 173
2740 178
2740 189
2740 191
2740 194
2740 197
2740 198
2740 200
2740 201
2740 664
2740 665
2740 883
2740 980
2740 2005
2740 2006
2740 2007
2740 2738
2740 2739
2740 2741
2740 2742
2740 2743
2740 2874
2741 170
2741 194
2741 197
2741 198
2741 200
2741 201
2741 664
2741 665
2741 980
2741 2005
2741 2006
2741 2007
2741 2738
2741 2739
2741 2740
2741 2742
2741 2743
2741 2874
2742 189
2742 192
2742 194
2742 197
2742 198
2742 200
2742 201
2742 664
2742 665
2742 980
2742 2005
2742 2006
2742 2007
2742 2738
2742 2739
2742 2740
2742 2741
2742 2743
2742 2874
2743 194
2743 197
2743 198
2743 200
2743 201
2743 664
2743 665
2743 980
2743 2005
2743 2006
2743 2007
2743 2738
2743 2739
2743 2740
2743 2741
2743 2742
2743 2874
2744 57
2744 201
2744 673
2744 761
2744 1366
2744 1368
2744 1379
2744 1380
2744 1381
2744 1382
2744 1383
2744 2682
2745 200
2745 201
2745 623
2745 675
2745 2720
2745 2722
2746 200
2746 201
2746 304
2746 679
2746 690
2746 1172
2746 2274
2746 2275
2746 2737
2746 2789
2747 201
2747 685
2748 200
2748 201
2748 568
2748 594
2748 626
2748 688
2749 47
2749 200
2749 201
2749 407
2749 436
2749 703
2749 1191
2749 1192
2749 2937
2749 2938
2750 703
2750 704
2750 705
2750 1051
2751 122
2751 196
2751 199
2751 200
2751 201
2751 706
2751 865
2751 867
2751 1162
2751 1436
2751 1664
2751 1826
2751 2604
2752 174
2752 195
2752 196
2752 197
2752 199
2752 200
2752 201
2752 708
2752 965
2752 1047
2752 1465
2752 1466
2752 1467
2752 1468
2752 1469
2752 2556
2752 2753
2752 3345
2752 3346
2752 3347
2752 3348
2753 195
2753 196
2753 197
2753 198
2753 199
2753 200
2753 201
2753 708
2753 965
2753 1047
2753 1465
2753 1466
2753 1467
2753 1468
2753 1469
2753 1471
2753 1472
2753 2556
2753 2752
2753 2869
2753 3058
2754 143
2754 718
2754 730
2754 778
2754 860
2754 861
2754 863
2754 887
2754 888
2754 2615
2755 143
2755 718
2755 730
2755 778
2755 860
2755 861
2755 863
2755 887
2755 888
2755 2615
2755 2755
2756 73
2756 80
2756 81
2756 83
2756 85
2756 134
2756 135
2756 138
2756 161
2756 174
2756 185
2756 196
2756 199
2756 200
2756 201
2756 224
2756 317
2756 720
2756 834
2756 946
2756 1062
2756 2512
2756 2513
2756 2757
2756 2758
2756 2759
2756 2760
2756 2761
2756 2762
2757 78
2757 79
2757 162
2757 167
2757 168
2757 177
2757 180
2757 193
2757 200
2757 201
2757 529
2757 630
2757 720
2757 2513
2757 2756
2757 2758
2757 2759
2757 2760
2757 2761
2757 2762
2758 185
2758 192
2758 196
2758 199
2758 200
2758 201
2758 720
2758 2513
2758 2756
2758 2757
2758 2758
2758 2759
2758 2760
2758 2761
2758 2762
2759 84
2759 88
2759 95
2759 109
2759 112
2759 166
2759 171
2759 180
2759 185
2759 192
2759 196
2759 199
2759 200
2759 201
2759 322
2759 333
2759 338
2759 344
2759 396
2759 412
2759 425
2759 432
2759 437
2759 440
2759 444
2759 481
2759 485
2759 490
2759 720
2759 929
2759 984
2759 1135
2759 1587
2759 1588
2759 1589
2759 1645
2759 1770
2759 2021
2759 2089
2759 2144
2759 2206
2759 2400
2759 2513
2759 2756
2759 2757
2759 2758
2759 2760
2759 2761
2759 2762
2760 189
2760 191
2760 196
2760 199
2760 200
2760 201
2760 720
2760 2756
2760 2757
2760 2758
2760 2759
2760 2761
2761 0
2761 171
2761 185
2761 192
2761 196
2761 199
2761 200
2761 201
2761 720
2761 2513
2761 2756
2761 2757
2761 2758
2761 2759
2761 2760
2761 2762
2762 191
2762 200
2762 201
2762 720
2762 2756
2762 2757
2762 2758
2762 2759
2762 2761
2763 191
2763 200
2763 201
2763 723
2763 736
2763 742
2763 815
2763 816
2763 1507
2763 2764
2764 78
2764 79
2764 162
2764 167
2764 168
2764 177
2764 180
2764 193
2764 200
2764 201
2764 630
2764 663
2764 723
2764 742
2764 815
2764 816
2764 1507
2764 2763
2764 2765
2765 189
2765 191
2765 196
2765 199
2765 200
2765 201
2765 723
2765 742
2765 815
2765 816
2765 1507
2765 2764
2766 185
2766 192
2766 196
2766 199
2766 200
2766 201
2766 731
2766 894
2766 2434
2766 2766
2766 2767
2766 2768
2766 2769
2766 3263
2766 3350
2767 84
2767 88
2767 95
2767 109
2767 112
2767 166
2767 171
2767 180
2767 185
2767 192
2767 196
2767 199
2767 200
2767 201
2767 322
2767 333
2767 338
2767 344
2767 396
2767 412
2767 425
2767 432
2767 437
2767 440
2767 444
2767 481
2767 485
2767 490
2767 731
2767 894
2767 929
2767 984
2767 1135
2767 1587
2767 1588
2767 1589
2767 1645
2767 1770
2767 2021
2767 2089
2767 2144
2767 2206
2767 2400
2767 2434
2767 2766
2767 2768
2767 2769
2767 3263
2767 3350
2768 189
2768 191
2768 196
2768 199
2768 200
2768 201
2768 731
2768 894
2768 2434
2768 2766
2768 2767
2768 3263
2769 191
2769 200
2769 201
2769 731
2769 894
2769 2434
2769 2766
2769 2767
2769 3263
2770 171
2770 185
2770 196
2770 199
2770 200
2770 201
2770 3233
2770 3234
2770 3235
2770 3236
2770 3238
2771 734
2772 174
2772 201
2772 748
2773 191
2773 196
2773 198
2773 199
2773 200
2773 201
2773 2773
2773 2774
2773 3186
2774 191
2774 195
2774 196
2774 198
2774 199
2774 200
2774 201
2774 2773
2774 3186
2775 189
2775 191
2775 196
2775 199
2775 200
2775 201
2775 752
2775 755
2775 899
2775 900
2775 901
2775 1685
2776 755
2777 201
2777 756
2778 757
2779 57
2779 173
2779 201
2779 542
2779 673
2779 761
2779 1365
2779 1440
2780 189
2780 191
2780 196
2780 199
2780 200
2780 201
2780 766
2780 767
2780 864
2780 878
2780 893
2780 1252
2780 1272
2781 767
2782 175
2782 176
2782 177
2782 179
2782 200
2782 201
2782 506
2782 780
2782 794
2782 2783
2782 2784
2783 18
2783 175
2783 176
2783 177
2783 179
2783 200
2783 201
2783 718
2783 780
2783 794
2783 2782
2783 2784
2784 175
2784 176
2784 177
2784 179
2784 200
2784 201
2784 780
2784 794
2784 2782
2784 2783
2784 2784
2785 174
2785 201
2785 787
2786 174
2786 201
2786 788
2787 56
2787 192
2787 196
2787 200
2787 201
2787 323
2787 426
2787 430
2787 789
2787 2788
2788 197
2788 200
2788 201
2788 399
2788 552
2788 789
2788 2787
2789 131
2789 137
2789 159
2789 169
2789 187
2789 189
2789 192
2789 195
2789 196
2789 198
2789 199
2789 200
2789 201
2789 502
2789 793
2789 2274
2789 2275
2789 2737
2789 2746
2789 2791
2790 191
2790 200
2790 201
2790 793
2790 801
2790 803
2790 904
2790 905
2790 2791
2790 2792
2791 78
2791 79
2791 162
2791 167
2791 168
2791 177
2791 180
2791 193
2791 200
2791 201
2791 630
2791 793
2791 803
2791 904
2791 905
2791 2789
2791 2790
2791 2792
2791 2793
2792 84
2792 88
2792 95
2792 109
2792 112
2792 166
2792 171
2792 180
2792 191
2792 200
2792 201
2792 322
2792 333
2792 338
2792 344
2792 396
2792 412
2792 425
2792 432
2792 437
2792 440
2792 444
2792 481
2792 485
2792 490
2792 793
2792 904
2792 905
2792 929
2792 984
2792 1135
2792 1587
2792 1588
2792 1589
2792 1645
2792 1770
2792 2021
2792 2089
2792 2144
2792 2206
2792 2400
2792 2790
2792 2791
2792 2793
2793 189
2793 191
2793 196
2793 199
2793 200
2793 201
2793 793
2793 803
2793 904
2793 905
2793 2791
2793 2792
2794 158
2794 200
2794 201
2794 282
2794 650
2794 651
2794 796
2794 836
2794 1260
2795 174
2795 201
2795 811
2796 201
2796 812
2797 201
2797 813
2798 201
2798 814
2799 131
2799 137
2799 159
2799 169
2799 187
2799 189
2799 192
2799 195
2799 196
2799 198
2799 199
2799 200
2799 201
2799 502
2799 817
2799 1372
2799 1373
2799 1378
2799 3038
2799 3040
2800 201
2800 827
2801 148
2801 156
2801 157
2801 164
2801 187
2801 196
2801 199
2801 200
2801 201
2801 841
2801 2320
2801 2379
2802 846
2803 64
2803 146
2803 201
2803 323
2803 522
2803 523
2803 849
2803 2694
2803 2804
2803 2805
2803 2806
2803 2807
2803 2808
2803 2809
2804 158
2804 200
2804 201
2804 282
2804 650
2804 651
2804 849
2804 2803
2804 2805
2805 110
2805 158
2805 196
2805 199
2805 200
2805 201
2805 849
2805 2694
2805 2803
2805 2804
2805 2806
2805 2807
2805 2808
2805 2809
2806 194
2806 196
2806 199
2806 200
2806 201
2806 849
2806 2694
2806 2803
2806 2805
2806 2807
2806 2808
2806 2809
2807 40
2807 122
2807 144
2807 194
2807 196
2807 199
2807 200
2807 201
2807 849
2807 2694
2807 2803
2807 2805
2807 2806
2807 2808
2807 2809
2808 158
2808 196
2808 199
2808 200
2808 201
2808 849
2808 2694
2808 2803
2808 2805
2808 2806
2808 2807
2808 2809
2809 40
2809 122
2809 144
2809 196
2809 199
2809 200
2809 201
2809 849
2809 2694
2809 2803
2809 2805
2809 2806
2809 2807
2809 2808
2810 64
2810 146
2810 201
2810 323
2810 522
2810 523
2810 853
2810 1661
2810 2418
2810 2811
2810 2812
2810 2813
2810 2814
2810 2815
2811 110
2811 158
2811 196
2811 199
2811 200
2811 201
2811 853
2811 1661
2811 2418
2811 2810
2811 2812
2811 2813
2811 2814
2811 2815
2812 194
2812 196
2812 199
2812 200
2812 201
2812 853
2812 2418
2812 2810
2812 2811
2812 2813
2812 2814
2812 2815
2813 40
2813 122
2813 144
2813 194
2813 196
2813 199
2813 200
2813 201
2813 853
2813 2418
2813 2810
2813 2811
2813 2812
2813 2814
2813 2815
2814 158
2814 196
2814 199
2814 200
2814 201
2814 853
2814 2418
2814 2810
2814 2811
2814 2812
2814 2813
2814 2815
2815 40
2815 122
2815 144
2815 196
2815 199
2815 200
2815 201
2815 853
2815 2418
2815 2810
2815 2811
2815 2812
2815 2813
2815 2814
2816 64
2816 146
2816 200
2816 201
2816 522
2816 523
2816 2032
2816 3123
2816 3124
2816 3125
2816 3126
2816 3127
2816 3128
2816 3129
2817 64
2817 146
2817 201
2817 323
2817 522
2817 523
2817 856
2817 2223
2817 2818
2817 2819
2817 2820
2817 2821
2817 2822
2817 3183
2818 110
2818 158
2818 196
2818 199
2818 200
2818 201
2818 856
2818 2223
2818 2817
2818 2819
2818 2820
2818 2821
2818 2822
2818 3183
2819 194
2819 196
2819 199
2819 200
2819 201
2819 856
2819 2223
2819 2817
2819 2818
2819 2820
2819 2821
2819 2822
2820 40
2820 122
2820 144
2820 194
2820 196
2820 199
2820 200
2820 201
2820 856
2820 2223
2820 2817
2820 2818
2820 2819
2820 2821
2820 2822
2821 158
2821 196
2821 199
2821 200
2821 201
2821 856
2821 2223
2821 2817
2821 2818
2821 2819
2821 2820
2821 2822
2822 40
2822 122
2822 144
2822 196
2822 199
2822 200
2822 201
2822 856
2822 2223
2822 2817
2822 2818
2822 2819
2822 2820
2822 2821
2823 148
2823 156
2823 157
2823 164
2823 187
2823 196
2823 199
2823 200
2823 201
2823 327
2823 859
2823 2375
2824 187
2824 190
2824 196
2824 199
2824 200
2824 201
2824 327
2824 859
2824 2141
2824 2373
2824 2375
2824 3255
2824 3256
2825 158
2825 200
2825 201
2825 282
2825 650
2825 651
2825 865
2825 1436
2825 2604
2826 52
2826 174
2826 201
2826 525
2826 872
2826 1288
2826 1295
2827 196
2827 199
2827 200
2827 201
2827 247
2827 248
2827 873
2827 883
2827 884
2827 1072
2827 1835
2827 1837
2827 1838
2827 1984
2828 12
2828 201
2828 325
2828 873
2828 885
2828 886
2828 891
2828 892
2828 1615
2828 2310
2828 2313
2828 2733
2828 2838
2828 2855
2829 201
2829 873
2829 2332
2829 2334
2829 2343
2829 2346
2829 2347
2829 2353
2829 2354
2829 2355
2829 2356
2829 2386
2829 2856
2829 3193
2830 201
2830 390
2830 392
2830 873
2830 1062
2830 1836
2830 2528
2830 2533
2830 2534
2830 2538
2830 2539
2830 2540
2830 2541
2830 2857
2831 201
2831 286
2831 873
2831 2153
2831 2158
2831 2160
2831 2169
2831 2172
2831 2173
2831 2179
2831 2180
2831 2181
2831 2182
2831 2858
2832 101
2832 201
2832 243
2832 258
2832 285
2832 323
2832 430
2832 431
2832 873
2832 927
2832 928
2832 1561
2832 1617
2832 1862
2833 50
2833 201
2833 873
2833 1209
2833 1214
2833 1216
2833 1225
2833 1228
2833 1234
2833 1235
2833 1236
2833 1618
2833 1841
2833 2859
2834 51
2834 201
2834 873
2834 1247
2834 1253
2834 1255
2834 1264
2834 1267
2834 1273
2834 1274
2834 1275
2834 1619
2834 1843
2834 2860
2835 201
2835 356
2835 371
2835 873
2835 906
2835 2464
2835 2465
2835 2467
2835 2468
2835 2469
2835 2470
2835 2471
2835 2472
2835 2861
2836 56
2836 120
2836 150
2836 166
2836 171
2836 180
2836 323
2836 834
2836 840
2836 841
2836 842
2836 874
2837 880
2838 12
2838 196
2838 199
2838 200
2838 201
2838 325
2838 885
2838 886
2838 891
2838 892
2838 1615
2838 2310
2838 2828
2838 2855
2839 191
2839 196
2839 198
2839 199
2839 200
2839 201
2839 886
2839 3351
2839 3352
2840 201
2840 891
2841 174
2841 201
2841 891
2842 891
2842 3353
2843 201
2843 891
2843 1860
2843 2310
2843 2845
2844 201
2844 891
2844 1860
2844 2310
2845 201
2845 891
2845 2843
2846 201
2846 892
2847 3314
2848 174
2848 201
2848 896
2849 131
2849 137
2849 159
2849 169
2849 187
2849 189
2849 192
2849 195
2849 196
2849 198
2849 199
2849 200
2849 201
2849 502
2849 900
2849 901
2849 2001
2849 2002
2849 3113
2849 3121
2850 131
2850 137
2850 159
2850 169
2850 187
2850 189
2850 192
2850 195
2850 196
2850 198
2850 199
2850 200
2850 201
2850 502
2850 902
2850 1550
2850 1551
2850 1552
2850 2381
2850 3099
2851 35
2851 38
2851 49
2851 123
2851 124
2851 125
2851 126
2851 148
2851 164
2851 169
2851 200
2851 201
2851 858
2851 915
2851 916
2851 957
2851 2851
2852 181
2852 182
2852 184
2852 195
2852 196
2852 197
2852 198
2852 199
2852 200
2852 201
2852 923
2852 1147
2852 1148
2852 1149
2852 1150
2852 2854
2853 174
2853 195
2853 196
2853 197
2853 199
2853 200
2853 201
2853 923
2853 924
2853 970
2853 1147
2853 1148
2853 1149
2853 1150
2853 1151
2853 2854
2853 2932
2853 3354
2853 3355
2853 3356
2853 3357
2854 195
2854 196
2854 197
2854 198
2854 199
2854 200
2854 201
2854 923
2854 924
2854 970
2854 1147
2854 1148
2854 1149
2854 1150
2854 1151
2854 1153
2854 1154
2854 2852
2854 2853
2854 2932
2854 2934
2855 12
2855 201
2855 325
2855 885
2855 886
2855 891
2855 892
2855 926
2855 1615
2855 2310
2855 2313
2855 2733
2855 2828
2855 2838
2856 201
2856 926
2856 2332
2856 2334
2856 2343
2856 2346
2856 2347
2856 2353
2856 2354
2856 2355
2856 2356
2856 2386
2856 2829
2856 3193
2857 201
2857 390
2857 392
2857 926
2857 1062
2857 1836
2857 2528
2857 2533
2857 2534
2857 2538
2857 2539
2857 2540
2857 2541
2857 2830
2858 201
2858 286
2858 926
2858 2153
2858 2158
2858 2160
2858 2169
2858 2172
2858 2173
2858 2179
2858 2180
2858 2181
2858 2182
2858 2831
2859 50
2859 201
2859 926
2859 1209
2859 1214
2859 1216
2859 1225
2859 1228
2859 1234
2859 1235
2859 1236
2859 1618
2859 1841
2859 2833
2860 51
2860 201
2860 926
2860 1247
2860 1253
2860 1255
2860 1264
2860 1267
2860 1273
2860 1274
2860 1275
2860 1619
2860 1843
2860 2834
2861 201
2861 356
2861 371
2861 906
2861 926
2861 2464
2861 2465
2861 2467
2861 2468
2861 2469
2861 2470
2861 2471
2861 2472
2861 2835
2862 38
2862 49
2862 123
2862 124
2862 125
2862 126
2862 148
2862 164
2862 169
2862 200
2862 201
2862 935
2862 949
2862 1059
2862 1156
2863 181
2863 182
2863 184
2863 195
2863 196
2863 197
2863 198
2863 199
2863 200
2863 201
2863 951
2863 2263
2863 2264
2863 2265
2863 2266
2863 2574
2864 181
2864 182
2864 184
2864 195
2864 196
2864 197
2864 198
2864 199
2864 200
2864 201
2864 951
2864 2263
2864 2264
2864 2265
2864 2266
2865 181
2865 182
2865 184
2865 195
2865 196
2865 197
2865 198
2865 199
2865 200
2865 201
2865 961
2865 2335
2865 3213
2865 3214
2865 3215
2865 3216
2866 181
2866 182
2866 184
2866 195
2866 196
2866 197
2866 198
2866 199
2866 200
2866 201
2866 961
2866 3213
2866 3214
2866 3215
2866 3216
2867 174
2867 195
2867 196
2867 197
2867 199
2867 200
2867 201
2867 964
2867 966
2867 968
2867 1302
2867 1303
2867 1304
2867 1305
2867 1306
2867 2557
2867 2558
2867 2559
2867 2560
2867 2868
2867 3023
2868 195
2868 196
2868 197
2868 198
2868 199
2868 200
2868 201
2868 964
2868 966
2868 968
2868 1302
2868 1303
2868 1304
2868 1305
2868 1306
2868 1308
2868 1309
2868 2867
2868 2870
2868 3023
2868 3024
2869 181
2869 182
2869 184
2869 195
2869 196
2869 197
2869 198
2869 199
2869 200
2869 201
2869 965
2869 1465
2869 1466
2869 1467
2869 1468
2869 2753
2870 181
2870 182
2870 184
2870 195
2870 196
2870 197
2870 198
2870 199
2870 200
2870 201
2870 966
2870 1302
2870 1303
2870 1304
2870 1305
2870 2868
2871 199
2871 200
2871 201
2871 312
2871 430
2871 971
2871 1300
2871 3022
2872 181
2872 182
2872 184
2872 195
2872 196
2872 197
2872 198
2872 199
2872 200
2872 201
2872 978
2872 980
2872 2010
2872 2011
2872 2012
2872 2013
2873 181
2873 182
2873 184
2873 195
2873 196
2873 197
2873 198
2873 199
2873 200
2873 201
2873 978
2873 2010
2873 2011
2873 2012
2873 2013
2874 194
2874 197
2874 198
2874 199
2874 200
2874 201
2874 980
2874 2004
2874 2006
2874 2010
2874 2011
2874 2012
2874 2013
2874 2014
2874 2015
2874 2738
2874 2739
2874 2740
2874 2741
2874 2742
2874 2743
2875 181
2875 182
2875 184
2875 195
2875 196
2875 197
2875 198
2875 199
2875 200
2875 201
2875 982
2875 1095
2875 1384
2875 1385
2875 1386
2875 1387
2876 181
2876 182
2876 184
2876 195
2876 196
2876 197
2876 198
2876 199
2876 200
2876 201
2876 982
2876 1384
2876 1385
2876 1386
2876 1387
2877 194
2877 197
2877 198
2877 200
2877 201
2877 360
2877 989
2877 991
2877 1001
2877 1003
2877 1006
2877 1023
2877 1831
2877 2877
2877 2878
2877 2879
2877 2880
2877 2888
2877 2889
2877 2890
2877 2891
2877 2892
2877 2893
2877 2894
2877 2895
2878 90
2878 94
2878 102
2878 103
2878 104
2878 105
2878 140
2878 153
2878 155
2878 158
2878 160
2878 162
2878 164
2878 166
2878 173
2878 178
2878 184
2878 189
2878 194
2878 197
2878 198
2878 200
2878 201
2878 238
2878 360
2878 370
2878 449
2878 498
2878 499
2878 528
2878 989
2878 991
2878 1001
2878 1003
2878 1006
2878 1023
2878 1167
2878 1393
2878 1549
2878 1555
2878 1831
2878 2877
2878 2879
2878 2880
2878 2881
2878 2888
2878 2889
2878 2890
2878 2891
2878 2892
2878 2893
2878 2894
2878 2895
2879 195
2879 196
2879 197
2879 198
2879 199
2879 200
2879 201
2879 360
2879 989
2879 991
2879 1001
2879 1003
2879 1006
2879 1831
2879 2877
2879 2878
2879 2880
2879 2881
2879 2882
2879 2883
2879 2884
2880 174
2880 195
2880 196
2880 197
2880 199
2880 200
2880 201
2880 360
2880 991
2880 1001
2880 1003
2880 1006
2880 2310
2880 2516
2880 2517
2880 2518
2880 2519
2880 2877
2880 2878
2880 2879
2880 2882
2880 2883
2881 181
2881 182
2881 184
2881 195
2881 196
2881 197
2881 198
2881 199
2881 200
2881 201
2881 991
2881 1001
2881 1003
2881 1006
2881 2878
2881 2879
2882 181
2882 182
2882 184
2882 195
2882 196
2882 197
2882 198
2882 199
2882 200
2882 201
2882 991
2882 1001
2882 1003
2882 1006
2882 2879
2882 2880
2883 169
2883 181
2883 182
2883 184
2883 195
2883 196
2883 197
2883 198
2883 199
2883 200
2883 201
2883 991
2883 1001
2883 1003
2883 1006
2883 2879
2883 2880
2884 181
2884 182
2884 184
2884 195
2884 196
2884 197
2884 198
2884 199
2884 200
2884 201
2884 991
2884 1001
2884 1003
2884 1006
2884 2879
2885 181
2885 182
2885 184
2885 195
2885 196
2885 197
2885 198
2885 199
2885 200
2885 201
2885 1005
2885 1043
2885 2035
2885 2036
2885 2037
2885 2038
2886 181
2886 182
2886 184
2886 195
2886 196
2886 197
2886 198
2886 199
2886 200
2886 201
2886 398
2886 1005
2886 2035
2886 2036
2886 2037
2886 2038
2887 181
2887 182
2887 184
2887 195
2887 196
2887 197
2887 198
2887 199
2887 200
2887 201
2887 1005
2887 2035
2887 2036
2887 2037
2887 2038
2888 77
2888 194
2888 197
2888 198
2888 200
2888 201
2888 1023
2888 2310
2888 2877
2888 2878
2888 2889
2888 2890
2888 2891
2888 2892
2888 2893
2888 2894
2888 2895
2889 194
2889 197
2889 198
2889 200
2889 201
2889 1023
2889 2877
2889 2878
2889 2888
2889 2889
2889 2890
2889 2891
2889 2892
2889 2893
2889 2894
2889 2895
2890 100
2890 114
2890 139
2890 172
2890 173
2890 178
2890 194
2890 197
2890 198
2890 200
2890 201
2890 938
2890 1023
2890 2877
2890 2878
2890 2888
2890 2889
2890 2891
2890 2892
2890 2893
2890 2894
2890 2895
2891 194
2891 197
2891 198
2891 199
2891 200
2891 201
2891 629
2891 1023
2891 2877
2891 2878
2891 2888
2891 2889
2891 2890
2891 2892
2891 2893
2891 2894
2891 2895
2892 129
2892 139
2892 172
2892 173
2892 178
2892 189
2892 191
2892 194
2892 197
2892 198
2892 200
2892 201
2892 883
2892 1023
2892 2877
2892 2878
2892 2888
2892 2889
2892 2890
2892 2891
2892 2893
2892 2894
2892 2895
2893 170
2893 194
2893 197
2893 198
2893 200
2893 201
2893 1023
2893 2877
2893 2878
2893 2888
2893 2889
2893 2890
2893 2891
2893 2892
2893 2894
2893 2895
2894 189
2894 192
2894 194
2894 197
2894 198
2894 200
2894 201
2894 1023
2894 2877
2894 2878
2894 2888
2894 2889
2894 2890
2894 2891
2894 2892
2894 2893
2894 2895
2895 189
2895 190
2895 194
2895 197
2895 198
2895 200
2895 201
2895 1023
2895 2877
2895 2878
2895 2888
2895 2889
2895 2890
2895 2891
2895 2892
2895 2893
2895 2894
2896 194
2896 197
2896 198
2896 200
2896 201
2896 2330
2896 2345
2896 2896
2896 2897
2896 2898
2896 2899
2896 2900
2896 2901
2896 2902
2896 3409
2896 3410
2897 100
2897 114
2897 139
2897 172
2897 173
2897 178
2897 194
2897 197
2897 198
2897 200
2897 201
2897 938
2897 2330
2897 2345
2897 2896
2897 2898
2897 2899
2897 2900
2897 2901
2897 2902
2897 3409
2897 3410
2898 194
2898 197
2898 198
2898 199
2898 200
2898 201
2898 629
2898 2330
2898 2345
2898 2896
2898 2897
2898 2899
2898 2900
2898 2901
2898 2902
2898 3409
2898 3410
2899 129
2899 139
2899 172
2899 173
2899 178
2899 189
2899 191
2899 194
2899 197
2899 198
2899 200
2899 201
2899 883
2899 2330
2899 2345
2899 2896
2899 2897
2899 2898
2899 2900
2899 2901
2899 2902
2899 3409
2899 3410
2900 170
2900 194
2900 197
2900 198
2900 200
2900 201
2900 2330
2900 2345
2900 2896
2900 2897
2900 2898
2900 2899
2900 2901
2900 2902
2900 3409
2900 3410
2901 189
2901 192
2901 194
2901 197
2901 198
2901 200
2901 201
2901 2330
2901 2345
2901 2896
2901 2897
2901 2898
2901 2899
2901 2900
2901 2902
2901 3409
2901 3410
2902 189
2902 190
2902 194
2902 197
2902 198
2902 200
2902 201
2902 2330
2902 2345
2902 2896
2902 2897
2902 2898
2902 2899
2902 2900
2902 2901
2902 3409
2902 3410
2903 181
2903 182
2903 184
2903 195
2903 196
2903 197
2903 198
2903 199
2903 200
2903 201
2903 961
2903 1044
2903 3213
2903 3214
2903 3215
2903 3216
2904 130
2904 142
2904 143
2904 150
2904 160
2904 165
2904 167
2904 168
2904 170
2904 180
2904 187
2904 189
2904 192
2904 200
2904 201
2904 517
2904 1061
2904 1062
2905 129
2905 169
2905 190
2905 199
2905 200
2905 201
2905 1062
2905 2371
2905 2372
2905 2374
2905 2549
2905 2550
2906 122
2906 144
2906 1062
2907 201
2907 1062
2907 2133
2907 2538
2907 2909
2908 201
2908 1062
2908 2538
2908 2909
2909 199
2909 201
2909 1062
2909 2907
2909 2908
2910 185
2910 199
2910 200
2910 201
2910 390
2910 1062
2910 2492
2910 2911
2910 3340
2911 199
2911 200
2911 201
2911 1062
2911 2910
2912 173
2912 201
2912 267
2912 1071
2912 2057
2912 2069
2912 3132
2913 132
2913 198
2913 200
2913 201
2913 1073
2914 181
2914 182
2914 184
2914 195
2914 196
2914 197
2914 198
2914 199
2914 200
2914 201
2914 1079
2914 1081
2914 1082
2914 1083
2914 1084
2914 1085
2915 181
2915 182
2915 184
2915 195
2915 196
2915 197
2915 198
2915 199
2915 200
2915 201
2915 1080
2915 1081
2915 1082
2915 1083
2915 1084
2915 1085
2916 86
2916 174
2916 201
2916 1080
2916 2917
2916 2918
2916 2919
2917 201
2917 1080
2917 2916
2917 2918
2917 2919
2918 89
2918 196
2918 199
2918 200
2918 201
2918 1080
2918 2916
2918 2917
2918 2919
2919 174
2919 201
2919 1080
2919 2916
2919 2917
2919 2918
2920 181
2920 182
2920 184
2920 195
2920 196
2920 197
2920 198
2920 199
2920 200
2920 201
2920 1081
2920 1082
2920 1083
2920 1084
2920 1085
2921 194
2921 197
2921 198
2921 199
2921 200
2921 201
2921 1089
2921 1090
2921 1091
2921 1092
2921 1093
2921 1094
2921 1095
2921 1375
2921 1384
2921 1385
2921 1386
2921 1387
2921 1388
2921 1390
2921 1778
2922 132
2922 198
2922 200
2922 201
2922 1116
2923 37
2923 173
2923 201
2923 1136
2923 1138
2923 1142
2923 1723
2924 122
2924 196
2924 199
2924 200
2924 201
2924 1142
2924 1144
2924 2925
2924 2927
2924 2928
2924 2929
2924 2930
2924 2931
2925 64
2925 146
2925 200
2925 201
2925 522
2925 523
2925 1144
2925 2924
2925 2926
2925 2927
2925 2928
2925 2929
2925 2930
2925 2931
2926 158
2926 200
2926 201
2926 282
2926 650
2926 651
2926 1144
2926 2925
2926 2927
2927 110
2927 158
2927 196
2927 199
2927 200
2927 201
2927 1144
2927 2924
2927 2925
2927 2926
2927 2928
2927 2929
2927 2930
2927 2931
2928 194
2928 196
2928 199
2928 200
2928 201
2928 1144
2928 2924
2928 2925
2928 2927
2928 2929
2928 2930
2928 2931
2929 40
2929 122
2929 144
2929 194
2929 196
2929 199
2929 200
2929 201
2929 1144
2929 2924
2929 2925
2929 2927
2929 2928
2929 2930
2929 2931
2930 158
2930 196
2930 199
2930 200
2930 201
2930 1144
2930 2924
2930 2925
2930 2927
2930 2928
2930 2929
2930 2931
2931 40
2931 122
2931 144
2931 196
2931 199
2931 200
2931 201
2931 1144
2931 2924
2931 2925
2931 2927
2931 2928
2931 2929
2931 2930
2932 181
2932 182
2932 184
2932 195
2932 196
2932 197
2932 198
2932 199
2932 200
2932 201
2932 1147
2932 1148
2932 1149
2932 1150
2932 2853
2932 2854
2933 1147
2933 1148
2933 1149
2933 1150
2933 1151
2933 1153
2933 1154
2933 2493
2934 181
2934 182
2934 184
2934 195
2934 196
2934 197
2934 198
2934 199
2934 200
2934 201
2934 1147
2934 1148
2934 1149
2934 1150
2934 2854
2935 132
2935 198
2935 200
2935 201
2935 1151
2936 132
2936 198
2936 200
2936 201
2936 1173
2937 131
2937 137
2937 159
2937 169
2937 187
2937 189
2937 192
2937 195
2937 196
2937 198
2937 199
2937 200
2937 201
2937 502
2937 1191
2937 1192
2937 1194
2937 2551
2937 2749
2937 2938
2938 196
2938 199
2938 200
2938 201
2938 1191
2938 2749
2938 2937
2939 132
2939 198
2939 200
2939 201
2939 1200
2940 201
2940 1209
2941 196
2941 199
2941 200
2941 201
2941 1211
2941 1222
2941 1224
2942 78
2942 79
2942 162
2942 167
2942 168
2942 177
2942 180
2942 193
2942 200
2942 201
2942 630
2942 1211
2942 1213
2942 1233
2942 2952
2942 2953
2942 2954
2942 2955
2942 2956
2942 2958
2943 194
2943 197
2943 198
2943 200
2943 201
2943 1212
2943 1227
2943 2943
2943 2944
2943 2945
2943 2946
2943 2947
2943 2948
2943 2949
2943 2950
2943 2951
2944 100
2944 114
2944 139
2944 172
2944 173
2944 178
2944 194
2944 197
2944 198
2944 200
2944 201
2944 938
2944 1212
2944 1227
2944 2943
2944 2945
2944 2946
2944 2947
2944 2948
2944 2949
2944 2950
2944 2951
2945 194
2945 197
2945 198
2945 199
2945 200
2945 201
2945 629
2945 1212
2945 1227
2945 2943
2945 2944
2945 2946
2945 2947
2945 2948
2945 2949
2945 2950
2945 2951
2946 194
2946 197
2946 198
2946 200
2946 201
2946 1212
2946 1217
2946 1226
2946 1227
2946 1240
2946 1241
2946 1242
2946 1243
2946 1244
2946 1245
2946 2943
2946 2944
2946 2945
2946 2946
2946 2947
2946 2948
2946 2949
2946 2950
2946 2951
2946 2966
2947 129
2947 139
2947 172
2947 173
2947 178
2947 189
2947 191
2947 194
2947 197
2947 198
2947 200
2947 201
2947 883
2947 1212
2947 1227
2947 2943
2947 2944
2947 2945
2947 2946
2947 2948
2947 2949
2947 2950
2947 2951
2948 170
2948 194
2948 197
2948 198
2948 200
2948 201
2948 1212
2948 1227
2948 2943
2948 2944
2948 2945
2948 2946
2948 2947
2948 2949
2948 2950
2948 2951
2949 90
2949 94
2949 102
2949 103
2949 104
2949 105
2949 140
2949 153
2949 155
2949 158
2949 160
2949 162
2949 164
2949 166
2949 173
2949 178
2949 184
2949 189
2949 194
2949 197
2949 198
2949 200
2949 201
2949 238
2949 370
2949 449
2949 498
2949 499
2949 528
2949 1167
2949 1212
2949 1217
2949 1226
2949 1227
2949 1240
2949 1241
2949 1242
2949 1243
2949 1244
2949 1245
2949 1393
2949 1549
2949 1555
2949 2943
2949 2944
2949 2945
2949 2946
2949 2947
2949 2948
2949 2950
2949 2951
2949 2966
2949 2984
2950 189
2950 192
2950 194
2950 197
2950 198
2950 200
2950 201
2950 1212
2950 1227
2950 2943
2950 2944
2950 2945
2950 2946
2950 2947
2950 2948
2950 2949
2950 2951
2951 189
2951 190
2951 194
2951 197
2951 198
2951 200
2951 201
2951 1212
2951 1227
2951 2943
2951 2944
2951 2945
2951 2946
2951 2947
2951 2948
2951 2949
2951 2950
2952 185
2952 192
2952 196
2952 199
2952 200
2952 201
2952 1213
2952 1233
2952 2942
2952 2952
2952 2953
2952 2954
2952 2955
2952 2956
2952 2958
2953 84
2953 88
2953 95
2953 109
2953 112
2953 166
2953 171
2953 180
2953 185
2953 192
2953 196
2953 199
2953 200
2953 201
2953 322
2953 333
2953 338
2953 344
2953 396
2953 412
2953 425
2953 432
2953 437
2953 440
2953 444
2953 481
2953 485
2953 490
2953 929
2953 984
2953 1135
2953 1213
2953 1233
2953 1587
2953 1588
2953 1589
2953 1645
2953 1770
2953 2021
2953 2089
2953 2144
2953 2206
2953 2400
2953 2942
2953 2952
2953 2954
2953 2955
2953 2956
2953 2958
2954 189
2954 191
2954 196
2954 199
2954 200
2954 201
2954 1213
2954 1233
2954 2942
2954 2952
2954 2953
2954 2955
2955 171
2955 185
2955 192
2955 196
2955 199
2955 200
2955 201
2955 1213
2955 1233
2955 2942
2955 2952
2955 2953
2955 2954
2955 2956
2955 2958
2955 3371
2956 191
2956 200
2956 201
2956 1213
2956 1233
2956 2942
2956 2952
2956 2953
2956 2955
2957 196
2957 199
2957 200
2957 201
2957 1213
2958 171
2958 185
2958 196
2958 199
2958 200
2958 201
2958 1213
2958 2942
2958 2952
2958 2953
2958 2955
2959 199
2959 200
2959 201
2959 312
2959 430
2959 1214
2959 1238
2959 2983
2960 187
2960 190
2960 200
2960 201
2960 1214
2960 1219
2960 1225
2960 1229
2960 1230
2960 2380
2960 2387
2960 2961
2960 2974
2960 2975
2961 156
2961 157
2961 187
2961 190
2961 200
2961 201
2961 1214
2961 1219
2961 1225
2961 1230
2961 1231
2961 2380
2961 2960
2961 2973
2961 2974
2961 2975
2962 175
2962 176
2962 177
2962 179
2962 200
2962 201
2962 718
2962 1215
2962 1218
2962 1221
2962 2971
2962 2972
2963 191
2963 196
2963 198
2963 199
2963 200
2963 201
2963 1216
2963 3372
2963 3373
2964 181
2964 182
2964 184
2964 195
2964 196
2964 197
2964 198
2964 199
2964 200
2964 201
2964 1217
2964 1240
2964 1241
2964 1242
2964 1243
2964 2966
2965 169
2965 181
2965 182
2965 184
2965 195
2965 196
2965 197
2965 198
2965 199
2965 200
2965 201
2965 1217
2965 1240
2965 1241
2965 1242
2965 1243
2965 2966
2966 195
2966 196
2966 197
2966 198
2966 199
2966 200
2966 201
2966 1217
2966 1226
2966 1240
2966 1241
2966 1242
2966 1243
2966 1244
2966 1245
2966 2946
2966 2949
2966 2964
2966 2965
2966 2984
2966 2985
2967 86
2967 174
2967 201
2967 1217
2967 2968
2967 2969
2967 2970
2968 201
2968 1217
2968 2967
2968 2969
2968 2970
2969 89
2969 196
2969 199
2969 200
2969 201
2969 1217
2969 2967
2969 2968
2969 2970
2970 174
2970 201
2970 1217
2970 2967
2970 2968
2970 2969
2971 175
2971 176
2971 177
2971 179
2971 200
2971 201
2971 506
2971 1218
2971 1221
2971 2962
2971 2972
2972 175
2972 176
2972 177
2972 179
2972 200
2972 201
2972 1218
2972 1221
2972 2962
2972 2971
2972 2972
2973 148
2973 156
2973 157
2973 164
2973 187
2973 196
2973 199
2973 200
2973 201
2973 1219
2973 1229
2973 2961
2974 1219
2974 2960
2974 2961
2974 2975
2975 187
2975 190
2975 196
2975 199
2975 200
2975 201
2975 1219
2975 1229
2975 1230
2975 2380
2975 2960
2975 2961
2975 2974
2976 132
2976 198
2976 200
2976 201
2976 1226
2977 201
2977 248
2977 1232
2978 201
2978 1234
2979 174
2979 201
2979 1234
2980 1234
2980 3375
2981 201
2981 1234
2981 1237
2982 201
2982 1235
2983 76
2983 155
2983 199
2983 200
2983 201
2983 1238
2983 2959
2984 181
2984 182
2984 184
2984 195
2984 196
2984 197
2984 198
2984 199
2984 200
2984 201
2984 1240
2984 1241
2984 1242
2984 1243
2984 2949
2984 2966
2985 181
2985 182
2985 184
2985 195
2985 196
2985 197
2985 198
2985 199
2985 200
2985 201
2985 1240
2985 1241
2985 1242
2985 1243
2985 2966
2986 201
2986 1247
2987 196
2987 199
2987 200
2987 201
2987 1250
2987 1261
2987 1263
2988 194
2988 197
2988 198
2988 200
2988 201
2988 1251
2988 1266
2988 2988
2988 2989
2988 2990
2988 2991
2988 2992
2988 2993
2988 2994
2988 2995
2988 2996
2989 100
2989 114
2989 139
2989 172
2989 173
2989 178
2989 194
2989 197
2989 198
2989 200
2989 201
2989 938
2989 1251
2989 1266
2989 2988
2989 2990
2989 2991
2989 2992
2989 2993
2989 2994
2989 2995
2989 2996
2990 194
2990 197
2990 198
2990 199
2990 200
2990 201
2990 629
2990 1251
2990 1266
2990 2988
2990 2989
2990 2991
2990 2992
2990 2993
2990 2994
2990 2995
2990 2996
2991 194
2991 197
2991 198
2991 200
2991 201
2991 1251
2991 1256
2991 1265
2991 1266
2991 1279
2991 1280
2991 1281
2991 1282
2991 1283
2991 1284
2991 2988
2991 2989
2991 2990
2991 2991
2991 2992
2991 2993
2991 2994
2991 2995
2991 2996
2991 3003
2992 129
2992 139
2992 172
2992 173
2992 178
2992 189
2992 191
2992 194
2992 197
2992 198
2992 200
2992 201
2992 883
2992 1251
2992 1266
2992 2988
2992 2989
2992 2990
2992 2991
2992 2993
2992 2994
2992 2995
2992 2996
2993 170
2993 194
2993 197
2993 198
2993 200
2993 201
2993 1251
2993 1266
2993 2988
2993 2989
2993 2990
2993 2991
2993 2992
2993 2994
2993 2995
2993 2996
2994 90
2994 94
2994 102
2994 103
2994 104
2994 105
2994 140
2994 153
2994 155
2994 158
2994 160
2994 162
2994 164
2994 166
2994 173
2994 178
2994 184
2994 189
2994 194
2994 197
2994 198
2994 200
2994 201
2994 238
2994 370
2994 449
2994 498
2994 499
2994 528
2994 1167
2994 1251
2994 1256
2994 1265
2994 1266
2994 1279
2994 1280
2994 1281
2994 1282
2994 1283
2994 1284
2994 1393
2994 1549
2994 1555
2994 2988
2994 2989
2994 2990
2994 2991
2994 2992
2994 2993
2994 2995
2994 2996
2994 3003
2994 3017
2995 189
2995 192
2995 194
2995 197
2995 198
2995 200
2995 201
2995 1251
2995 1266
2995 2988
2995 2989
2995 2990
2995 2991
2995 2992
2995 2993
2995 2994
2995 2996
2996 189
2996 190
2996 194
2996 197
2996 198
2996 200
2996 201
2996 1251
2996 1266
2996 2988
2996 2989
2996 2990
2996 2991
2996 2992
2996 2993
2996 2994
2996 2995
2997 196
2997 199
2997 200
2997 201
2997 1252
2998 199
2998 200
2998 201
2998 312
2998 430
2998 1253
2998 1277
2998 3016
2999 175
2999 176
2999 177
2999 179
2999 200
2999 201
2999 718
2999 1254
2999 1257
2999 1259
2999 3008
2999 3009
3000 191
3000 196
3000 198
3000 199
3000 200
3000 201
3000 1255
3000 1805
3000 1830
3001 181
3001 182
3001 184
3001 195
3001 196
3001 197
3001 198
3001 199
3001 200
3001 201
3001 1256
3001 1279
3001 1280
3001 1281
3001 1282
3001 3003
3002 169
3002 181
3002 182
3002 184
3002 195
3002 196
3002 197
3002 198
3002 199
3002 200
3002 201
3002 1256
3002 1279
3002 1280
3002 1281
3002 1282
3002 3003
3003 195
3003 196
3003 197
3003 198
3003 199
3003 200
3003 201
3003 1256
3003 1265
3003 1279
3003 1280
3003 1281
3003 1282
3003 1283
3003 1284
3003 2991
3003 2994
3003 3001
3003 3002
3003 3017
3003 3018
3004 86
3004 174
3004 201
3004 1256
3004 3005
3004 3006
3004 3007
3005 201
3005 1256
3005 3004
3005 3006
3005 3007
3006 89
3006 196
3006 199
3006 200
3006 201
3006 1256
3006 3004
3006 3005
3006 3007
3007 174
3007 201
3007 1256
3007 3004
3007 3005
3007 3006
3008 175
3008 176
3008 177
3008 179
3008 200
3008 201
3008 506
3008 1257
3008 1259
3008 2999
3008 3009
3009 175
3009 176
3009 177
3009 179
3009 200
3009 201
3009 1257
3009 1259
3009 2999
3009 3008
3009 3009
3010 132
3010 198
3010 200
3010 201
3010 1265
3011 201
3011 248
3011 1271
3012 201
3012 1273
3013 174
3013 201
3013 1273
3014 1273
3014 1951
3015 201
3015 1274
3016 76
3016 155
3016 199
3016 200
3016 201
3016 1277
3016 2998
3017 181
3017 182
3017 184
3017 195
3017 196
3017 197
3017 198
3017 199
3017 200
3017 201
3017 1279
3017 1280
3017 1281
3017 1282
3017 2994
3017 3003
3018 181
3018 182
3018 184
3018 195
3018 196
3018 197
3018 198
3018 199
3018 200
3018 201
3018 1279
3018 1280
3018 1281
3018 1282
3018 3003
3019 174
3019 201
3019 1296
3020 201
3020 1297
3021 201
3021 1298
3022 76
3022 155
3022 199
3022 200
3022 201
3022 1300
3022 2871
3023 181
3023 182
3023 184
3023 195
3023 196
3023 197
3023 198
3023 199
3023 200
3023 201
3023 1302
3023 1303
3023 1304
3023 1305
3023 2867
3023 2868
3024 181
3024 182
3024 184
3024 195
3024 196
3024 197
3024 198
3024 199
3024 200
3024 201
3024 1302
3024 1303
3024 1304
3024 1305
3024 2868
3025 132
3025 198
3025 200
3025 201
3025 1306
3026 1313
3027 194
3027 197
3027 198
3027 200
3027 201
3027 1328
3027 1336
3027 1396
3027 1721
3027 3027
3027 3028
3027 3029
3027 3030
3027 3031
3027 3032
3027 3033
3027 3034
3028 194
3028 197
3028 198
3028 199
3028 200
3028 201
3028 629
3028 1328
3028 1336
3028 1396
3028 1721
3028 3027
3028 3029
3028 3030
3028 3031
3028 3032
3028 3033
3028 3034
3029 129
3029 139
3029 172
3029 173
3029 178
3029 189
3029 191
3029 194
3029 197
3029 198
3029 200
3029 201
3029 883
3029 1328
3029 1336
3029 1396
3029 1721
3029 3027
3029 3028
3029 3030
3029 3031
3029 3032
3029 3033
3029 3034
3030 170
3030 194
3030 197
3030 198
3030 200
3030 201
3030 1328
3030 1336
3030 1396
3030 1721
3030 3027
3030 3028
3030 3029
3030 3031
3030 3032
3030 3033
3030 3034
3031 90
3031 94
3031 102
3031 103
3031 104
3031 105
3031 140
3031 153
3031 155
3031 158
3031 160
3031 162
3031 164
3031 166
3031 173
3031 178
3031 184
3031 189
3031 194
3031 197
3031 198
3031 200
3031 201
3031 238
3031 370
3031 449
3031 498
3031 499
3031 528
3031 1167
3031 1328
3031 1336
3031 1348
3031 1349
3031 1350
3031 1351
3031 1352
3031 1354
3031 1393
3031 1396
3031 1549
3031 1555
3031 1721
3031 2653
3031 3027
3031 3028
3031 3029
3031 3030
3031 3032
3031 3033
3031 3034
3032 189
3032 192
3032 194
3032 197
3032 198
3032 200
3032 201
3032 1328
3032 1336
3032 1396
3032 1721
3032 3027
3032 3028
3032 3029
3032 3030
3032 3031
3032 3033
3032 3034
3033 194
3033 197
3033 198
3033 200
3033 201
3033 1328
3033 1336
3033 1348
3033 1349
3033 1350
3033 1351
3033 1352
3033 1354
3033 1396
3033 1721
3033 3027
3033 3028
3033 3029
3033 3030
3033 3031
3033 3032
3033 3034
3034 189
3034 190
3034 194
3034 197
3034 198
3034 200
3034 201
3034 1328
3034 1336
3034 1396
3034 1721
3034 3027
3034 3028
3034 3029
3034 3030
3034 3031
3034 3032
3034 3033
3035 191
3035 196
3035 198
3035 199
3035 200
3035 201
3035 1331
3035 3378
3035 3379
3036 54
3036 201
3036 462
3036 1326
3036 1334
3036 1567
3037 1343
3038 57
3038 200
3038 201
3038 1178
3038 1370
3038 1372
3038 1373
3038 1374
3038 2799
3038 3040
3039 57
3039 177
3039 179
3039 201
3039 1370
3039 1371
3039 1391
3039 3039
3040 196
3040 199
3040 200
3040 201
3040 1372
3040 2799
3040 3038
3041 132
3041 198
3041 200
3041 201
3041 1375
3042 174
3042 201
3042 1379
3043 201
3043 1380
3044 201
3044 1381
3045 1391
3046 198
3046 200
3046 201
3046 1415
3046 1416
3046 1417
3046 1419
3046 1420
3046 1421
3046 1637
3046 3047
3046 3048
3046 3050
3046 3104
3046 3105
3046 3106
3046 3107
3046 3108
3046 3109
3046 3110
3046 3111
3047 90
3047 94
3047 102
3047 103
3047 104
3047 105
3047 140
3047 153
3047 155
3047 158
3047 160
3047 162
3047 164
3047 166
3047 173
3047 178
3047 184
3047 189
3047 194
3047 197
3047 198
3047 200
3047 201
3047 238
3047 370
3047 449
3047 498
3047 499
3047 528
3047 1167
3047 1393
3047 1415
3047 1416
3047 1417
3047 1419
3047 1420
3047 1421
3047 1549
3047 1555
3047 1637
3047 3046
3047 3048
3047 3049
3047 3050
3047 3104
3047 3105
3047 3106
3047 3107
3047 3108
3047 3109
3047 3110
3047 3111
3048 194
3048 197
3048 198
3048 200
3048 201
3048 1415
3048 1416
3048 1417
3048 1419
3048 1420
3048 1421
3048 1637
3048 3046
3048 3047
3048 3050
3048 3104
3048 3105
3048 3106
3048 3107
3048 3108
3048 3109
3048 3110
3048 3111
3049 181
3049 182
3049 184
3049 195
3049 196
3049 197
3049 198
3049 199
3049 200
3049 201
3049 1415
3049 1416
3049 1417
3049 1419
3049 3047
3049 3050
3050 195
3050 196
3050 197
3050 198
3050 199
3050 200
3050 201
3050 1415
3050 1416
3050 1417
3050 1419
3050 1420
3050 1421
3050 3046
3050 3047
3050 3048
3050 3049
3050 3051
3051 181
3051 182
3051 184
3051 195
3051 196
3051 197
3051 198
3051 199
3051 200
3051 201
3051 1415
3051 1416
3051 1417
3051 1419
3051 3050
3052 181
3052 182
3052 184
3052 195
3052 196
3052 197
3052 198
3052 199
3052 200
3052 201
3052 1418
3052 2104
3052 2105
3052 2106
3052 2107
3053 1425
3054 56
3054 64
3054 159
3054 192
3054 201
3054 273
3054 522
3054 565
3054 1433
3055 174
3055 201
3055 1457
3056 201
3056 1458
3057 201
3057 1459
3058 181
3058 182
3058 184
3058 195
3058 196
3058 197
3058 198
3058 199
3058 200
3058 201
3058 1465
3058 1466
3058 1467
3058 1468
3058 2753
3059 132
3059 198
3059 200
3059 201
3059 1469
3060 201
3060 1484
3061 70
3061 200
3061 201
3061 663
3061 671
3061 1498
3061 1500
3061 1502
3061 1815
3061 3063
3062 70
3062 177
3062 179
3062 201
3062 299
3062 1498
3062 1499
3062 3062
3063 196
3063 199
3063 200
3063 201
3063 663
3063 1500
3063 3061
3064 132
3064 198
3064 200
3064 201
3064 1503
3065 174
3065 201
3065 1508
3066 201
3066 1509
3067 201
3067 1510
3068 201
3068 1526
3069 201
3069 1537
3070 64
3070 146
3070 201
3070 323
3070 522
3070 523
3070 1539
3070 2736
3070 3071
3070 3072
3070 3073
3070 3074
3070 3075
3070 3076
3071 158
3071 200
3071 201
3071 282
3071 650
3071 651
3071 1539
3071 3070
3071 3072
3072 110
3072 158
3072 196
3072 199
3072 200
3072 201
3072 1539
3072 2736
3072 3070
3072 3071
3072 3073
3072 3074
3072 3075
3072 3076
3073 194
3073 196
3073 199
3073 200
3073 201
3073 1539
3073 2736
3073 3070
3073 3072
3073 3074
3073 3075
3073 3076
3074 40
3074 122
3074 144
3074 194
3074 196
3074 199
3074 200
3074 201
3074 1539
3074 2736
3074 3070
3074 3072
3074 3073
3074 3075
3074 3076
3075 158
3075 196
3075 199
3075 200
3075 201
3075 1539
3075 2736
3075 3070
3075 3072
3075 3073
3075 3074
3075 3076
3076 40
3076 122
3076 144
3076 196
3076 199
3076 200
3076 201
3076 1539
3076 2736
3076 3070
3076 3072
3076 3073
3076 3074
3076 3075
3077 64
3077 146
3077 201
3077 323
3077 522
3077 523
3077 1540
3077 2710
3077 3078
3077 3079
3077 3080
3077 3081
3077 3082
3077 3083
3078 158
3078 200
3078 201
3078 282
3078 650
3078 651
3078 1540
3078 3077
3078 3079
3079 110
3079 158
3079 196
3079 199
3079 200
3079 201
3079 1540
3079 2710
3079 3077
3079 3078
3079 3080
3079 3081
3079 3082
3079 3083
3080 194
3080 196
3080 199
3080 200
3080 201
3080 1540
3080 2710
3080 3077
3080 3079
3080 3081
3080 3082
3080 3083
3081 40
3081 122
3081 144
3081 194
3081 196
3081 199
3081 200
3081 201
3081 1540
3081 2710
3081 3077
3081 3079
3081 3080
3081 3082
3081 3083
3082 158
3082 196
3082 199
3082 200
3082 201
3082 1540
3082 2710
3082 3077
3082 3079
3082 3080
3082 3081
3082 3083
3083 40
3083 122
3083 144
3083 196
3083 199
3083 200
3083 201
3083 1540
3083 2710
3083 3077
3083 3079
3083 3080
3083 3081
3083 3082
3084 64
3084 146
3084 200
3084 201
3084 522
3084 523
3084 1543
3084 3085
3084 3086
3084 3087
3084 3088
3084 3089
3084 3090
3084 3091
3085 158
3085 200
3085 201
3085 282
3085 650
3085 651
3085 1543
3085 3084
3085 3086
3086 110
3086 158
3086 196
3086 199
3086 200
3086 201
3086 1543
3086 3084
3086 3085
3086 3087
3086 3088
3086 3089
3086 3090
3086 3091
3087 194
3087 196
3087 199
3087 200
3087 201
3087 1543
3087 3084
3087 3086
3087 3088
3087 3089
3087 3090
3087 3091
3088 40
3088 122
3088 144
3088 194
3088 196
3088 199
3088 200
3088 201
3088 1543
3088 3084
3088 3086
3088 3087
3088 3089
3088 3090
3088 3091
3089 158
3089 196
3089 199
3089 200
3089 201
3089 1543
3089 3084
3089 3086
3089 3087
3089 3088
3089 3090
3089 3091
3090 40
3090 122
3090 144
3090 196
3090 199
3090 200
3090 201
3090 1543
3090 3084
3090 3086
3090 3087
3090 3088
3090 3089
3090 3091
3091 122
3091 196
3091 199
3091 200
3091 201
3091 1543
3091 2069
3091 2285
3091 3084
3091 3086
3091 3087
3091 3088
3091 3089
3091 3090
3092 158
3092 200
3092 201
3092 282
3092 650
3092 651
3092 1545
3092 1879
3092 3093
3093 110
3093 158
3093 196
3093 199
3093 200
3093 201
3093 1545
3093 1879
3093 3092
3093 3094
3093 3095
3093 3096
3093 3097
3093 3098
3094 194
3094 196
3094 199
3094 200
3094 201
3094 1545
3094 1879
3094 3093
3094 3095
3094 3096
3094 3097
3094 3098
3095 40
3095 122
3095 144
3095 194
3095 196
3095 199
3095 200
3095 201
3095 1545
3095 1879
3095 3093
3095 3094
3095 3096
3095 3097
3095 3098
3096 158
3096 196
3096 199
3096 200
3096 201
3096 1545
3096 1879
3096 3093
3096 3094
3096 3095
3096 3097
3096 3098
3097 40
3097 122
3097 144
3097 196
3097 199
3097 200
3097 201
3097 1545
3097 1879
3097 3093
3097 3094
3097 3095
3097 3096
3097 3098
3098 122
3098 196
3098 199
3098 200
3098 201
3098 1545
3098 1879
3098 2098
3098 2117
3098 3093
3098 3094
3098 3095
3098 3096
3098 3097
3099 196
3099 199
3099 200
3099 201
3099 1550
3099 2381
3099 2850
3100 201
3100 248
3100 1559
3101 191
3101 196
3101 198
3101 199
3101 200
3101 201
3101 1562
3101 3101
3101 3102
3102 191
3102 195
3102 196
3102 198
3102 199
3102 200
3102 201
3102 1562
3102 3101
3103 1626
3104 100
3104 114
3104 139
3104 147
3104 172
3104 173
3104 178
3104 198
3104 200
3104 201
3104 315
3104 938
3104 1637
3104 3046
3104 3047
3104 3048
3104 3105
3104 3106
3104 3107
3104 3108
3104 3109
3104 3110
3104 3111
3105 147
3105 198
3105 200
3105 201
3105 315
3105 1637
3105 3046
3105 3047
3105 3048
3105 3104
3105 3106
3105 3107
3105 3108
3105 3109
3105 3110
3105 3111
3106 194
3106 197
3106 198
3106 200
3106 201
3106 1637
3106 3046
3106 3047
3106 3048
3106 3104
3106 3105
3106 3106
3106 3107
3106 3108
3106 3109
3106 3110
3106 3111
3107 194
3107 197
3107 198
3107 199
3107 200
3107 201
3107 629
3107 1637
3107 3046
3107 3047
3107 3048
3107 3104
3107 3105
3107 3106
3107 3108
3107 3109
3107 3110
3107 3111
3108 129
3108 139
3108 172
3108 173
3108 178
3108 189
3108 191
3108 194
3108 197
3108 198
3108 200
3108 201
3108 883
3108 1637
3108 3046
3108 3047
3108 3048
3108 3104
3108 3105
3108 3106
3108 3107
3108 3109
3108 3110
3108 3111
3109 170
3109 194
3109 197
3109 198
3109 200
3109 201
3109 1637
3109 3046
3109 3047
3109 3048
3109 3104
3109 3105
3109 3106
3109 3107
3109 3108
3109 3110
3109 3111
3110 189
3110 192
3110 194
3110 197
3110 198
3110 200
3110 201
3110 1637
3110 3046
3110 3047
3110 3048
3110 3104
3110 3105
3110 3106
3110 3107
3110 3108
3110 3109
3110 3111
3111 189
3111 190
3111 194
3111 197
3111 198
3111 200
3111 201
3111 1637
3111 3046
3111 3047
3111 3048
3111 3104
3111 3105
3111 3106
3111 3107
3111 3108
3111 3109
3111 3110
3112 190
3112 200
3112 201
3112 1730
3112 2285
3112 2624
3113 200
3113 201
3113 259
3113 405
3113 1751
3113 2001
3113 2002
3113 2003
3113 2849
3113 3121
3114 191
3114 196
3114 198
3114 199
3114 200
3114 201
3114 3114
3114 3115
3114 3333
3115 191
3115 195
3115 196
3115 198
3115 199
3115 200
3115 201
3115 3114
3115 3333
3116 173
3116 201
3116 264
3116 509
3116 1921
3116 2022
3116 2030
3117 220
3118 173
3118 201
3118 269
3118 1948
3118 2090
3118 2098
3118 3133
3119 3336
3120 1983
3121 196
3121 199
3121 200
3121 201
3121 2001
3121 2849
3121 3113
3122 132
3122 198
3122 200
3122 201
3122 2004
3123 122
3123 196
3123 199
3123 200
3123 201
3123 2030
3123 2032
3123 2816
3123 3125
3123 3126
3123 3127
3123 3128
3123 3129
3124 158
3124 200
3124 201
3124 282
3124 650
3124 651
3124 2032
3124 2816
3124 3125
3125 110
3125 158
3125 196
3125 199
3125 200
3125 201
3125 2032
3125 2816
3125 3123
3125 3124
3125 3126
3125 3127
3125 3128
3125 3129
3126 194
3126 196
3126 199
3126 200
3126 201
3126 2032
3126 2816
3126 3123
3126 3125
3126 3127
3126 3128
3126 3129
3127 40
3127 122
3127 144
3127 194
3127 196
3127 199
3127 200
3127 201
3127 2032
3127 2816
3127 3123
3127 3125
3127 3126
3127 3128
3127 3129
3128 158
3128 196
3128 199
3128 200
3128 201
3128 2032
3128 2816
3128 3123
3128 3125
3128 3126
3128 3127
3128 3129
3129 40
3129 122
3129 144
3129 196
3129 199
3129 200
3129 201
3129 2032
3129 2816
3129 3123
3129 3125
3129 3126
3129 3127
3129 3128
3130 132
3130 198
3130 200
3130 201
3130 2039
3131 173
3131 201
3131 266
3131 2044
3131 2045
3131 2047
3131 2054
3132 190
3132 200
3132 201
3132 2057
3132 2069
3132 2912
3133 190
3133 200
3133 201
3133 2090
3133 2098
3133 3118
3134 201
3134 278
3134 2134
3135 3158
3135 3159
3135 3172
3136 136
3136 194
3136 196
3136 197
3136 199
3136 200
3136 201
3136 884
3136 1054
3136 2143
3136 2144
3136 2175
3136 3136
3136 3158
3137 2148
3138 201
3138 2153
3139 196
3139 199
3139 200
3139 201
3139 2155
3139 2166
3139 2168
3140 78
3140 79
3140 162
3140 167
3140 168
3140 177
3140 180
3140 193
3140 200
3140 201
3140 630
3140 2155
3140 2157
3140 2178
3140 3150
3140 3151
3140 3152
3140 3153
3140 3154
3140 3156
3141 194
3141 197
3141 198
3141 200
3141 201
3141 2156
3141 2171
3141 3141
3141 3142
3141 3143
3141 3144
3141 3145
3141 3146
3141 3147
3141 3148
3141 3149
3142 100
3142 114
3142 139
3142 172
3142 173
3142 178
3142 194
3142 197
3142 198
3142 200
3142 201
3142 938
3142 2156
3142 2171
3142 3141
3142 3143
3142 3144
3142 3145
3142 3146
3142 3147
3142 3148
3142 3149
3143 194
3143 197
3143 198
3143 199
3143 200
3143 201
3143 629
3143 2156
3143 2171
3143 3141
3143 3142
3143 3144
3143 3145
3143 3146
3143 3147
3143 3148
3143 3149
3144 194
3144 197
3144 198
3144 200
3144 201
3144 2156
3144 2161
3144 2170
3144 2171
3144 2188
3144 2189
3144 2190
3144 2191
3144 2192
3144 2194
3144 3141
3144 3142
3144 3143
3144 3144
3144 3145
3144 3146
3144 3147
3144 3148
3144 3149
3144 3163
3145 129
3145 139
3145 172
3145 173
3145 178
3145 189
3145 191
3145 194
3145 197
3145 198
3145 200
3145 201
3145 883
3145 2156
3145 2171
3145 3141
3145 3142
3145 3143
3145 3144
3145 3146
3145 3147
3145 3148
3145 3149
3146 170
3146 194
3146 197
3146 198
3146 200
3146 201
3146 2156
3146 2171
3146 3141
3146 3142
3146 3143
3146 3144
3146 3145
3146 3147
3146 3148
3146 3149
3147 90
3147 94
3147 102
3147 103
3147 104
3147 105
3147 140
3147 153
3147 155
3147 158
3147 160
3147 162
3147 164
3147 166
3147 173
3147 178
3147 184
3147 189
3147 194
3147 197
3147 198
3147 200
3147 201
3147 238
3147 370
3147 449
3147 498
3147 499
3147 528
3147 1167
3147 1393
3147 1549
3147 1555
3147 2156
3147 2161
3147 2170
3147 2171
3147 2188
3147 2189
3147 2190
3147 2191
3147 2192
3147 2194
3147 3141
3147 3142
3147 3143
3147 3144
3147 3145
3147 3146
3147 3148
3147 3149
3147 3163
3147 3181
3148 189
3148 192
3148 194
3148 197
3148 198
3148 200
3148 201
3148 2156
3148 2171
3148 3141
3148 3142
3148 3143
3148 3144
3148 3145
3148 3146
3148 3147
3148 3149
3149 189
3149 190
3149 194
3149 197
3149 198
3149 200
3149 201
3149 2156
3149 2171
3149 3141
3149 3142
3149 3143
3149 3144
3149 3145
3149 3146
3149 3147
3149 3148
3150 185
3150 192
3150 196
3150 199
3150 200
3150 201
3150 2157
3150 2178
3150 3140
3150 3150
3150 3151
3150 3152
3150 3153
3150 3154
3150 3156
3151 84
3151 88
3151 95
3151 109
3151 112
3151 166
3151 171
3151 180
3151 185
3151 192
3151 196
3151 199
3151 200
3151 201
3151 322
3151 333
3151 338
3151 344
3151 396
3151 412
3151 425
3151 432
3151 437
3151 440
3151 444
3151 481
3151 485
3151 490
3151 929
3151 984
3151 1135
3151 1587
3151 1588
3151 1589
3151 1645
3151 1770
3151 2021
3151 2089
3151 2144
3151 2157
3151 2178
3151 2206
3151 2400
3151 3140
3151 3150
3151 3152
3151 3153
3151 3154
3151 3156
3152 189
3152 191
3152 196
3152 199
3152 200
3152 201
3152 2157
3152 2178
3152 3140
3152 3150
3152 3151
3152 3153
3153 171
3153 185
3153 192
3153 196
3153 199
3153 200
3153 201
3153 2157
3153 2178
3153 3140
3153 3150
3153 3151
3153 3152
3153 3154
3153 3156
3153 3380
3154 191
3154 200
3154 201
3154 2157
3154 2178
3154 3140
3154 3150
3154 3151
3154 3153
3155 196
3155 199
3155 200
3155 201
3155 2157
3156 171
3156 185
3156 196
3156 199
3156 200
3156 201
3156 2157
3156 3140
3156 3150
3156 3151
3156 3153
3157 199
3157 200
3157 201
3157 312
3157 430
3157 2158
3157 2186
3157 3180
3158 187
3158 190
3158 200
3158 201
3158 2158
3158 2163
3158 2169
3158 2174
3158 2175
3158 3135
3158 3136
3158 3159
3158 3171
3158 3172
3159 156
3159 157
3159 187
3159 190
3159 200
3159 201
3159 2158
3159 2163
3159 2169
3159 2175
3159 2176
3159 3135
3159 3158
3159 3170
3159 3171
3159 3172
3160 175
3160 176
3160 177
3160 179
3160 200
3160 201
3160 718
3160 2159
3160 2162
3160 2165
3160 3168
3160 3169
3161 181
3161 182
3161 184
3161 195
3161 196
3161 197
3161 198
3161 199
3161 200
3161 201
3161 2161
3161 2188
3161 2189
3161 2190
3161 2191
3161 3163
3162 169
3162 181
3162 182
3162 184
3162 195
3162 196
3162 197
3162 198
3162 199
3162 200
3162 201
3162 2161
3162 2188
3162 2189
3162 2190
3162 2191
3162 3163
3163 195
3163 196
3163 197
3163 198
3163 199
3163 200
3163 201
3163 2161
3163 2170
3163 2188
3163 2189
3163 2190
3163 2191
3163 2192
3163 2194
3163 3144
3163 3147
3163 3161
3163 3162
3163 3181
3163 3182
3164 86
3164 174
3164 201
3164 2161
3164 3165
3164 3166
3164 3167
3165 201
3165 2161
3165 3164
3165 3166
3165 3167
3166 89
3166 196
3166 199
3166 200
3166 201
3166 2161
3166 3164
3166 3165
3166 3167
3167 174
3167 201
3167 2161
3167 3164
3167 3165
3167 3166
3168 175
3168 176
3168 177
3168 179
3168 200
3168 201
3168 506
3168 2162
3168 2165
3168 3160
3168 3169
3169 175
3169 176
3169 177
3169 179
3169 200
3169 201
3169 2162
3169 2165
3169 3160
3169 3168
3169 3169
3170 148
3170 156
3170 157
3170 164
3170 187
3170 196
3170 199
3170 200
3170 201
3170 2163
3170 2174
3170 3159
3171 2163
3171 3158
3171 3159
3171 3172
3172 187
3172 190
3172 196
3172 199
3172 200
3172 201
3172 2163
3172 2174
3172 2175
3172 3135
3172 3158
3172 3159
3172 3171
3173 132
3173 198
3173 200
3173 201
3173 2170
3174 191
3174 196
3174 198
3174 199
3174 200
3174 201
3174 2173
3174 3386
3174 3387
3175 201
3175 2179
3176 174
3176 201
3176 2179
3177 2179
3177 3389
3178 201
3178 2179
3178 2183
3179 201
3179 2180
3180 76
3180 155
3180 199
3180 200
3180 201
3180 2186
3180 3157
3181 181
3181 182
3181 184
3181 195
3181 196
3181 197
3181 198
3181 199
3181 200
3181 201
3181 2188
3181 2189
3181 2190
3181 2191
3181 3147
3181 3163
3182 181
3182 182
3182 184
3182 195
3182 196
3182 197
3182 198
3182 199
3182 200
3182 201
3182 2188
3182 2189
3182 2190
3182 2191
3182 3163
3183 158
3183 200
3183 201
3183 282
3183 650
3183 651
3183 2223
3183 2817
3183 2818
3184 201
3184 2249
3185 201
3185 2250
3186 191
3186 196
3186 198
3186 199
3186 200
3186 201
3186 2256
3186 2773
3186 2774
3187 201
3187 248
3187 287
3188 201
3188 248
3188 2314
3189 149
3189 151
3189 152
3189 172
3189 178
3189 187
3189 190
3189 200
3189 201
3189 283
3189 329
3189 2332
3189 2343
3189 2386
3189 3190
3189 3209
3189 3210
3189 3220
3190 187
3190 190
3190 200
3190 201
3190 283
3190 329
3190 2199
3190 2332
3190 2337
3190 2343
3190 3189
3190 3209
3190 3220
3190 3374
3191 195
3191 283
3191 291
3192 195
3192 291
3192 2316
3193 201
3193 2325
3193 2332
3193 2334
3193 2340
3193 2343
3193 2346
3193 2347
3193 2353
3193 2354
3193 2355
3193 2356
3193 2386
3193 2829
3193 2856
3193 3390
3194 201
3194 491
3194 2326
3194 2341
3194 2342
3194 2344
3194 2348
3194 2349
3194 2350
3194 2360
3194 2362
3194 2363
3194 2364
3194 2365
3194 2366
3194 2367
3194 2368
3194 2388
3194 2392
3194 2393
3194 3196
3194 3197
3194 3198
3194 3200
3194 3201
3194 3202
3194 3203
3194 3204
3194 3205
3194 3307
3194 3308
3194 3391
3195 196
3195 199
3195 200
3195 201
3195 2326
3195 2388
3195 3197
3195 3198
3195 3200
3195 3201
3195 3202
3195 3203
3195 3204
3195 3205
3196 200
3196 201
3196 2326
3196 2329
3196 2336
3196 2341
3196 2342
3196 2388
3196 2391
3196 3194
3196 3392
3197 201
3197 2326
3197 2388
3197 2391
3197 3194
3197 3195
3197 3198
3197 3200
3197 3201
3197 3202
3197 3203
3197 3204
3197 3205
3198 201
3198 2326
3198 2388
3198 2391
3198 3194
3198 3195
3198 3197
3198 3200
3198 3201
3198 3202
3198 3203
3198 3204
3198 3205
3198 3393
3199 201
3199 3260
3200 75
3200 201
3200 2326
3200 2357
3200 2358
3200 2388
3200 2390
3200 2391
3200 3194
3200 3195
3200 3197
3200 3198
3200 3201
3200 3202
3200 3203
3200 3204
3200 3205
3200 3394
3200 3395
3200 3396
3200 3397
3201 74
3201 201
3201 2326
3201 2388
3201 2391
3201 2392
3201 3194
3201 3195
3201 3197
3201 3198
3201 3200
3201 3202
3201 3203
3201 3204
3201 3205
3201 3398
3202 201
3202 926
3202 2326
3202 2388
3202 2391
3202 3194
3202 3195
3202 3197
3202 3198
3202 3200
3202 3201
3202 3203
3202 3204
3202 3205
3203 72
3203 82
3203 155
3203 201
3203 2326
3203 2388
3203 2391
3203 3194
3203 3195
3203 3197
3203 3198
3203 3200
3203 3201
3203 3202
3203 3204
3203 3205
3204 201
3204 873
3204 2326
3204 2388
3204 2391
3204 3194
3204 3195
3204 3197
3204 3198
3204 3200
3204 3201
3204 3202
3204 3203
3204 3205
3205 133
3205 201
3205 2326
3205 2388
3205 2391
3205 3194
3205 3195
3205 3197
3205 3198
3205 3200
3205 3201
3205 3202
3205 3203
3205 3204
3206 192
3206 200
3206 201
3206 2332
3206 2340
3206 2343
3206 2386
3206 3207
3206 3221
3207 200
3207 201
3207 2332
3207 2340
3207 2343
3207 2386
3207 3206
3207 3208
3207 3221
3207 3223
3208 132
3208 195
3208 197
3208 198
3208 200
3208 201
3208 961
3208 1039
3208 1044
3208 1613
3208 2332
3208 2335
3208 2343
3208 2386
3208 3207
3208 3213
3208 3214
3208 3215
3208 3216
3209 71
3209 149
3209 151
3209 152
3209 159
3209 172
3209 178
3209 187
3209 190
3209 200
3209 201
3209 329
3209 2198
3209 2332
3209 2343
3209 2386
3209 3189
3209 3190
3210 149
3210 151
3210 152
3210 172
3210 178
3210 187
3210 190
3210 200
3210 201
3210 2332
3210 2343
3210 2386
3210 3189
3210 3220
3211 199
3211 200
3211 201
3211 312
3211 430
3211 1527
3211 2332
3211 3212
3212 185
3212 199
3212 200
3212 201
3212 1527
3212 2332
3212 2361
3212 2386
3212 3211
3213 195
3213 197
3213 198
3213 200
3213 201
3213 961
3213 1039
3213 1044
3213 1704
3213 2332
3213 2335
3213 2343
3213 2386
3213 2865
3213 2866
3213 2903
3213 3208
3213 3214
3213 3215
3213 3216
3214 91
3214 130
3214 133
3214 140
3214 141
3214 142
3214 143
3214 146
3214 153
3214 158
3214 160
3214 165
3214 167
3214 168
3214 170
3214 173
3214 180
3214 193
3214 195
3214 197
3214 198
3214 200
3214 201
3214 241
3214 251
3214 343
3214 552
3214 961
3214 1039
3214 1044
3214 1053
3214 1171
3214 1704
3214 2332
3214 2335
3214 2343
3214 2386
3214 2865
3214 2866
3214 2903
3214 3208
3214 3213
3214 3214
3214 3215
3214 3216
3214 3217
3214 3219
3215 141
3215 195
3215 197
3215 198
3215 200
3215 201
3215 961
3215 1039
3215 1044
3215 1704
3215 2332
3215 2335
3215 2343
3215 2386
3215 2865
3215 2866
3215 2903
3215 3208
3215 3213
3215 3214
3215 3216
3215 3217
3215 3219
3216 195
3216 197
3216 200
3216 201
3216 961
3216 1039
3216 1044
3216 1704
3216 2332
3216 2335
3216 2343
3216 2386
3216 2865
3216 2866
3216 2903
3216 3208
3216 3213
3216 3214
3216 3215
3216 3217
3216 3218
3216 3219
3217 195
3217 197
3217 198
3217 200
3217 201
3217 961
3217 1039
3217 1044
3217 2332
3217 2343
3217 2386
3217 3214
3217 3215
3217 3216
3217 3217
3218 201
3218 2332
3218 2343
3218 2386
3218 3216
3219 195
3219 197
3219 198
3219 200
3219 201
3219 961
3219 1039
3219 1044
3219 2332
3219 2343
3219 2386
3219 3214
3219 3215
3219 3216
3220 156
3220 157
3220 187
3220 190
3220 200
3220 201
3220 329
3220 2198
3220 2199
3220 2332
3220 2337
3220 2343
3220 3189
3220 3190
3220 3210
3220 3374
3221 131
3221 137
3221 159
3221 169
3221 187
3221 189
3221 192
3221 195
3221 196
3221 198
3221 199
3221 200
3221 201
3221 502
3221 2340
3221 2352
3221 2386
3221 3206
3221 3207
3221 3223
3221 3234
3222 175
3222 176
3222 177
3222 179
3222 200
3222 201
3222 2340
3222 2386
3222 3222
3222 3304
3222 3305
3222 3402
3222 3403
3222 3404
3223 196
3223 199
3223 200
3223 201
3223 2340
3223 3207
3223 3221
3224 174
3224 195
3224 196
3224 197
3224 199
3224 200
3224 201
3224 2344
3224 2362
3224 2363
3224 2364
3224 2365
3224 2388
3224 3409
3224 3410
3224 3411
3224 3412
3224 3413
3224 3414
3224 3415
3224 3416
3224 3417
3225 194
3225 197
3225 198
3225 200
3225 201
3225 3225
3225 3226
3225 3227
3225 3262
3225 3267
3225 3275
3225 3276
3225 3293
3225 3294
3225 3295
3225 3296
3225 3297
3225 3299
3225 3418
3225 3419
3225 3420
3225 3421
3225 3422
3225 3423
3225 3424
3226 90
3226 94
3226 102
3226 103
3226 104
3226 105
3226 140
3226 153
3226 155
3226 158
3226 160
3226 162
3226 164
3226 166
3226 173
3226 178
3226 184
3226 189
3226 194
3226 197
3226 198
3226 200
3226 201
3226 238
3226 370
3226 449
3226 498
3226 499
3226 528
3226 1167
3226 1393
3226 1549
3226 1555
3226 3225
3226 3227
3226 3262
3226 3267
3226 3275
3226 3276
3226 3293
3226 3294
3226 3295
3226 3296
3226 3297
3226 3299
3226 3418
3226 3419
3226 3420
3226 3421
3226 3422
3226 3423
3226 3424
3226 3425
3227 195
3227 196
3227 197
3227 198
3227 199
3227 200
3227 201
3227 3225
3227 3226
3227 3252
3227 3253
3227 3267
3227 3275
3227 3293
3227 3294
3227 3295
3227 3296
3227 3297
3227 3299
3227 3425
3227 3426
3228 132
3228 198
3228 200
3228 201
3228 3275
3229 191
3229 196
3229 198
3229 199
3229 200
3229 201
3229 2347
3229 3427
3229 3428
3230 148
3230 156
3230 157
3230 164
3230 187
3230 196
3230 199
3230 200
3230 201
3230 289
3230 3269
3230 3279
3231 187
3231 190
3231 196
3231 199
3231 200
3231 201
3231 2348
3231 2349
3231 3257
3231 3258
3231 3259
3231 3307
3231 3308
3232 201
3232 248
3232 2351
3233 73
3233 80
3233 81
3233 83
3233 85
3233 134
3233 135
3233 138
3233 161
3233 174
3233 185
3233 196
3233 199
3233 200
3233 201
3233 224
3233 317
3233 834
3233 946
3233 2352
3233 2386
3233 2770
3233 3234
3233 3235
3233 3236
3233 3237
3233 3238
3233 3239
3233 3431
3234 78
3234 79
3234 162
3234 167
3234 168
3234 177
3234 180
3234 193
3234 200
3234 201
3234 630
3234 2352
3234 2770
3234 3221
3234 3233
3234 3235
3234 3236
3234 3237
3234 3238
3234 3239
3235 185
3235 192
3235 196
3235 199
3235 200
3235 201
3235 2352
3235 2770
3235 3233
3235 3234
3235 3235
3235 3236
3235 3237
3235 3238
3235 3239
3236 84
3236 88
3236 95
3236 109
3236 112
3236 166
3236 171
3236 180
3236 185
3236 192
3236 196
3236 199
3236 200
3236 201
3236 322
3236 333
3236 338
3236 344
3236 396
3236 412
3236 425
3236 432
3236 437
3236 440
3236 444
3236 481
3236 485
3236 490
3236 929
3236 984
3236 1135
3236 1587
3236 1588
3236 1589
3236 1645
3236 1770
3236 2021
3236 2089
3236 2144
3236 2206
3236 2352
3236 2400
3236 2770
3236 3233
3236 3234
3236 3235
3236 3237
3236 3238
3236 3239
3237 189
3237 191
3237 196
3237 199
3237 200
3237 201
3237 2352
3237 3233
3237 3234
3237 3235
3237 3236
3237 3238
3238 171
3238 185
3238 192
3238 196
3238 199
3238 200
3238 201
3238 2352
3238 2770
3238 3233
3238 3234
3238 3235
3238 3236
3238 3237
3238 3239
3238 3432
3239 191
3239 200
3239 201
3239 2352
3239 3233
3239 3234
3239 3235
3239 3236
3239 3238
3240 201
3240 2353
3241 174
3241 201
3241 2353
3242 2353
3242 3433
3243 201
3243 2353
3243 2359
3243 2386
3243 3245
3244 201
3244 2353
3244 2359
3244 2386
3245 201
3245 2353
3245 3243
3246 201
3246 2354
3247 201
3247 3282
3247 3288
3248 199
3248 201
3248 2357
3248 2358
3248 2388
3249 76
3249 155
3249 199
3249 200
3249 201
3249 530
3249 3291
3250 199
3250 200
3250 201
3250 2360
3250 2388
3251 181
3251 182
3251 184
3251 195
3251 196
3251 197
3251 198
3251 199
3251 200
3251 201
3251 2362
3251 2363
3251 2364
3251 2365
3251 3410
3251 3413
3252 181
3252 182
3252 184
3252 195
3252 196
3252 197
3252 198
3252 199
3252 200
3252 201
3252 3227
3252 3267
3252 3293
3252 3294
3252 3295
3252 3296
3253 169
3253 181
3253 182
3253 184
3253 195
3253 196
3253 197
3253 198
3253 199
3253 200
3253 201
3253 3227
3253 3267
3253 3293
3253 3294
3253 3295
3253 3296
3254 181
3254 182
3254 184
3254 195
3254 196
3254 197
3254 198
3254 199
3254 200
3254 201
3254 2362
3254 2363
3254 2364
3254 2365
3254 3413
3255 327
3255 2373
3255 2375
3255 2824
3256 2373
3256 2375
3256 2824
3257 129
3257 169
3257 190
3257 199
3257 200
3257 201
3257 2388
3257 3231
3257 3258
3257 3307
3257 3308
3257 3434
3258 3231
3258 3257
3258 3307
3258 3308
3259 3231
3259 3307
3259 3308
3260 201
3260 324
3260 2430
3260 2432
3260 3199
3260 3264
3260 3266
3260 3272
3260 3277
3260 3278
3260 3282
3260 3283
3260 3284
3260 3285
3260 3286
3260 3287
3261 131
3261 137
3261 159
3261 169
3261 187
3261 189
3261 192
3261 195
3261 196
3261 198
3261 199
3261 200
3261 201
3261 324
3261 502
3261 731
3261 1839
3261 2434
3261 3272
3261 3273
3261 3274
3262 77
3262 194
3262 197
3262 198
3262 200
3262 201
3262 324
3262 3225
3262 3226
3262 3276
3262 3418
3262 3419
3262 3420
3262 3421
3262 3422
3262 3423
3262 3424
3263 73
3263 80
3263 81
3263 83
3263 85
3263 134
3263 135
3263 138
3263 161
3263 174
3263 185
3263 196
3263 199
3263 200
3263 201
3263 224
3263 317
3263 324
3263 731
3263 834
3263 894
3263 946
3263 1840
3263 2434
3263 2766
3263 2767
3263 2768
3263 2769
3263 3350
3264 201
3264 289
3264 324
3264 491
3264 530
3264 2142
3264 2433
3264 2434
3264 3260
3264 3272
3264 3273
3264 3274
3264 3275
3264 3277
3264 3278
3264 3279
3264 3280
3264 3281
3264 3282
3264 3283
3264 3284
3264 3285
3264 3286
3264 3287
3264 3291
3264 3293
3264 3294
3264 3295
3264 3296
3264 3297
3264 3298
3264 3299
3265 130
3265 142
3265 143
3265 150
3265 160
3265 165
3265 167
3265 168
3265 170
3265 180
3265 187
3265 189
3265 192
3265 200
3265 201
3265 324
3265 517
3265 1061
3265 1064
3266 196
3266 199
3266 200
3266 201
3266 324
3266 3260
3266 3277
3266 3278
3266 3282
3266 3283
3266 3284
3266 3285
3266 3286
3266 3287
3267 174
3267 195
3267 196
3267 197
3267 199
3267 200
3267 201
3267 324
3267 1541
3267 1547
3267 1738
3267 1907
3267 3225
3267 3226
3267 3227
3267 3252
3267 3253
3267 3275
3267 3293
3267 3294
3267 3295
3267 3296
3268 175
3268 176
3268 177
3268 179
3268 200
3268 201
3268 324
3268 783
3268 1064
3268 1741
3268 3268
3268 3271
3268 3272
3268 3276
3269 129
3269 169
3269 190
3269 199
3269 200
3269 201
3269 289
3269 324
3269 2142
3269 3230
3269 3381
3269 3383
3270 122
3270 144
3270 324
3271 131
3271 136
3271 156
3271 175
3271 176
3271 177
3271 179
3271 191
3271 197
3271 200
3271 201
3271 324
3271 783
3271 1064
3271 1741
3271 3268
3271 3271
3271 3276
3272 200
3272 201
3272 324
3272 1839
3272 2432
3272 3260
3272 3261
3272 3264
3272 3268
3272 3273
3272 3274
3273 192
3273 200
3273 201
3273 324
3273 2432
3273 3261
3273 3264
3273 3272
3273 3274
3274 200
3274 201
3274 324
3274 1839
3274 2432
3274 3261
3274 3264
3274 3272
3274 3273
3274 3275
3275 132
3275 195
3275 197
3275 198
3275 200
3275 201
3275 324
3275 2432
3275 3225
3275 3226
3275 3227
3275 3228
3275 3264
3275 3267
3275 3274
3275 3293
3275 3294
3275 3295
3275 3296
3276 198
3276 201
3276 324
3276 3225
3276 3226
3276 3262
3276 3268
3276 3271
3276 3418
3276 3419
3276 3420
3276 3421
3276 3422
3276 3423
3276 3424
3277 201
3277 324
3277 2432
3277 3260
3277 3264
3277 3266
3277 3278
3277 3282
3277 3283
3277 3284
3277 3285
3277 3286
3277 3287
3278 201
3278 324
3278 1804
3278 2432
3278 3260
3278 3264
3278 3266
3278 3277
3278 3282
3278 3283
3278 3284
3278 3285
3278 3286
3278 3287
3279 71
3279 149
3279 151
3279 152
3279 159
3279 172
3279 178
3279 187
3279 190
3279 200
3279 201
3279 324
3279 2142
3279 2432
3279 3230
3279 3264
3279 3280
3279 3383
3280 149
3280 151
3280 152
3280 172
3280 178
3280 187
3280 190
3280 200
3280 201
3280 289
3280 324
3280 2142
3280 2432
3280 2435
3280 3264
3280 3279
3280 3281
3280 3383
3281 149
3281 151
3281 152
3281 172
3281 178
3281 187
3281 190
3281 200
3281 201
3281 289
3281 324
3281 2432
3281 3264
3281 3280
3282 75
3282 201
3282 223
3282 324
3282 1737
3282 2431
3282 2432
3282 3247
3282 3260
3282 3264
3282 3266
3282 3277
3282 3278
3282 3283
3282 3284
3282 3285
3282 3286
3282 3287
3282 3288
3282 3289
3282 3437
3283 74
3283 201
3283 324
3283 1902
3283 2432
3283 2433
3283 3260
3283 3264
3283 3266
3283 3277
3283 3278
3283 3282
3283 3284
3283 3285
3283 3286
3283 3287
3284 201
3284 324
3284 926
3284 2432
3284 3260
3284 3264
3284 3266
3284 3277
3284 3278
3284 3282
3284 3283
3284 3285
3284 3286
3284 3287
3285 72
3285 82
3285 155
3285 201
3285 324
3285 2432
3285 3260
3285 3264
3285 3266
3285 3277
3285 3278
3285 3282
3285 3283
3285 3284
3285 3286
3285 3287
3286 201
3286 324
3286 873
3286 2432
3286 3260
3286 3264
3286 3266
3286 3277
3286 3278
3286 3282
3286 3283
3286 3284
3286 3285
3286 3287
3287 133
3287 201
3287 324
3287 2432
3287 3260
3287 3264
3287 3266
3287 3277
3287 3278
3287 3282
3287 3283
3287 3284
3287 3285
3287 3286
3288 201
3288 324
3288 3247
3288 3282
3288 3290
3289 201
3289 324
3289 3282
3289 3290
3290 199
3290 201
3290 324
3290 3288
3290 3289
3291 185
3291 199
3291 200
3291 201
3291 324
3291 530
3291 3249
3291 3264
3291 3292
3292 199
3292 200
3292 201
3292 324
3292 3291
3293 195
3293 197
3293 198
3293 200
3293 201
3293 324
3293 2432
3293 3225
3293 3226
3293 3227
3293 3252
3293 3253
3293 3264
3293 3267
3293 3275
3293 3294
3293 3295
3293 3296
3293 3425
3293 3426
3294 91
3294 130
3294 133
3294 140
3294 141
3294 142
3294 143
3294 146
3294 153
3294 158
3294 160
3294 165
3294 167
3294 168
3294 170
3294 173
3294 180
3294 193
3294 195
3294 197
3294 198
3294 200
3294 201
3294 241
3294 251
3294 324
3294 343
3294 552
3294 1053
3294 1171
3294 2432
3294 3225
3294 3226
3294 3227
3294 3252
3294 3253
3294 3264
3294 3267
3294 3275
3294 3293
3294 3294
3294 3295
3294 3296
3294 3297
3294 3299
3294 3425
3294 3426
3295 141
3295 195
3295 197
3295 198
3295 200
3295 201
3295 324
3295 2432
3295 3225
3295 3226
3295 3227
3295 3252
3295 3253
3295 3264
3295 3267
3295 3275
3295 3293
3295 3294
3295 3296
3295 3297
3295 3299
3295 3425
3295 3426
3296 195
3296 197
3296 200
3296 201
3296 324
3296 2432
3296 3225
3296 3226
3296 3227
3296 3252
3296 3253
3296 3264
3296 3267
3296 3275
3296 3293
3296 3294
3296 3295
3296 3297
3296 3298
3296 3299
3296 3425
3296 3426
3297 195
3297 197
3297 198
3297 200
3297 201
3297 324
3297 2432
3297 3225
3297 3226
3297 3227
3297 3264
3297 3294
3297 3295
3297 3296
3297 3297
3298 201
3298 324
3298 2432
3298 3264
3298 3296
3299 195
3299 197
3299 198
3299 200
3299 201
3299 324
3299 2432
3299 3225
3299 3226
3299 3227
3299 3264
3299 3294
3299 3295
3299 3296
3300 190
3300 200
3300 201
3300 2386
3301 77
3301 194
3301 197
3301 198
3301 200
3301 201
3301 1039
3301 1044
3301 2386
3301 3305
3301 3363
3301 3364
3301 3365
3301 3366
3301 3367
3301 3368
3301 3369
3302 130
3302 142
3302 143
3302 150
3302 160
3302 165
3302 167
3302 168
3302 170
3302 180
3302 187
3302 189
3302 192
3302 200
3302 201
3302 517
3302 1061
3302 2386
3302 3403
3303 122
3303 144
3303 2386
3304 131
3304 136
3304 156
3304 175
3304 176
3304 177
3304 179
3304 191
3304 197
3304 200
3304 201
3304 2386
3304 3222
3304 3304
3304 3305
3304 3402
3304 3403
3304 3404
3305 198
3305 201
3305 1039
3305 1044
3305 2386
3305 3222
3305 3301
3305 3304
3305 3363
3305 3364
3305 3365
3305 3366
3305 3367
3305 3368
3305 3369
3306 195
3306 291
3306 2387
3307 187
3307 190
3307 200
3307 201
3307 2348
3307 2349
3307 2391
3307 2394
3307 3194
3307 3231
3307 3257
3307 3258
3307 3259
3307 3308
3308 156
3308 157
3308 187
3308 190
3308 200
3308 201
3308 2349
3308 2350
3308 2391
3308 3194
3308 3231
3308 3257
3308 3258
3308 3259
3308 3307
3308 3434
3309 201
3309 248
3309 2392
3310 78
3310 79
3310 162
3310 167
3310 168
3310 177
3310 180
3310 193
3310 200
3310 201
3310 630
3310 2329
3310 2331
3310 2393
3310 3311
3310 3312
3310 3313
3310 3314
3310 3315
3310 3430
3311 185
3311 192
3311 196
3311 199
3311 200
3311 201
3311 2331
3311 2393
3311 3310
3311 3311
3311 3312
3311 3313
3311 3314
3311 3315
3311 3430
3312 84
3312 88
3312 95
3312 109
3312 112
3312 166
3312 171
3312 180
3312 185
3312 192
3312 196
3312 199
3312 200
3312 201
3312 322
3312 333
3312 338
3312 344
3312 396
3312 412
3312 425
3312 432
3312 437
3312 440
3312 444
3312 481
3312 485
3312 490
3312 929
3312 984
3312 1135
3312 1587
3312 1588
3312 1589
3312 1645
3312 1770
3312 2021
3312 2089
3312 2144
3312 2206
3312 2331
3312 2393
3312 2400
3312 3310
3312 3311
3312 3313
3312 3314
3312 3315
3312 3430
3313 189
3313 191
3313 196
3313 199
3313 200
3313 201
3313 2331
3313 2393
3313 3310
3313 3311
3313 3312
3313 3314
3314 171
3314 185
3314 192
3314 196
3314 199
3314 200
3314 201
3314 2331
3314 2393
3314 2847
3314 3310
3314 3311
3314 3312
3314 3313
3314 3315
3314 3430
3315 191
3315 200
3315 201
3315 2331
3315 2393
3315 3310
3315 3311
3315 3312
3315 3314
3316 195
3316 291
3316 2394
3317 201
3317 248
3317 2398
3318 195
3318 291
3318 2399
3319 195
3319 291
3319 2435
3320 195
3320 291
3320 2444
3321 201
3321 325
3322 201
3322 2464
3323 132
3323 198
3323 200
3323 201
3323 2466
3324 191
3324 196
3324 198
3324 199
3324 200
3324 201
3324 2468
3324 3439
3324 3440
3325 201
3325 2469
3326 174
3326 201
3326 2469
3327 2469
3327 3441
3328 201
3328 2469
3328 2473
3329 201
3329 2470
3330 171
3330 185
3330 196
3330 199
3330 200
3330 201
3330 383
3330 2506
3330 2507
3330 2508
3330 2510
3331 2510
3332 132
3332 198
3332 200
3332 201
3332 360
3333 191
3333 196
3333 198
3333 199
3333 200
3333 201
3333 2534
3333 3114
3333 3115
3334 201
3334 2538
3335 174
3335 201
3335 2538
3336 2538
3336 3119
3337 201
3337 2539
3338 2721
3339 2724
3340 199
3340 200
3340 201
3340 312
3340 390
3340 430
3340 2492
3340 2910
3341 86
3341 174
3341 201
3341 398
3341 3342
3341 3343
3341 3344
3342 201
3342 398
3342 3341
3342 3343
3342 3344
3343 89
3343 196
3343 199
3343 200
3343 201
3343 398
3343 3341
3343 3342
3343 3344
3344 174
3344 201
3344 398
3344 3341
3344 3342
3344 3343
3345 86
3345 174
3345 201
3345 2752
3345 3346
3345 3347
3345 3348
3346 201
3346 2752
3346 3345
3346 3347
3346 3348
3347 89
3347 196
3347 199
3347 200
3347 201
3347 2752
3347 3345
3347 3346
3347 3348
3348 174
3348 201
3348 2752
3348 3345
3348 3346
3348 3347
3349 196
3349 199
3349 200
3349 201
3349 383
3350 171
3350 185
3350 196
3350 199
3350 200
3350 201
3350 731
3350 894
3350 2766
3350 2767
3350 3263
3351 191
3351 196
3351 198
3351 199
3351 200
3351 201
3351 2839
3351 3351
3351 3352
3352 191
3352 195
3352 196
3352 198
3352 199
3352 200
3352 201
3352 2839
3352 3351
3353 2842
3354 86
3354 174
3354 201
3354 2853
3354 3355
3354 3356
3354 3357
3355 201
3355 2853
3355 3354
3355 3356
3355 3357
3356 89
3356 196
3356 199
3356 200
3356 201
3356 2853
3356 3354
3356 3355
3356 3357
3357 174
3357 201
3357 2853
3357 3354
3357 3355
3357 3356
3358 86
3358 174
3358 201
3358 384
3358 3359
3358 3360
3358 3361
3359 201
3359 384
3359 3358
3359 3360
3359 3361
3360 89
3360 196
3360 199
3360 200
3360 201
3360 384
3360 3358
3360 3359
3360 3361
3361 174
3361 201
3361 384
3361 3358
3361 3359
3361 3360
3362 76
3362 155
3362 199
3362 200
3362 201
3362 366
3362 2491
3363 194
3363 197
3363 198
3363 200
3363 201
3363 1039
3363 1044
3363 3301
3363 3305
3363 3363
3363 3364
3363 3365
3363 3366
3363 3367
3363 3368
3363 3369
3364 100
3364 114
3364 139
3364 172
3364 173
3364 178
3364 194
3364 197
3364 198
3364 200
3364 201
3364 938
3364 1039
3364 1044
3364 3301
3364 3305
3364 3363
3364 3365
3364 3366
3364 3367
3364 3368
3364 3369
3365 194
3365 197
3365 198
3365 199
3365 200
3365 201
3365 629
3365 1039
3365 1044
3365 3301
3365 3305
3365 3363
3365 3364
3365 3366
3365 3367
3365 3368
3365 3369
3366 129
3366 139
3366 172
3366 173
3366 178
3366 189
3366 191
3366 194
3366 197
3366 198
3366 200
3366 201
3366 883
3366 1039
3366 1044
3366 3301
3366 3305
3366 3363
3366 3364
3366 3365
3366 3367
3366 3368
3366 3369
3367 170
3367 194
3367 197
3367 198
3367 200
3367 201
3367 1039
3367 1044
3367 3301
3367 3305
3367 3363
3367 3364
3367 3365
3367 3366
3367 3368
3367 3369
3368 189
3368 192
3368 194
3368 197
3368 198
3368 200
3368 201
3368 1039
3368 1044
3368 3301
3368 3305
3368 3363
3368 3364
3368 3365
3368 3366
3368 3367
3368 3369
3369 189
3369 190
3369 194
3369 197
3369 198
3369 200
3369 201
3369 1039
3369 1044
3369 3301
3369 3305
3369 3363
3369 3364
3369 3365
3369 3366
3369 3367
3369 3368
3370 894
3371 2955
3372 191
3372 196
3372 198
3372 199
3372 200
3372 201
3372 2963
3372 3372
3372 3373
3373 191
3373 195
3373 196
3373 198
3373 199
3373 200
3373 201
3373 2963
3373 3372
3374 329
3374 3190
3374 3220
3375 2980
3376 191
3376 196
3376 198
3376 199
3376 200
3376 201
3376 749
3376 3376
3376 3377
3377 191
3377 195
3377 196
3377 198
3377 199
3377 200
3377 201
3377 749
3377 3376
3378 191
3378 196
3378 198
3378 199
3378 200
3378 201
3378 3035
3378 3378
3378 3379
3379 191
3379 195
3379 196
3379 198
3379 199
3379 200
3379 201
3379 3035
3379 3378
3380 3153
3381 289
3381 2142
3381 3269
3381 3383
3382 289
3382 2142
3382 3383
3383 187
3383 190
3383 196
3383 199
3383 200
3383 201
3383 289
3383 2142
3383 3269
3383 3279
3383 3280
3383 3381
3383 3382
3384 191
3384 196
3384 198
3384 199
3384 200
3384 201
3384 3384
3384 3385
3384 3393
3385 191
3385 195
3385 196
3385 198
3385 199
3385 200
3385 201
3385 3384
3385 3393
3386 191
3386 196
3386 198
3386 199
3386 200
3386 201
3386 3174
3386 3386
3386 3387
3387 191
3387 195
3387 196
3387 198
3387 199
3387 200
3387 201
3387 3174
3387 3386
3388 3396
3389 3177
3390 201
3390 3193
3391 199
3391 200
3391 201
3391 312
3391 430
3391 2360
3391 3194
3391 3438
3392 196
3392 199
3392 200
3392 201
3392 2329
3392 2342
3392 3196
3393 191
3393 196
3393 198
3393 199
3393 200
3393 201
3393 3198
3393 3384
3393 3385
3394 201
3394 3200
3395 174
3395 201
3395 3200
3396 3200
3396 3388
3397 201
3397 2357
3397 3200
3398 201
3398 3201
3399 175
3399 176
3399 177
3399 179
3399 200
3399 201
3399 506
3399 2336
3399 2339
3399 3400
3399 3401
3400 175
3400 176
3400 177
3400 179
3400 200
3400 201
3400 718
3400 2333
3400 2336
3400 2339
3400 3399
3400 3401
3401 175
3401 176
3401 177
3401 179
3401 200
3401 201
3401 2336
3401 2339
3401 3399
3401 3400
3401 3401
3402 175
3402 176
3402 177
3402 179
3402 200
3402 201
3402 506
3402 3222
3402 3304
3402 3403
3402 3404
3403 175
3403 176
3403 177
3403 179
3403 200
3403 201
3403 718
3403 3222
3403 3302
3403 3304
3403 3402
3403 3404
3404 175
3404 176
3404 177
3404 179
3404 200
3404 201
3404 3222
3404 3304
3404 3402
3404 3403
3404 3404
3405 86
3405 174
3405 201
3405 2335
3405 3406
3405 3407
3405 3408
3406 201
3406 2335
3406 3405
3406 3407
3406 3408
3407 89
3407 196
3407 199
3407 200
3407 201
3407 2335
3407 3405
3407 3406
3407 3408
3408 174
3408 201
3408 2335
3408 3405
3408 3406
3408 3407
3409 194
3409 197
3409 198
3409 200
3409 201
3409 2330
3409 2344
3409 2345
3409 2362
3409 2363
3409 2364
3409 2365
3409 2366
3409 2368
3409 2896
3409 2897
3409 2898
3409 2899
3409 2900
3409 2901
3409 2902
3409 3224
3409 3409
3409 3410
3409 3413
3410 90
3410 94
3410 102
3410 103
3410 104
3410 105
3410 140
3410 153
3410 155
3410 158
3410 160
3410 162
3410 164
3410 166
3410 173
3410 178
3410 184
3410 189
3410 194
3410 197
3410 198
3410 200
3410 201
3410 238
3410 370
3410 449
3410 498
3410 499
3410 528
3410 1167
3410 1393
3410 1549
3410 1555
3410 2330
3410 2344
3410 2345
3410 2362
3410 2363
3410 2364
3410 2365
3410 2366
3410 2368
3410 2896
3410 2897
3410 2898
3410 2899
3410 2900
3410 2901
3410 2902
3410 3224
3410 3251
3410 3409
3410 3413
3411 181
3411 182
3411 184
3411 195
3411 196
3411 197
3411 198
3411 199
3411 200
3411 201
3411 2362
3411 2363
3411 2364
3411 2365
3411 3224
3411 3413
3412 169
3412 181
3412 182
3412 184
3412 195
3412 196
3412 197
3412 198
3412 199
3412 200
3412 201
3412 2362
3412 2363
3412 2364
3412 2365
3412 3224
3412 3413
3413 195
3413 196
3413 197
3413 198
3413 199
3413 200
3413 201
3413 2344
3413 2362
3413 2363
3413 2364
3413 2365
3413 2366
3413 2368
3413 3224
3413 3251
3413 3254
3413 3409
3413 3410
3413 3411
3413 3412
3414 86
3414 174
3414 201
3414 3224
3414 3415
3414 3416
3414 3417
3415 201
3415 3224
3415 3414
3415 3416
3415 3417
3416 89
3416 196
3416 199
3416 200
3416 201
3416 3224
3416 3414
3416 3415
3416 3417
3417 174
3417 201
3417 3224
3417 3414
3417 3415
3417 3416
3418 194
3418 197
3418 198
3418 200
3418 201
3418 3225
3418 3226
3418 3262
3418 3276
3418 3418
3418 3419
3418 3420
3418 3421
3418 3422
3418 3423
3418 3424
3419 100
3419 114
3419 139
3419 172
3419 173
3419 178
3419 194
3419 197
3419 198
3419 200
3419 201
3419 938
3419 3225
3419 3226
3419 3262
3419 3276
3419 3418
3419 3420
3419 3421
3419 3422
3419 3423
3419 3424
3420 194
3420 197
3420 198
3420 199
3420 200
3420 201
3420 629
3420 3225
3420 3226
3420 3262
3420 3276
3420 3418
3420 3419
3420 3421
3420 3422
3420 3423
3420 3424
3421 129
3421 139
3421 172
3421 173
3421 178
3421 189
3421 191
3421 194
3421 197
3421 198
3421 200
3421 201
3421 883
3421 3225
3421 3226
3421 3262
3421 3276
3421 3418
3421 3419
3421 3420
3421 3422
3421 3423
3421 3424
3422 170
3422 194
3422 197
3422 198
3422 200
3422 201
3422 3225
3422 3226
3422 3262
3422 3276
3422 3418
3422 3419
3422 3420
3422 3421
3422 3423
3422 3424
3423 189
3423 192
3423 194
3423 197
3423 198
3423 200
3423 201
3423 3225
3423 3226
3423 3262
3423 3276
3423 3418
3423 3419
3423 3420
3423 3421
3423 3422
3423 3424
3424 189
3424 190
3424 194
3424 197
3424 198
3424 200
3424 201
3424 3225
3424 3226
3424 3262
3424 3276
3424 3418
3424 3419
3424 3420
3424 3421
3424 3422
3424 3423
3425 181
3425 182
3425 184
3425 195
3425 196
3425 197
3425 198
3425 199
3425 200
3425 201
3425 3226
3425 3227
3425 3293
3425 3294
3425 3295
3425 3296
3426 181
3426 182
3426 184
3426 195
3426 196
3426 197
3426 198
3426 199
3426 200
3426 201
3426 3227
3426 3293
3426 3294
3426 3295
3426 3296
3427 191
3427 196
3427 198
3427 199
3427 200
3427 201
3427 3229
3427 3427
3427 3428
3428 191
3428 195
3428 196
3428 198
3428 199
3428 200
3428 201
3428 3229
3428 3427
3429 196
3429 199
3429 200
3429 201
3429 2331
3430 171
3430 185
3430 196
3430 199
3430 200
3430 201
3430 2331
3430 3310
3430 3311
3430 3312
3430 3314
3431 196
3431 199
3431 200
3431 201
3431 3233
3432 3238
3433 3242
3434 148
3434 156
3434 157
3434 164
3434 187
3434 196
3434 199
3434 200
3434 201
3434 2348
3434 3257
3434 3308
3435 201
3435 2326
3436 132
3436 198
3436 200
3436 201
3436 2344
3437 201
3437 3282
3438 76
3438 155
3438 199
3438 200
3438 201
3438 2360
3438 3391
3439 191
3439 196
3439 198
3439 199
3439 200
3439 201
3439 3324
3439 3439
3439 3440
3440 191
3440 195
3440 196
3440 198
3440 199
3440 200
3440 201
3440 3324
3440 3439
3441 3327
3442 191
3442 196
3442 198
3442 199
3442 200
3442 201
3442 1804
3442 3442
3442 3443
3443 191
3443 195
3443 196
3443 198
3443 199
3443 200
3443 201
3443 1804
3443 3442
3444 223
