0 0
0 1
0 2
0 3
0 4
0 5
0 6
0 7
0 8
0 9
0 10
0 11
0 12
0 13
0 14
0 15
0 16
0 17
0 18
0 19
0 20
0 21
0 22
0 23
0 24
0 25
0 26
0 27
0 28
0 29
0 30
0 31
0 32
0 33
0 34
0 35
0 36
0 37
0 38
0 39
0 40
0 41
0 42
0 43
0 44
0 45
0 46
0 47
0 48
0 49
0 50
0 51
0 52
0 53
0 54
0 55
0 56
0 57
0 58
0 59
0 60
0 61
0 62
0 63
0 64
0 65
0 66
0 67
0 68
0 69
0 70
0 71
0 72
0 73
0 74
0 75
0 76
0 77
0 78
0 79
0 80
0 81
0 82
0 83
0 84
0 85
0 86
0 87
0 88
0 89
0 90
0 91
0 92
0 93
0 94
0 95
0 96
0 97
0 98
0 99
0 100
0 101
0 102
0 103
0 104
0 105
1 0
1 1
1 2
1 3
1 6
1 7
1 8
1 9
1 10
1 11
1 12
1 13
1 15
1 16
1 17
1 18
1 19
1 20
1 21
1 22
1 23
1 24
1 25
1 26
1 27
1 28
1 30
1 31
1 32
1 33
1 34
1 35
1 36
1 37
1 38
1 39
1 40
1 41
1 42
1 43
1 44
1 45
1 46
1 47
1 48
1 49
1 50
1 51
1 52
1 53
1 54
1 56
1 57
1 59
1 60
1 62
1 63
1 64
1 65
1 66
1 67
1 68
1 69
1 70
1 71
1 72
1 73
1 75
1 77
1 78
1 79
1 80
1 81
1 82
1 83
1 84
1 85
1 86
1 87
1 88
1 89
1 90
1 91
1 92
1 93
1 94
1 95
1 96
1 98
1 101
1 102
1 103
1 104
1 105
2 0
2 1
2 2
2 3
2 7
2 9
2 11
2 12
2 13
2 17
2 19
2 20
2 22
2 23
2 25
2 26
2 27
2 28
2 34
2 36
2 37
2 38
2 39
2 40
2 41
2 42
2 43
2 44
2 45
2 46
2 47
2 51
2 57
2 58
2 59
2 62
2 63
2 65
2 66
2 67
2 70
2 71
2 72
2 73
2 75
2 77
2 78
2 81
2 82
2 83
2 87
2 90
2 92
2 93
2 94
2 95
2 98
2 99
2 102
2 103
3 0
3 1
3 2
3 13
3 16
3 18
3 22
3 24
3 33
3 37
3 40
3 41
3 43
3 44
3 47
3 54
3 67
3 70
3 82
3 94
3 98
3 99
3 100
4 0
4 4
4 37
4 40
4 43
4 44
4 96
4 97
5 0
5 8
5 15
5 17
5 18
5 21
5 26
5 33
5 47
5 50
5 63
5 70
5 101
5 103
6 0
6 1
6 8
6 15
6 17
6 18
6 21
6 26
6 33
6 45
6 46
6 47
6 50
6 62
6 63
6 70
6 71
6 72
6 73
6 85
6 101
6 102
6 103
7 0
7 1
7 2
7 7
7 9
7 10
7 15
7 22
7 23
7 24
7 25
7 30
7 33
7 34
7 35
7 37
7 39
7 40
7 41
7 42
7 43
7 44
7 45
7 47
7 48
7 52
7 54
7 60
7 62
7 63
7 64
7 65
7 68
7 69
7 70
7 72
7 73
7 79
7 80
7 83
7 84
7 85
7 86
7 87
7 88
7 89
7 90
7 91
7 102
7 103
7 105
8 0
8 1
8 5
8 6
8 8
8 37
8 40
8 44
8 47
8 50
8 53
8 56
8 65
8 79
8 92
8 93
8 97
9 0
9 1
9 2
9 7
9 13
9 16
9 18
9 22
9 24
9 33
9 37
9 39
9 40
9 41
9 43
9 44
9 54
9 62
9 67
9 82
9 90
9 94
9 98
9 99
9 100
9 102
9 103
9 105
10 0
10 1
10 7
10 10
10 15
10 20
10 21
10 30
10 35
10 39
10 42
10 43
10 44
10 62
10 86
10 102
10 103
11 0
11 1
11 2
11 11
11 39
11 43
11 44
11 51
11 62
11 102
11 103
11 105
12 0
12 1
12 2
12 39
12 40
12 51
12 62
12 68
12 102
12 103
13 0
13 1
13 2
13 3
13 9
13 13
13 28
13 45
13 47
13 51
13 65
13 72
13 98
14 0
14 39
14 40
14 46
14 60
14 62
14 69
14 84
14 102
14 103
14 105
15 0
15 1
15 5
15 6
15 7
15 10
15 18
15 20
15 21
15 26
15 30
15 35
15 39
15 42
15 43
15 44
15 47
15 49
15 56
15 62
15 86
15 102
15 103
16 0
16 1
16 3
16 9
16 28
16 39
16 40
16 42
16 44
16 62
16 96
16 102
16 103
17 0
17 1
17 2
17 5
17 6
17 18
17 30
17 45
17 50
17 51
17 63
17 92
18 0
18 1
18 3
18 5
18 6
18 9
18 15
18 17
18 26
18 28
18 43
18 44
18 50
18 53
18 56
18 58
18 67
18 79
18 92
18 99
18 101
19 0
19 1
19 2
19 19
19 20
19 30
19 36
19 37
19 39
19 40
19 42
19 43
19 44
19 45
19 47
19 51
19 58
19 62
19 88
19 93
19 102
19 103
20 0
20 1
20 2
20 10
20 15
20 19
20 30
20 36
20 39
20 42
20 43
20 44
20 45
20 49
20 51
20 62
20 79
20 83
20 85
20 86
20 88
20 102
20 103
20 105
21 0
21 1
21 5
21 6
21 10
21 15
21 36
21 44
21 53
21 56
21 58
21 63
21 67
21 79
21 92
21 93
21 101
22 0
22 1
22 2
22 3
22 7
22 9
22 28
22 40
22 45
22 46
22 47
22 51
22 69
22 70
22 86
22 105
23 0
23 1
23 2
23 7
23 37
23 39
23 40
23 43
23 44
23 47
23 58
23 62
23 67
23 72
23 98
23 102
23 103
24 0
24 1
24 3
24 7
24 9
24 28
24 43
24 44
24 53
24 81
25 0
25 1
25 2
25 7
25 25
25 37
25 39
25 40
25 44
25 47
25 62
25 65
25 72
25 94
25 102
25 103
26 0
26 1
26 2
26 5
26 6
26 15
26 18
26 30
26 39
26 44
26 45
26 51
26 53
26 56
26 58
26 62
26 63
26 67
26 79
26 92
26 101
26 102
26 103
27 0
27 1
27 2
27 28
27 37
27 39
27 40
27 41
27 43
27 44
27 49
27 51
27 62
27 70
27 75
27 77
27 82
27 85
27 89
27 98
27 102
27 103
27 105
28 0
28 1
28 2
28 13
28 16
28 18
28 22
28 24
28 27
28 33
28 37
28 39
28 40
28 41
28 43
28 44
28 49
28 51
28 54
28 62
28 67
28 70
28 75
28 77
28 82
28 85
28 89
28 94
28 98
28 99
28 100
28 102
28 103
28 105
29 0
29 44
29 73
30 0
30 1
30 7
30 10
30 15
30 17
30 19
30 20
30 26
30 32
30 33
30 35
30 36
30 39
30 43
30 44
30 49
30 50
30 62
30 64
30 66
30 72
30 85
30 86
30 92
30 94
30 95
30 98
30 101
30 102
30 103
30 105
31 0
31 1
31 44
31 45
31 57
31 61
31 62
31 63
32 0
32 1
32 30
32 34
32 42
32 43
32 44
32 45
32 53
32 60
32 76
32 80
32 81
32 84
32 87
32 91
32 98
33 0
33 1
33 3
33 5
33 6
33 7
33 9
33 28
33 30
33 34
33 43
33 44
33 45
33 46
33 47
33 60
33 70
33 72
33 76
33 85
34 0
34 1
34 2
34 7
34 32
34 33
34 35
34 37
34 38
34 39
34 41
34 42
34 43
34 44
34 47
34 49
34 68
34 70
34 80
34 83
34 86
34 87
34 101
34 105
35 0
35 1
35 7
35 10
35 15
35 30
35 34
35 35
35 39
35 43
35 44
35 45
35 46
35 47
35 48
35 62
35 63
35 69
35 70
35 71
35 72
35 73
35 83
35 86
35 88
35 101
35 102
35 103
35 105
36 0
36 1
36 2
36 19
36 20
36 21
36 30
36 39
36 42
36 43
36 44
36 49
36 51
36 62
36 88
36 102
36 103
37 0
37 1
37 2
37 3
37 4
37 7
37 8
37 9
37 19
37 23
37 25
37 27
37 28
37 34
37 37
37 39
37 40
37 43
37 44
37 47
37 48
37 49
37 59
37 62
37 64
37 65
37 81
37 82
37 86
37 87
37 92
37 97
37 98
37 102
37 103
37 105
38 0
38 1
38 2
38 34
38 39
38 41
38 42
38 43
38 44
38 49
38 51
38 62
38 70
38 75
38 77
38 83
38 85
38 89
38 90
38 98
38 102
38 103
38 105
39 0
39 1
39 2
39 7
39 9
39 10
39 11
39 12
39 14
39 15
39 16
39 19
39 20
39 23
39 25
39 26
39 27
39 28
39 30
39 34
39 35
39 36
39 37
39 38
39 40
39 41
39 42
39 43
39 44
39 47
39 49
39 51
39 52
39 53
39 54
39 59
39 69
39 70
39 75
39 76
39 77
39 80
39 81
39 82
39 83
39 84
39 85
39 86
39 87
39 88
39 89
39 90
39 98
39 101
39 105
40 0
40 1
40 2
40 3
40 4
40 7
40 8
40 9
40 12
40 14
40 16
40 19
40 22
40 23
40 25
40 27
40 28
40 37
40 39
40 40
40 41
40 43
40 44
40 45
40 46
40 47
40 48
40 49
40 51
40 60
40 62
40 64
40 65
40 69
40 70
40 73
40 75
40 77
40 78
40 82
40 85
40 86
40 89
40 90
40 91
40 92
40 93
40 94
40 97
40 98
40 102
40 103
40 105
41 0
41 1
41 2
41 3
41 7
41 9
41 27
41 28
41 34
41 38
41 39
41 40
41 42
41 43
41 44
41 49
41 51
41 62
41 70
41 75
41 77
41 79
41 82
41 83
41 85
41 89
41 98
41 102
41 103
41 105
42 0
42 1
42 2
42 7
42 10
42 15
42 16
42 19
42 20
42 32
42 34
42 36
42 38
42 39
42 41
42 43
42 44
42 47
42 49
42 51
42 53
42 59
42 62
42 70
42 75
42 76
42 77
42 81
42 83
42 84
42 85
42 86
42 87
42 89
42 90
42 98
42 100
42 101
42 102
42 103
42 104
42 105
43 0
43 1
43 2
43 3
43 4
43 7
43 9
43 10
43 11
43 15
43 18
43 19
43 20
43 23
43 24
43 27
43 28
43 30
43 32
43 33
43 34
43 35
43 36
43 37
43 38
43 39
43 40
43 41
43 42
43 44
43 45
43 47
43 49
43 51
43 52
43 53
43 54
43 58
43 59
43 62
43 68
43 69
43 70
43 72
43 75
43 76
43 77
43 80
43 81
43 82
43 83
43 84
43 85
43 86
43 87
43 88
43 89
43 90
43 93
43 94
43 97
43 98
43 100
43 101
43 102
43 103
43 104
43 105
44 0
44 1
44 2
44 3
44 4
44 7
44 8
44 9
44 10
44 11
44 15
44 16
44 18
44 19
44 20
44 21
44 23
44 24
44 25
44 26
44 27
44 28
44 29
44 30
44 31
44 32
44 33
44 34
44 35
44 36
44 37
44 38
44 39
44 40
44 41
44 42
44 43
44 45
44 46
44 47
44 49
44 50
44 51
44 52
44 53
44 54
44 55
44 57
44 59
44 61
44 62
44 63
44 64
44 65
44 68
44 69
44 70
44 71
44 72
44 73
44 75
44 76
44 77
44 80
44 81
44 82
44 83
44 84
44 85
44 86
44 87
44 88
44 89
44 90
44 92
44 93
44 94
44 96
44 98
44 99
44 100
44 101
44 102
44 103
44 104
44 105
45 0
45 1
45 2
45 6
45 7
45 13
45 17
45 19
45 20
45 22
45 26
45 31
45 32
45 33
45 35
45 40
45 43
45 44
45 45
45 47
45 50
45 53
45 55
45 58
45 62
45 63
45 66
45 67
45 72
45 78
45 79
45 83
45 85
45 86
45 92
45 94
45 95
45 103
45 105
46 0
46 1
46 2
46 6
46 14
46 22
46 33
46 35
46 40
46 44
46 46
46 47
46 56
46 60
46 68
46 69
46 72
46 78
46 83
46 86
46 87
46 102
46 103
46 105
47 0
47 1
47 2
47 3
47 5
47 6
47 7
47 8
47 13
47 15
47 19
47 22
47 23
47 25
47 33
47 34
47 35
47 37
47 39
47 40
47 42
47 43
47 44
47 45
47 46
47 47
47 49
47 52
47 54
47 56
47 64
47 65
47 66
47 67
47 68
47 69
47 70
47 72
47 73
47 76
47 78
47 79
47 80
47 85
47 88
47 90
47 92
47 93
47 94
47 99
47 103
47 104
48 0
48 1
48 7
48 35
48 37
48 40
48 48
48 72
48 88
49 0
49 1
49 15
49 20
49 27
49 28
49 30
49 34
49 36
49 37
49 38
49 39
49 40
49 41
49 42
49 43
49 44
49 47
49 49
49 63
49 79
49 82
49 85
49 88
49 92
49 93
49 98
49 101
49 105
50 0
50 1
50 5
50 6
50 8
50 17
50 18
50 30
50 44
50 45
50 53
50 56
50 58
50 63
50 67
50 79
50 92
51 0
51 1
51 2
51 11
51 12
51 13
51 17
51 19
51 20
51 22
51 26
51 27
51 28
51 36
51 38
51 39
51 40
51 41
51 42
51 43
51 44
51 51
51 58
51 62
51 66
51 67
51 70
51 75
51 77
51 82
51 85
51 89
51 92
51 93
51 94
51 95
51 98
51 99
51 102
51 103
51 105
52 0
52 1
52 7
52 39
52 43
52 44
52 47
52 54
52 62
52 64
52 69
52 70
52 76
52 80
52 84
52 102
52 103
53 0
53 1
53 8
53 18
53 21
53 24
53 26
53 32
53 39
53 42
53 43
53 44
53 45
53 50
53 53
53 60
53 63
53 81
53 85
53 91
54 0
54 1
54 3
54 7
54 9
54 28
54 39
54 43
54 44
54 47
54 52
54 62
54 69
54 70
54 76
54 80
54 84
54 102
54 103
55 0
55 44
55 45
56 0
56 1
56 8
56 15
56 18
56 21
56 26
56 46
56 47
56 50
56 65
56 72
56 73
56 85
56 101
56 102
56 103
57 0
57 1
57 2
57 31
57 44
57 63
57 104
57 105
58 0
58 2
58 18
58 19
58 21
58 23
58 26
58 43
58 45
58 50
58 51
58 79
59 0
59 1
59 2
59 37
59 39
59 42
59 43
59 44
60 0
60 1
60 7
60 14
60 32
60 33
60 40
60 46
60 53
60 69
60 71
60 72
60 81
60 87
60 105
61 0
61 31
61 44
61 72
62 0
62 1
62 2
62 6
62 7
62 9
62 10
62 11
62 12
62 14
62 15
62 16
62 19
62 20
62 23
62 25
62 26
62 27
62 28
62 30
62 31
62 35
62 36
62 37
62 38
62 40
62 41
62 42
62 43
62 44
62 45
62 51
62 52
62 54
62 63
62 69
62 70
62 75
62 76
62 80
62 82
62 83
62 104
62 105
63 0
63 1
63 2
63 5
63 6
63 7
63 17
63 21
63 26
63 31
63 35
63 44
63 45
63 49
63 50
63 53
63 57
63 62
63 67
63 68
63 70
63 72
63 79
63 90
63 92
63 98
63 104
63 105
64 0
64 1
64 7
64 30
64 37
64 40
64 44
64 47
64 52
64 64
64 65
64 66
64 67
64 93
64 98
65 0
65 1
65 2
65 7
65 8
65 13
65 25
65 37
65 40
65 44
65 47
65 56
65 64
65 65
65 71
65 72
65 93
65 105
66 0
66 1
66 2
66 30
66 45
66 47
66 51
66 64
66 67
67 0
67 1
67 2
67 3
67 9
67 18
67 21
67 23
67 26
67 28
67 45
67 47
67 50
67 51
67 63
67 64
67 66
67 85
68 0
68 1
68 7
68 12
68 34
68 43
68 44
68 46
68 47
68 63
68 70
68 72
68 73
68 76
68 78
68 83
68 105
69 0
69 1
69 7
69 14
69 22
69 35
69 39
69 40
69 43
69 44
69 46
69 47
69 52
69 54
69 60
69 62
69 69
69 70
69 80
69 88
69 102
69 103
69 105
70 0
70 1
70 2
70 3
70 5
70 6
70 7
70 22
70 27
70 28
70 33
70 34
70 35
70 38
70 39
70 40
70 41
70 42
70 43
70 44
70 47
70 51
70 52
70 54
70 62
70 63
70 68
70 69
70 70
70 72
70 73
70 75
70 76
70 77
70 78
70 80
70 82
70 83
70 85
70 89
70 90
70 101
70 102
70 103
70 105
71 0
71 1
71 2
71 6
71 35
71 44
71 60
71 65
71 78
71 103
72 0
72 1
72 2
72 6
72 7
72 13
72 23
72 25
72 30
72 33
72 35
72 43
72 44
72 45
72 46
72 47
72 48
72 56
72 60
72 61
72 63
72 65
72 68
72 70
72 72
72 78
72 88
72 102
72 103
72 104
72 105
73 0
73 1
73 2
73 6
73 7
73 29
73 35
73 40
73 44
73 47
73 56
73 68
73 70
73 78
73 85
73 102
73 103
74 0
75 0
75 1
75 2
75 27
75 28
75 38
75 39
75 40
75 41
75 42
75 43
75 44
75 51
75 62
75 70
75 75
75 77
75 82
75 85
75 89
75 92
75 98
75 102
75 103
75 105
76 0
76 32
76 33
76 39
76 42
76 43
76 44
76 47
76 52
76 54
76 62
76 68
76 70
76 102
76 103
76 105
77 0
77 1
77 2
77 27
77 28
77 38
77 39
77 40
77 41
77 42
77 43
77 44
77 51
77 70
77 75
77 77
77 82
77 85
77 89
77 98
77 105
78 0
78 1
78 2
78 40
78 45
78 46
78 47
78 68
78 70
78 71
78 72
78 73
78 105
79 0
79 1
79 7
79 8
79 18
79 20
79 21
79 26
79 41
79 45
79 47
79 49
79 50
79 58
79 63
79 85
79 86
79 90
79 98
79 105
80 0
80 1
80 7
80 32
80 34
80 39
80 43
80 44
80 47
80 52
80 54
80 62
80 69
80 70
80 102
80 103
81 0
81 1
81 2
81 24
81 32
81 37
81 39
81 42
81 43
81 44
81 53
81 60
81 84
81 91
82 0
82 1
82 2
82 3
82 9
82 27
82 28
82 37
82 39
82 40
82 41
82 43
82 44
82 49
82 51
82 62
82 70
82 75
82 77
82 85
82 89
82 98
82 102
82 103
82 105
83 0
83 1
83 2
83 7
83 20
83 34
83 35
83 38
83 39
83 41
83 42
83 43
83 44
83 45
83 46
83 62
83 68
83 70
83 102
83 103
83 105
84 0
84 1
84 7
84 14
84 32
84 39
84 42
84 43
84 44
84 52
84 54
84 81
85 0
85 1
85 6
85 7
85 20
85 27
85 28
85 30
85 33
85 38
85 39
85 40
85 41
85 42
85 43
85 44
85 45
85 47
85 49
85 51
85 53
85 56
85 67
85 70
85 73
85 75
85 77
85 79
85 82
85 85
85 86
85 92
86 0
86 1
86 7
86 10
86 15
86 20
86 22
86 30
86 34
86 35
86 37
86 39
86 40
86 42
86 43
86 44
86 45
86 46
86 79
86 85
86 86
86 88
86 89
86 98
87 0
87 1
87 2
87 7
87 32
87 34
87 37
87 39
87 42
87 43
87 44
87 46
87 60
87 105
88 0
88 1
88 7
88 19
88 20
88 35
88 36
88 39
88 43
88 44
88 47
88 48
88 49
88 69
88 72
88 86
89 0
89 1
89 7
89 27
89 28
89 38
89 39
89 40
89 41
89 42
89 43
89 44
89 51
89 70
89 75
89 77
89 82
89 86
90 0
90 1
90 2
90 7
90 9
90 38
90 39
90 40
90 42
90 43
90 44
90 47
90 63
90 70
90 79
91 0
91 1
91 7
91 32
91 40
91 53
91 81
92 0
92 1
92 2
92 8
92 17
92 18
92 21
92 26
92 30
92 37
92 40
92 44
92 45
92 47
92 49
92 50
92 51
92 63
92 75
92 85
92 94
93 0
93 1
93 2
93 8
93 19
93 21
93 40
93 43
93 44
93 47
93 49
93 51
93 64
93 65
93 93
94 0
94 1
94 2
94 3
94 9
94 25
94 28
94 30
94 40
94 43
94 44
94 45
94 47
94 51
94 92
95 0
95 1
95 2
95 30
95 45
95 51
95 95
96 0
96 1
96 4
96 16
96 44
96 96
96 97
97 0
97 4
97 8
97 37
97 40
97 43
97 96
97 97
98 0
98 1
98 2
98 3
98 9
98 13
98 23
98 27
98 28
98 30
98 32
98 37
98 38
98 39
98 40
98 41
98 42
98 43
98 44
98 49
98 51
98 63
98 64
98 75
98 77
98 79
98 82
98 86
98 98
98 105
99 0
99 2
99 3
99 9
99 18
99 28
99 44
99 47
99 51
100 0
100 3
100 9
100 28
100 42
100 43
100 44
101 0
101 1
101 5
101 6
101 18
101 21
101 26
101 30
101 34
101 35
101 39
101 42
101 43
101 44
101 49
101 56
101 70
102 0
102 1
102 2
102 6
102 7
102 9
102 10
102 11
102 12
102 14
102 15
102 16
102 19
102 20
102 23
102 25
102 26
102 27
102 28
102 30
102 35
102 36
102 37
102 38
102 40
102 41
102 42
102 43
102 44
102 46
102 51
102 52
102 54
102 56
102 69
102 70
102 72
102 73
102 75
102 76
102 80
102 82
102 83
102 105
103 0
103 1
103 2
103 5
103 6
103 7
103 9
103 10
103 11
103 12
103 14
103 15
103 16
103 19
103 20
103 23
103 25
103 26
103 27
103 28
103 30
103 35
103 36
103 37
103 38
103 40
103 41
103 42
103 43
103 44
103 45
103 46
103 47
103 51
103 52
103 54
103 56
103 69
103 70
103 71
103 72
103 73
103 75
103 76
103 80
103 82
103 83
103 105
104 0
104 1
104 42
104 43
104 44
104 47
104 57
104 62
104 63
104 72
104 105
105 0
105 1
105 7
105 9
105 11
105 14
105 20
105 22
105 27
105 28
105 30
105 34
105 35
105 37
105 38
105 39
105 40
105 41
105 42
105 43
105 44
105 45
105 46
105 49
105 51
105 57
105 60
105 62
105 63
105 65
105 68
105 69
105 70
105 72
105 75
105 76
105 77
105 78
105 79
105 82
105 83
105 87
105 98
105 102
105 103
105 104
105 105
