0 147
1 343
1 388
2 152
2 169
2 284
3 149
3 254
3 255
3 256
4 50
4 51
4 145
5 56
5 428
6 48
6 57
6 58
6 59
7 93
7 129
7 197
8 75
8 77
8 210
9 83
9 84
9 130
9 131
10 37
10 93
10 94
10 95
11 96
11 97
12 101
12 123
12 436
13 88
13 89
14 56
14 113
14 114
14 115
15 125
15 173
15 419
16 126
16 127
16 128
17 326
17 369
17 401
18 303
18 328
18 401
19 173
19 183
19 184
20 185
20 187
20 188
20 189
21 63
21 190
21 191
21 192
22 134
22 193
22 194
22 391
23 195
23 196
23 201
23 412
24 93
24 95
24 197
24 198
25 199
25 200
25 201
26 202
26 203
26 204
27 181
27 205
27 206
27 207
28 208
28 209
28 210
28 211
29 81
29 202
29 203
29 212
30 213
30 214
30 392
30 407
31 215
31 216
31 217
32 218
32 219
32 220
32 221
33 222
33 223
34 225
34 228
34 229
34 230
35 235
35 424
35 440
36 233
36 234
36 235
37 10
37 236
37 237
37 238
38 239
38 240
38 241
38 242
39 58
39 243
39 244
39 245
40 246
40 247
40 248
40 259
41 232
41 243
41 249
41 250
42 251
42 252
42 253
43 133
43 226
43 227
43 228
44 48
44 58
44 232
44 243
45 239
45 241
45 257
45 258
46 259
46 260
46 261
46 334
47 241
47 262
48 6
48 44
48 263
49 251
49 253
49 264
49 265
50 4
50 266
50 267
50 268
51 4
52 276
53 99
53 190
53 269
53 270
54 271
54 272
54 273
54 274
55 233
55 275
55 276
56 5
56 14
56 222
56 277
57 6
58 6
58 39
58 44
58 278
59 6
59 278
59 279
60 280
60 281
60 282
61 282
61 284
62 286
62 289
63 21
63 157
63 286
63 287
64 161
64 288
64 289
64 290
65 247
65 291
65 292
65 293
66 100
66 294
66 295
66 296
67 273
67 274
67 283
68 281
68 282
68 297
68 298
69 292
69 293
70 247
70 259
70 260
70 293
71 299
71 300
71 301
71 302
72 300
72 302
72 303
72 304
73 149
73 220
73 254
73 305
74 306
74 307
74 308
75 8
75 146
76 308
76 309
77 8
77 310
77 311
77 397
78 218
78 302
79 90
79 312
80 313
80 314
81 29
81 183
81 184
81 315
82 91
82 244
82 312
82 316
83 9
83 286
83 287
83 289
84 9
84 290
85 187
85 189
85 299
85 301
86 189
86 285
86 301
86 317
87 218
87 301
88 13
88 260
88 275
89 13
89 275
90 79
90 138
90 313
90 318
91 82
91 251
91 252
91 314
92 251
92 264
92 314
92 319
93 7
93 10
93 24
93 307
94 10
94 308
95 10
95 24
96 11
96 200
97 11
98 320
99 53
99 320
100 66
100 320
100 321
100 322
101 12
101 237
101 238
101 323
102 272
102 274
102 324
102 325
103 326
103 327
103 328
103 401
104 180
104 329
104 330
105 116
105 124
105 266
105 331
106 332
106 333
106 383
107 275
107 334
107 335
108 241
108 280
108 284
109 311
109 313
109 318
109 336
110 112
110 338
111 112
111 337
111 338
112 110
112 111
112 222
112 277
113 14
113 277
113 339
113 340
114 14
114 340
115 14
116 105
116 344
116 345
117 195
117 200
117 346
118 270
118 347
119 126
119 347
119 348
120 270
120 347
120 348
120 349
121 295
121 346
122 195
122 295
122 346
122 350
123 12
123 344
124 105
124 344
124 351
124 386
125 15
125 265
125 352
125 353
126 16
126 119
126 354
127 16
127 272
128 16
128 324
128 354
129 7
129 306
129 307
130 9
130 182
130 287
130 355
131 9
131 182
131 356
131 360
132 227
132 228
132 229
132 357
133 43
133 323
133 358
133 359
134 22
134 290
134 360
134 361
135 153
135 362
135 363
135 364
136 365
136 366
136 417
136 439
137 229
137 357
137 432
138 90
138 211
138 249
138 250
139 150
139 217
139 317
140 182
140 356
140 368
140 369
141 147
141 370
141 371
141 373
142 326
142 327
142 372
142 373
143 365
143 374
143 417
144 254
144 256
144 337
144 378
145 4
145 379
145 380
145 381
146 75
146 170
146 379
146 381
147 0
147 141
147 376
147 382
148 150
148 285
148 305
148 317
149 3
149 73
149 333
149 383
150 139
150 148
150 332
150 383
151 243
151 244
151 250
151 312
152 2
152 315
152 384
153 135
153 264
153 265
153 352
154 176
154 385
154 386
155 164
155 193
155 400
156 343
156 388
156 389
156 390
157 63
157 190
157 270
157 349
158 391
158 392
158 407
159 336
159 393
159 394
159 395
160 393
160 396
160 397
160 398
161 64
161 193
161 399
161 400
162 336
162 393
162 397
163 164
163 400
163 402
163 403
164 155
164 163
164 404
164 405
165 225
165 267
165 342
165 406
166 214
166 341
166 407
167 171
167 242
167 284
167 408
168 268
168 370
168 371
168 409
169 2
169 183
169 315
169 410
170 146
170 248
170 259
170 261
171 167
171 362
171 364
171 411
172 313
172 319
172 336
172 395
173 15
173 19
173 353
174 350
174 351
174 412
175 288
175 324
175 354
175 413
176 154
176 178
176 409
177 196
177 237
177 412
178 176
178 181
178 414
179 182
179 355
179 368
180 104
180 181
180 414
180 416
181 27
181 178
181 180
181 330
182 130
182 131
182 140
182 179
183 19
183 81
183 169
184 19
184 81
184 203
185 20
185 194
185 366
186 266
186 268
186 331
186 409
187 20
187 85
187 366
187 417
188 20
188 213
188 392
188 418
189 20
189 85
189 86
189 418
190 21
190 53
190 157
190 321
191 21
191 321
191 322
192 21
192 329
192 355
193 22
193 155
193 161
194 22
194 185
194 361
195 23
195 117
195 122
196 23
196 177
196 198
197 7
197 24
198 24
198 196
198 201
199 25
200 25
200 96
200 117
201 23
201 25
201 198
202 26
202 29
202 420
203 26
203 29
203 184
204 26
205 27
206 27
206 368
206 372
207 27
207 370
207 372
207 373
208 28
208 261
208 334
209 28
209 234
209 335
210 8
210 28
211 28
211 138
211 234
211 318
212 29
212 315
213 30
213 188
213 216
214 30
214 166
215 31
216 31
216 213
216 418
217 31
217 139
218 32
218 78
218 87
219 32
220 32
220 73
221 32
221 281
221 421
222 33
222 56
222 112
223 33
224 238
224 309
224 422
225 34
225 165
226 43
226 238
226 323
226 422
227 43
227 132
227 422
227 423
228 34
228 43
228 132
228 359
229 34
229 132
229 137
229 291
230 34
230 246
230 247
230 291
231 424
231 440
232 41
232 44
232 235
232 424
233 36
233 55
234 36
234 209
234 211
234 249
235 35
235 36
235 232
235 249
236 37
237 37
237 101
237 177
238 37
238 101
238 224
238 226
239 38
239 45
239 343
240 38
240 387
240 390
240 411
241 38
241 45
241 47
241 108
242 38
242 167
242 411
243 39
243 41
243 44
243 151
244 39
244 82
244 151
244 425
245 39
245 278
245 425
246 40
246 230
246 406
247 40
247 65
247 70
247 230
248 40
248 170
248 379
248 406
249 41
249 138
249 234
249 235
250 41
250 138
250 151
251 42
251 49
251 91
251 92
252 42
252 91
252 316
253 42
253 49
254 3
254 73
254 144
254 421
255 3
255 333
255 426
256 3
256 144
256 426
257 45
257 328
257 343
258 45
258 303
259 40
259 46
259 70
259 170
260 46
260 70
260 88
261 46
261 170
261 208
262 47
263 48
264 49
264 92
264 153
265 49
265 125
265 153
265 419
266 50
266 105
266 186
266 345
267 50
267 165
267 345
268 50
268 168
268 186
268 427
269 53
269 429
270 53
270 118
270 120
270 157
271 54
271 430
272 54
272 102
272 127
273 54
273 67
274 54
274 67
274 102
274 402
275 55
275 88
275 89
275 107
276 52
276 55
277 56
277 112
277 113
278 58
278 59
278 245
279 59
280 60
280 108
281 60
281 68
281 221
282 60
282 61
282 68
283 67
283 402
283 403
284 2
284 61
284 108
284 167
285 86
285 148
285 431
286 62
286 63
286 83
287 63
287 83
287 130
288 64
288 175
288 399
289 62
289 64
289 83
290 64
290 84
290 134
291 65
291 229
291 230
291 432
292 65
292 69
293 65
293 69
293 70
294 66
295 66
295 121
295 122
296 66
296 322
296 433
297 68
297 378
297 434
298 68
298 384
298 420
298 434
299 71
299 85
300 71
300 72
301 71
301 85
301 86
301 87
302 71
302 72
302 78
303 18
303 72
303 258
304 72
305 73
305 148
305 431
306 74
306 129
307 74
307 93
307 129
308 74
308 76
308 94
309 76
309 224
310 77
310 381
310 435
311 77
311 109
312 79
312 82
312 151
312 314
313 80
313 90
313 109
313 172
314 80
314 91
314 92
314 312
315 81
315 152
315 169
315 212
316 82
316 252
316 425
317 86
317 139
317 148
318 90
318 109
318 211
319 92
319 172
319 363
320 98
320 99
320 100
321 100
321 190
321 191
322 100
322 191
322 296
323 101
323 133
323 226
324 102
324 128
324 175
324 399
325 102
325 402
326 17
326 103
326 142
326 437
327 103
327 142
328 18
328 103
328 257
329 104
329 192
329 416
330 104
330 181
331 105
331 186
332 106
332 150
333 106
333 149
333 255
334 46
334 107
334 208
335 107
335 209
336 109
336 159
336 162
336 172
337 111
337 144
337 339
338 110
338 111
339 113
339 337
339 378
339 434
340 113
340 114
340 420
341 166
341 404
341 405
342 165
342 358
342 359
343 1
343 156
343 239
343 257
344 116
344 123
344 124
345 116
345 266
345 267
346 117
346 121
346 122
347 118
347 119
347 120
348 119
348 120
348 413
349 120
349 157
349 413
350 122
350 174
350 433
350 438
351 124
351 174
351 438
352 125
352 153
352 364
352 410
353 125
353 173
353 410
354 126
354 128
354 175
355 130
355 179
355 192
356 131
356 140
356 439
357 132
357 137
357 423
358 133
358 342
359 133
359 228
359 342
360 131
360 134
360 439
361 134
361 194
361 439
362 135
362 171
362 394
363 135
363 319
363 395
364 135
364 171
364 352
365 136
365 143
365 369
366 136
366 185
366 187
367 422
367 423
368 140
368 179
368 206
369 17
369 140
369 365
369 437
370 141
370 168
370 207
371 141
371 168
371 376
371 427
372 142
372 206
372 207
373 141
373 142
373 207
374 143
375 376
375 377
375 396
376 147
376 371
376 375
376 380
377 375
377 380
377 381
377 435
378 144
378 297
378 339
378 421
379 145
379 146
379 248
380 145
380 376
380 377
380 427
381 145
381 146
381 310
381 377
382 147
382 388
382 389
383 106
383 149
383 150
384 152
384 298
385 154
385 415
385 433
385 438
386 124
386 154
386 438
387 240
387 393
387 394
388 1
388 156
388 382
389 156
389 382
389 396
389 398
390 156
390 240
390 398
391 22
391 158
391 405
392 30
392 158
392 188
393 159
393 160
393 162
393 387
394 159
394 362
394 387
395 159
395 172
395 363
396 160
396 375
396 389
396 435
397 77
397 160
397 162
398 160
398 389
398 390
399 161
399 288
399 324
400 155
400 161
400 163
401 17
401 18
401 103
402 163
402 274
402 283
402 325
403 163
403 283
404 164
404 341
405 164
405 341
405 391
406 165
406 246
406 248
407 30
407 158
407 166
408 167
408 410
409 168
409 176
409 186
410 169
410 352
410 353
410 408
411 171
411 240
411 242
412 23
412 174
412 177
413 175
413 348
413 349
414 178
414 180
414 415
415 385
415 414
415 416
416 180
416 329
416 415
417 136
417 143
417 187
418 188
418 189
418 216
419 15
419 265
420 202
420 298
420 340
421 221
421 254
421 378
422 224
422 226
422 227
422 367
423 227
423 357
423 367
424 35
424 231
424 232
425 244
425 245
425 316
426 255
426 256
427 268
427 371
427 380
428 5
429 269
430 271
431 285
431 305
432 137
432 291
433 296
433 350
433 385
434 297
434 298
434 339
435 310
435 377
435 396
436 12
437 326
437 369
438 350
438 351
438 385
438 386
439 136
439 356
439 360
439 361
440 35
440 231
