0 41
0 45
1 12
1 23
1 40
2 5
2 18
2 19
2 34
3 83
3 137
4 93
4 94
5 2
5 32
5 33
5 34
6 39
6 83
6 125
6 126
7 41
7 42
7 45
8 45
8 116
8 117
9 46
9 47
9 48
9 49
10 33
10 50
10 51
10 52
11 22
11 53
11 56
11 63
12 1
12 54
12 55
13 56
13 57
13 58
14 47
14 61
14 113
15 53
15 62
15 63
16 25
16 57
16 64
17 64
17 65
17 66
17 67
18 2
18 41
18 68
19 2
19 68
19 69
20 71
20 74
20 124
21 75
21 76
21 77
22 11
22 57
22 78
23 1
23 79
23 106
24 76
24 80
24 123
25 16
25 53
25 78
26 74
26 136
27 126
27 137
28 90
28 91
29 134
29 135
30 82
30 95
31 96
31 134
32 5
32 97
33 5
33 10
33 50
33 97
34 2
34 5
34 69
35 67
35 98
35 99
35 100
36 94
36 100
37 102
37 103
38 102
38 103
38 136
39 6
39 104
39 105
40 1
40 106
40 107
41 0
41 7
41 18
42 7
42 108
43 52
43 109
44 104
44 110
44 111
45 0
45 7
45 8
46 9
46 47
46 100
46 112
47 9
47 14
47 46
48 9
48 61
49 9
49 113
49 114
50 10
50 33
50 51
51 10
51 50
51 115
52 10
52 43
52 118
53 11
53 15
53 25
54 12
54 119
55 12
55 79
55 107
56 11
56 13
56 64
57 13
57 16
57 22
58 13
58 65
59 62
59 120
60 62
60 63
61 14
61 48
62 15
62 59
62 60
63 11
63 15
63 60
64 16
64 17
64 56
65 17
65 58
66 17
66 121
67 17
67 35
67 98
68 18
68 19
69 19
69 34
70 123
70 133
71 20
71 124
72 73
72 122
73 72
73 89
73 122
74 20
74 26
75 21
75 123
76 21
76 24
77 21
77 80
77 90
77 127
78 22
78 25
79 23
79 55
80 24
80 77
80 101
81 111
81 128
82 30
82 114
83 3
83 6
83 124
84 110
84 128
85 107
85 129
86 87
86 121
87 86
87 98
88 102
88 132
89 73
89 119
90 28
90 77
91 28
91 110
92 95
92 133
93 4
93 99
94 4
94 36
95 30
95 92
96 31
96 109
97 32
97 33
98 35
98 67
98 87
99 35
99 93
100 35
100 36
100 46
100 138
101 80
101 127
102 37
102 38
102 88
102 136
103 37
103 38
104 39
104 44
105 39
105 125
106 23
106 40
107 40
107 55
107 85
108 42
108 117
109 43
109 96
110 44
110 84
110 91
111 44
111 81
112 46
112 138
113 14
113 49
114 49
114 82
115 51
115 130
116 8
116 131
117 8
117 108
118 52
118 139
119 54
119 89
120 59
120 129
121 66
121 86
122 72
122 73
122 135
123 24
123 70
123 75
124 20
124 71
124 83
125 6
125 105
126 6
126 27
127 77
127 101
128 81
128 84
129 85
129 120
130 115
130 139
131 116
131 132
132 88
132 131
133 70
133 92
134 29
134 31
135 29
135 122
136 26
136 38
136 102
137 3
137 27
138 100
138 112
139 118
139 130
