0 14
1 10
1 22
2 10
2 25
2 26
3 13
3 14
3 15
4 5
4 14
4 16
5 4
5 6
5 17
6 5
6 7
6 18
7 6
7 19
8 20
8 21
9 22
9 32
10 1
10 2
10 24
11 25
11 27
11 34
12 25
13 3
13 29
13 30
14 0
14 3
14 4
15 3
16 4
17 5
18 6
19 7
20 8
21 8
21 31
22 1
22 9
23 32
23 37
24 10
25 2
25 11
25 12
26 2
27 11
27 29
27 35
28 29
29 13
29 27
29 28
30 13
31 21
31 36
32 9
32 23
33 37
33 40
34 11
35 27
36 31
36 39
37 23
37 33
38 40
38 43
39 36
39 42
40 33
40 38
41 43
41 46
42 39
42 45
43 38
43 41
44 46
44 49
45 42
45 48
46 41
46 44
47 49
47 50
48 45
48 51
49 44
49 47
50 47
50 51
51 48
51 50
