0 0
0 1
0 2
0 3
0 4
0 5
0 6
0 7
0 8
0 9
0 12
0 13
0 15
0 16
0 17
0 18
0 19
0 20
0 21
0 22
0 23
0 24
0 25
0 26
0 27
0 28
0 29
0 30
0 31
0 32
0 33
0 34
0 35
0 36
0 37
0 38
0 39
0 40
0 41
0 42
0 43
0 44
0 45
0 46
0 47
0 48
0 49
0 50
0 51
0 52
0 53
0 54
0 55
0 56
0 57
0 58
0 59
0 60
0 61
0 62
0 63
0 64
0 65
0 66
0 67
0 68
0 69
0 70
0 71
0 72
0 73
0 74
0 75
0 76
0 77
0 78
0 79
0 80
0 81
0 82
0 83
0 84
0 85
0 86
0 87
0 88
0 89
0 90
0 91
0 92
0 93
0 94
0 95
0 96
0 97
0 98
0 99
0 100
0 101
0 102
0 103
0 104
0 105
0 106
0 107
0 108
0 109
0 110
0 111
0 112
0 113
0 114
0 115
0 116
0 117
0 118
0 119
0 120
0 121
0 122
0 123
0 124
0 125
0 126
0 127
0 128
0 129
0 130
0 131
0 132
0 133
0 134
0 135
0 137
0 138
0 139
0 140
0 141
0 142
0 143
0 144
0 145
0 146
0 147
0 148
0 149
0 150
0 151
0 152
0 153
0 154
0 155
0 156
0 157
0 158
0 159
0 160
0 161
0 162
0 163
0 164
0 165
0 166
0 167
0 168
0 169
0 170
0 171
0 173
0 174
0 175
0 176
0 177
0 178
0 179
0 180
0 181
0 182
0 184
0 185
0 186
0 187
0 188
0 189
0 190
0 191
0 193
0 195
0 196
0 199
0 200
0 201
0 202
0 204
0 205
1 0
1 1
1 2
1 3
1 4
1 5
1 6
1 7
1 8
1 9
1 10
1 11
1 12
1 13
1 14
1 15
1 16
1 17
1 18
1 19
1 20
1 21
1 22
1 23
1 24
1 26
1 27
1 28
1 29
1 30
1 31
1 33
1 34
1 36
1 37
1 38
1 39
1 40
1 41
1 42
1 43
1 44
1 45
1 46
1 47
1 48
1 50
1 51
1 52
1 53
1 54
1 55
1 56
1 57
1 58
1 59
1 60
1 61
1 62
1 63
1 64
1 65
1 66
1 67
1 68
1 69
1 70
1 71
1 72
1 73
1 74
1 75
1 76
1 77
1 78
1 79
1 80
1 81
1 82
1 83
1 84
1 85
1 86
1 87
1 88
1 89
1 90
1 91
1 92
1 93
1 94
1 95
1 96
1 97
1 98
1 99
1 100
1 101
1 102
1 103
1 104
1 105
1 106
1 107
1 108
1 109
1 110
1 111
1 112
1 113
1 114
1 115
1 116
1 117
1 118
1 119
1 120
1 121
1 122
1 123
1 124
1 125
1 126
1 127
1 128
1 129
1 130
1 131
1 132
1 133
1 134
1 135
1 136
1 137
1 138
1 139
1 140
1 142
1 143
1 144
1 145
1 146
1 148
1 149
1 150
1 151
1 152
1 153
1 155
1 156
1 157
1 158
1 159
1 160
1 161
1 162
1 163
1 164
1 165
1 166
1 167
1 168
1 169
1 170
1 171
1 172
1 173
1 174
1 175
1 176
1 177
1 178
1 179
1 180
1 181
1 182
1 183
1 184
1 185
1 186
1 187
1 188
1 189
1 190
1 191
1 193
1 194
1 195
1 196
1 198
1 199
1 200
1 201
1 202
1 203
1 204
1 205
2 0
2 1
2 2
2 3
2 4
2 5
2 6
2 7
2 8
2 9
2 10
2 11
2 12
2 13
2 14
2 15
2 17
2 18
2 19
2 20
2 21
2 22
2 23
2 24
2 26
2 27
2 28
2 29
2 30
2 31
2 33
2 34
2 36
2 37
2 38
2 39
2 41
2 42
2 43
2 44
2 45
2 46
2 47
2 48
2 50
2 51
2 52
2 53
2 54
2 55
2 56
2 57
2 58
2 59
2 60
2 61
2 62
2 63
2 64
2 65
2 66
2 67
2 68
2 69
2 70
2 71
2 72
2 73
2 74
2 75
2 76
2 77
2 78
2 79
2 80
2 81
2 82
2 83
2 84
2 85
2 86
2 87
2 88
2 89
2 90
2 91
2 92
2 93
2 94
2 95
2 96
2 97
2 99
2 100
2 102
2 103
2 104
2 105
2 106
2 107
2 108
2 109
2 110
2 111
2 112
2 113
2 114
2 115
2 116
2 117
2 118
2 119
2 120
2 121
2 122
2 123
2 124
2 125
2 126
2 127
2 128
2 129
2 130
2 131
2 132
2 133
2 134
2 135
2 136
2 137
2 138
2 139
2 140
2 141
2 142
2 143
2 144
2 145
2 146
2 147
2 148
2 149
2 150
2 151
2 152
2 153
2 154
2 155
2 156
2 157
2 158
2 159
2 160
2 161
2 162
2 163
2 164
2 165
2 166
2 167
2 168
2 169
2 170
2 171
2 172
2 173
2 174
2 175
2 176
2 177
2 178
2 179
2 180
2 181
2 182
2 183
2 184
2 185
2 186
2 187
2 188
2 189
2 190
2 193
2 194
2 196
2 197
2 198
2 199
2 200
2 201
2 202
2 203
2 204
2 205
3 0
3 1
3 2
3 3
3 4
3 5
3 6
3 7
3 8
3 9
3 10
3 11
3 12
3 13
3 14
3 15
3 17
3 18
3 19
3 21
3 22
3 23
3 24
3 26
3 27
3 28
3 29
3 30
3 31
3 33
3 34
3 36
3 37
3 38
3 39
3 41
3 42
3 45
3 46
3 47
3 50
3 51
3 52
3 53
3 54
3 55
3 56
3 57
3 58
3 59
3 61
3 62
3 63
3 64
3 66
3 67
3 69
3 70
3 71
3 72
3 73
3 74
3 75
3 76
3 77
3 78
3 79
3 80
3 81
3 83
3 84
3 85
3 87
3 88
3 89
3 90
3 91
3 93
3 94
3 95
3 96
3 97
3 100
3 103
3 105
3 106
3 107
3 108
3 109
3 111
3 112
3 114
3 115
3 116
3 117
3 118
3 119
3 120
3 122
3 123
3 124
3 126
3 127
3 128
3 129
3 130
3 133
3 134
3 136
3 137
3 138
3 139
3 140
3 141
3 142
3 144
3 145
3 146
3 147
3 148
3 149
3 150
3 151
3 152
3 154
3 155
3 156
3 157
3 158
3 159
3 160
3 162
3 164
3 165
3 167
3 168
3 169
3 170
3 171
3 172
3 173
3 174
3 175
3 176
3 177
3 178
3 179
3 180
3 181
3 182
3 183
3 184
3 185
3 186
3 187
3 188
3 196
3 197
3 198
3 199
3 200
3 202
3 203
3 204
3 205
4 0
4 1
4 2
4 3
4 4
4 5
4 6
4 7
4 8
4 9
4 10
4 11
4 12
4 13
4 14
4 15
4 17
4 18
4 20
4 22
4 23
4 24
4 26
4 27
4 28
4 29
4 31
4 33
4 34
4 36
4 37
4 38
4 39
4 41
4 42
4 44
4 45
4 46
4 47
4 48
4 50
4 51
4 52
4 54
4 55
4 56
4 57
4 58
4 59
4 60
4 61
4 62
4 64
4 65
4 67
4 69
4 70
4 71
4 72
4 73
4 74
4 75
4 76
4 77
4 78
4 79
4 80
4 84
4 85
4 88
4 89
4 90
4 91
4 92
4 93
4 94
4 96
4 97
4 99
4 100
4 103
4 105
4 106
4 107
4 108
4 109
4 110
4 111
4 112
4 113
4 115
4 117
4 118
4 120
4 121
4 122
4 123
4 124
4 125
4 126
4 128
4 129
4 130
4 131
4 133
4 134
4 135
4 140
4 142
4 145
4 146
4 148
4 149
4 150
4 152
4 155
4 156
4 157
4 158
4 159
4 160
4 161
4 163
4 164
4 165
4 168
4 170
4 171
4 172
4 173
4 174
4 175
4 177
4 178
4 181
4 182
4 184
4 185
4 189
4 191
4 192
4 199
4 202
4 204
4 205
5 0
5 1
5 2
5 3
5 4
5 5
5 6
5 7
5 8
5 9
5 10
5 11
5 12
5 13
5 14
5 15
5 17
5 19
5 22
5 23
5 26
5 27
5 29
5 31
5 33
5 34
5 36
5 37
5 38
5 39
5 42
5 45
5 46
5 47
5 48
5 50
5 51
5 52
5 53
5 55
5 56
5 57
5 58
5 59
5 60
5 63
5 64
5 65
5 67
5 69
5 71
5 72
5 73
5 74
5 75
5 78
5 79
5 80
5 81
5 82
5 85
5 87
5 88
5 89
5 90
5 93
5 96
5 97
5 100
5 101
5 105
5 106
5 108
5 109
5 111
5 112
5 114
5 115
5 117
5 118
5 120
5 121
5 122
5 123
5 128
5 129
5 130
5 131
5 132
5 133
5 134
5 137
5 138
5 139
5 140
5 142
5 144
5 146
5 149
5 151
5 155
5 156
5 157
5 158
5 161
5 162
5 164
5 166
5 167
5 168
5 169
5 170
5 171
5 172
5 173
5 175
5 177
5 180
5 181
5 184
5 185
5 186
5 187
5 203
5 204
5 205
6 0
6 1
6 2
6 3
6 4
6 5
6 6
6 7
6 8
6 9
6 10
6 11
6 12
6 14
6 15
6 17
6 20
6 22
6 23
6 24
6 26
6 27
6 28
6 29
6 31
6 33
6 34
6 36
6 37
6 38
6 42
6 45
6 46
6 47
6 50
6 51
6 52
6 56
6 57
6 58
6 60
6 61
6 64
6 66
6 69
6 70
6 73
6 74
6 76
6 78
6 85
6 90
6 93
6 96
6 97
6 100
6 105
6 106
6 107
6 108
6 109
6 111
6 112
6 120
6 122
6 123
6 124
6 125
6 129
6 134
6 142
6 148
6 149
6 150
6 151
6 155
6 156
6 158
6 164
6 168
6 170
6 171
6 172
6 173
6 175
6 176
6 177
6 178
6 181
6 184
6 185
6 188
6 189
6 205
7 0
7 1
7 2
7 3
7 4
7 5
7 6
7 7
7 8
7 9
7 10
7 11
7 12
7 13
7 15
7 17
7 18
7 19
7 22
7 26
7 27
7 31
7 33
7 34
7 36
7 37
7 41
7 42
7 45
7 46
7 47
7 51
7 52
7 53
7 56
7 57
7 58
7 59
7 62
7 69
7 73
7 75
7 79
7 80
7 85
7 86
7 93
7 96
7 97
7 100
7 103
7 105
7 106
7 108
7 109
7 111
7 112
7 117
7 123
7 126
7 129
7 134
7 140
7 141
7 142
7 144
7 146
7 147
7 148
7 149
7 150
7 151
7 154
7 155
7 156
7 160
7 165
7 167
7 168
7 170
7 171
7 172
7 173
7 174
7 176
7 177
7 178
7 181
7 184
7 185
7 186
7 199
7 205
8 0
8 1
8 2
8 3
8 4
8 5
8 6
8 7
8 9
8 10
8 11
8 12
8 22
8 23
8 26
8 33
8 36
8 37
8 45
8 46
8 47
8 50
8 51
8 58
8 78
8 85
8 97
8 99
8 100
8 106
8 107
8 109
8 112
8 123
8 129
8 130
8 140
8 149
8 151
8 152
8 155
8 164
8 165
8 169
8 171
8 173
8 175
8 181
8 184
8 185
9 0
9 1
9 2
9 3
9 4
9 5
9 6
9 7
9 8
9 18
9 22
9 24
9 26
9 27
9 33
9 34
9 36
9 37
9 38
9 42
9 45
9 47
9 50
9 51
9 53
9 56
9 57
9 62
9 72
9 74
9 79
9 85
9 86
9 90
9 103
9 105
9 106
9 107
9 108
9 109
9 111
9 112
9 126
9 140
9 141
9 142
9 143
9 144
9 145
9 147
9 148
9 149
9 150
9 155
9 156
9 157
9 167
9 170
9 173
9 177
9 178
9 182
9 184
9 185
10 1
10 2
10 3
10 4
10 5
10 6
10 7
10 8
10 15
10 22
10 26
10 27
10 33
10 36
10 42
10 45
10 46
10 51
10 52
10 56
10 57
10 64
10 78
10 85
10 96
10 97
10 105
10 106
10 107
10 123
10 124
10 140
10 146
10 149
10 152
10 155
10 158
10 164
10 169
10 170
10 171
10 172
10 173
10 175
10 177
10 184
10 205
11 1
11 2
11 3
11 4
11 5
11 6
11 7
11 8
11 17
11 22
11 26
11 28
11 36
11 37
11 45
11 51
11 52
11 56
11 57
11 58
11 85
11 96
11 105
11 106
11 108
11 111
11 140
11 149
11 151
11 152
11 155
11 156
11 164
11 205
12 0
12 1
12 2
12 3
12 4
12 5
12 6
12 7
12 8
12 22
12 26
12 36
12 37
12 38
12 45
12 51
12 52
12 56
12 57
12 85
12 96
12 105
12 106
12 108
12 111
12 123
12 140
12 149
12 151
12 152
12 155
12 156
12 164
12 176
12 205
13 0
13 1
13 2
13 3
13 4
13 5
13 7
13 17
13 22
13 28
13 33
13 34
13 36
13 37
13 45
13 46
13 51
13 52
13 56
13 57
13 58
13 74
13 96
13 100
13 107
13 108
13 111
13 140
13 142
13 146
13 149
13 151
13 157
13 161
13 163
13 171
13 177
14 1
14 2
14 3
14 4
14 5
14 6
14 18
14 22
14 23
14 27
14 33
14 36
14 37
14 42
14 46
14 47
14 50
14 54
14 56
14 57
14 58
14 62
14 69
14 75
14 90
14 100
14 103
14 105
14 106
14 108
14 109
14 120
14 148
14 149
14 155
14 157
14 164
14 170
14 171
14 173
14 177
14 184
15 0
15 1
15 2
15 3
15 4
15 5
15 6
15 7
15 10
15 22
15 23
15 26
15 27
15 33
15 37
15 38
15 50
15 85
15 106
15 108
15 109
15 111
15 112
15 140
15 145
15 149
15 155
15 156
15 168
15 170
15 172
15 173
15 174
15 177
15 178
15 181
15 185
16 0
16 1
16 23
16 34
17 0
17 1
17 2
17 3
17 4
17 5
17 6
17 7
17 11
17 13
17 26
17 33
17 36
17 37
17 45
17 50
17 51
17 52
17 97
17 105
17 106
17 111
17 123
17 128
17 129
17 134
17 149
17 185
18 0
18 1
18 2
18 3
18 4
18 7
18 9
18 14
18 22
18 23
18 33
18 38
18 45
18 46
18 57
18 62
18 69
18 109
18 127
18 134
18 155
18 165
18 187
18 199
19 0
19 1
19 2
19 3
19 5
19 7
19 21
19 22
19 23
19 27
19 29
19 31
19 33
19 34
19 36
19 37
19 38
19 39
19 40
19 45
19 46
19 47
19 55
19 59
19 73
19 76
19 80
19 88
19 93
19 97
19 105
19 114
19 115
19 117
19 118
19 136
19 139
19 144
19 154
19 197
20 0
20 1
20 2
20 4
20 6
20 22
20 23
20 26
20 27
20 28
20 31
20 33
20 34
20 38
20 39
20 44
20 45
20 46
20 47
20 48
20 54
20 61
20 65
20 67
20 75
20 76
20 83
20 87
20 92
20 93
20 99
20 107
20 109
20 111
20 122
20 131
20 153
20 189
21 0
21 1
21 2
21 3
21 19
21 22
21 23
21 27
21 29
21 31
21 33
21 34
21 36
21 37
21 38
21 39
21 45
21 46
21 47
21 54
21 55
21 60
21 65
21 67
21 68
21 71
21 73
21 75
21 76
21 77
21 87
21 89
21 90
21 92
21 93
21 100
21 105
21 107
21 113
21 120
21 122
21 131
21 135
21 153
21 189
22 0
22 1
22 2
22 3
22 4
22 5
22 6
22 7
22 8
22 9
22 10
22 11
22 12
22 13
22 14
22 15
22 18
22 19
22 20
22 21
22 22
22 23
22 24
22 26
22 27
22 28
22 29
22 30
22 31
22 33
22 34
22 36
22 37
22 38
22 39
22 41
22 42
22 43
22 45
22 46
22 47
22 48
22 50
22 51
22 52
22 54
22 56
22 57
22 58
22 59
22 60
22 61
22 64
22 67
22 68
22 69
22 70
22 72
22 73
22 74
22 75
22 79
22 80
22 82
22 83
22 84
22 85
22 87
22 88
22 89
22 90
22 92
22 93
22 96
22 97
22 100
22 104
22 105
22 106
22 107
22 109
22 110
22 111
22 112
22 113
22 114
22 116
22 118
22 119
22 120
22 123
22 124
22 125
22 126
22 129
22 130
22 134
22 136
22 137
22 138
22 140
22 142
22 144
22 145
22 147
22 149
22 151
22 152
22 155
22 156
22 157
22 165
22 167
22 168
22 170
22 171
22 172
22 174
22 175
22 177
22 180
22 181
22 183
22 186
22 187
22 188
22 189
22 190
22 191
22 192
22 195
22 196
22 197
22 198
22 200
22 201
22 202
22 203
23 0
23 1
23 2
23 3
23 4
23 5
23 6
23 8
23 14
23 15
23 16
23 18
23 19
23 20
23 21
23 22
23 23
23 24
23 26
23 29
23 30
23 31
23 33
23 34
23 37
23 38
23 39
23 41
23 42
23 45
23 46
23 47
23 48
23 50
23 56
23 58
23 59
23 61
23 63
23 64
23 67
23 68
23 69
23 73
23 75
23 76
23 90
23 93
23 95
23 96
23 97
23 100
23 104
23 105
23 106
23 107
23 109
23 111
23 112
23 114
23 117
23 118
23 119
23 120
23 124
23 125
23 127
23 129
23 131
23 134
23 136
23 137
23 138
23 144
23 149
23 155
23 156
23 164
23 172
23 175
23 177
23 180
23 182
23 188
23 189
23 190
23 193
23 195
23 196
23 197
23 200
23 201
23 202
23 203
24 0
24 1
24 2
24 3
24 4
24 6
24 9
24 22
24 23
24 24
24 31
24 33
24 34
24 41
24 46
24 47
24 48
24 63
24 67
24 106
24 107
24 109
24 114
24 120
24 129
24 187
24 190
24 191
24 194
25 0
26 0
26 1
26 2
26 3
26 4
26 5
26 6
26 7
26 8
26 9
26 10
26 11
26 12
26 15
26 17
26 20
26 22
26 23
26 27
26 31
26 33
26 34
26 36
26 37
26 38
26 39
26 45
26 46
26 50
26 56
26 64
26 70
26 73
26 74
26 85
26 105
26 107
26 108
26 109
26 111
26 116
26 120
26 123
26 124
26 128
26 129
26 134
26 148
26 149
26 155
26 156
26 164
26 168
26 170
26 171
26 174
26 175
26 188
26 189
26 192
26 198
27 0
27 1
27 2
27 3
27 4
27 5
27 6
27 7
27 9
27 10
27 14
27 15
27 19
27 20
27 21
27 22
27 26
27 28
27 31
27 33
27 34
27 38
27 41
27 45
27 46
27 73
27 75
27 80
27 81
27 93
27 96
27 106
27 109
27 114
27 117
27 124
27 129
27 136
27 137
27 138
27 139
27 142
27 144
27 149
27 154
27 159
27 167
27 180
27 183
27 186
27 187
27 189
27 190
27 192
27 200
27 203
28 0
28 1
28 2
28 3
28 4
28 6
28 11
28 13
28 20
28 22
28 27
28 30
28 31
28 33
28 34
28 37
28 38
28 45
28 46
28 58
28 59
28 68
28 69
28 89
28 92
28 93
28 97
28 100
28 103
28 105
28 111
28 129
28 133
28 134
28 149
28 153
28 155
28 179
28 180
28 188
28 193
28 202
29 0
29 1
29 2
29 3
29 4
29 5
29 6
29 19
29 21
29 22
29 23
29 29
29 31
29 33
29 38
29 45
29 47
29 48
29 70
29 97
29 100
29 105
29 106
29 107
29 111
29 114
29 119
29 123
29 136
29 139
29 161
30 0
30 1
30 2
30 3
30 22
30 23
30 28
30 31
30 33
30 39
30 46
30 47
30 134
30 192
31 0
31 1
31 2
31 3
31 4
31 5
31 6
31 7
31 19
31 20
31 21
31 22
31 23
31 24
31 26
31 27
31 28
31 29
31 30
31 31
31 33
31 34
31 36
31 37
31 38
31 39
31 40
31 41
31 45
31 46
31 47
31 48
31 50
31 51
31 52
31 54
31 55
31 56
31 57
31 58
31 59
31 60
31 67
31 68
31 72
31 73
31 74
31 75
31 76
31 87
31 90
31 92
31 93
31 96
31 97
31 100
31 105
31 106
31 107
31 109
31 110
31 114
31 116
31 117
31 119
31 120
31 122
31 124
31 130
31 134
31 136
31 137
31 138
31 144
31 148
31 149
31 161
31 172
31 177
31 187
31 188
31 189
31 190
31 191
31 192
31 193
31 195
31 196
31 197
31 198
31 201
31 203
31 204
32 0
33 0
33 1
33 2
33 3
33 4
33 5
33 6
33 7
33 8
33 9
33 10
33 13
33 14
33 15
33 17
33 18
33 19
33 20
33 21
33 22
33 23
33 24
33 26
33 27
33 28
33 29
33 30
33 31
33 33
33 34
33 36
33 37
33 38
33 39
33 40
33 41
33 42
33 44
33 45
33 46
33 47
33 48
33 50
33 51
33 53
33 54
33 55
33 56
33 57
33 59
33 60
33 62
33 63
33 68
33 69
33 70
33 72
33 73
33 74
33 75
33 76
33 77
33 78
33 80
33 81
33 82
33 83
33 84
33 87
33 88
33 89
33 92
33 93
33 94
33 95
33 96
33 97
33 99
33 100
33 103
33 105
33 106
33 107
33 108
33 109
33 110
33 111
33 112
33 114
33 116
33 117
33 118
33 119
33 120
33 121
33 122
33 123
33 124
33 128
33 129
33 131
33 132
33 134
33 135
33 136
33 137
33 138
33 139
33 140
33 141
33 142
33 144
33 145
33 149
33 150
33 151
33 153
33 154
33 155
33 156
33 157
33 159
33 165
33 167
33 172
33 178
33 179
33 180
33 181
33 183
33 185
33 187
33 188
33 189
33 190
33 191
33 192
33 193
33 194
33 195
33 196
33 197
33 198
33 199
33 200
33 201
33 202
33 203
33 204
34 0
34 1
34 2
34 3
34 4
34 5
34 6
34 7
34 9
34 13
34 16
34 19
34 20
34 21
34 22
34 23
34 24
34 26
34 27
34 28
34 31
34 33
34 34
34 37
34 38
34 39
34 41
34 45
34 46
34 47
34 48
34 59
34 60
34 62
34 68
34 72
34 73
34 79
34 84
34 87
34 88
34 93
34 95
34 96
34 97
34 100
34 107
34 109
34 111
34 114
34 119
34 120
34 126
34 128
34 129
34 136
34 138
34 139
34 161
34 165
34 186
34 187
34 188
34 189
34 192
34 193
34 194
34 196
34 198
34 201
34 203
35 0
36 0
36 1
36 2
36 3
36 4
36 5
36 6
36 7
36 8
36 9
36 10
36 11
36 12
36 13
36 14
36 17
36 19
36 21
36 22
36 26
36 31
36 33
36 36
36 42
36 45
36 46
36 47
36 50
36 51
36 52
36 56
36 57
36 58
36 59
36 62
36 64
36 69
36 73
36 74
36 76
36 78
36 85
36 87
36 89
36 90
36 96
36 97
36 100
36 103
36 105
36 106
36 107
36 108
36 111
36 114
36 116
36 117
36 119
36 120
36 123
36 129
36 133
36 134
36 137
36 138
36 139
36 140
36 142
36 146
36 149
36 155
36 156
36 157
36 161
36 164
36 167
36 171
36 172
36 177
36 181
36 185
36 186
36 187
36 195
36 200
36 202
36 203
37 0
37 1
37 2
37 3
37 4
37 5
37 6
37 7
37 8
37 9
37 11
37 12
37 13
37 14
37 15
37 17
37 19
37 21
37 22
37 23
37 26
37 28
37 31
37 33
37 34
37 38
37 45
37 46
37 48
37 51
37 58
37 62
37 70
37 73
37 78
37 80
37 85
37 88
37 90
37 93
37 96
37 97
37 100
37 106
37 107
37 109
37 111
37 117
37 119
37 120
37 123
37 124
37 126
37 129
37 130
37 134
37 138
37 144
37 146
37 150
37 152
37 154
37 155
37 157
37 158
37 159
37 161
37 164
37 168
37 169
37 180
37 182
37 187
37 190
37 195
37 201
37 203
38 0
38 1
38 2
38 3
38 4
38 5
38 6
38 9
38 12
38 15
38 18
38 19
38 20
38 21
38 22
38 23
38 26
38 27
38 28
38 29
38 31
38 33
38 34
38 37
38 39
38 41
38 45
38 46
38 47
38 48
38 56
38 57
38 59
38 60
38 68
38 73
38 77
38 93
38 96
38 97
38 100
38 105
38 106
38 107
38 109
38 124
38 125
38 129
38 140
38 155
38 174
38 182
38 189
38 197
38 199
39 0
39 1
39 2
39 3
39 4
39 5
39 19
39 20
39 21
39 22
39 23
39 26
39 30
39 31
39 33
39 34
39 38
39 41
39 46
39 47
39 75
39 89
39 100
39 109
39 114
39 119
39 130
39 139
39 142
39 187
39 189
39 190
39 192
39 199
40 0
40 1
40 19
40 31
40 33
40 198
41 0
41 1
41 2
41 3
41 4
41 7
41 22
41 23
41 24
41 27
41 31
41 33
41 34
41 38
41 39
41 45
41 46
41 47
41 95
41 100
41 132
41 140
41 154
41 167
42 0
42 1
42 2
42 3
42 4
42 5
42 6
42 7
42 9
42 10
42 14
42 22
42 23
42 33
42 36
42 45
42 46
42 50
42 58
42 59
42 96
42 103
42 106
42 109
42 112
42 127
42 142
42 149
42 155
42 165
42 169
42 171
42 174
42 175
42 179
42 197
43 0
43 1
43 2
43 22
43 75
44 0
44 1
44 2
44 4
44 20
44 33
44 198
45 0
45 1
45 2
45 3
45 4
45 5
45 6
45 7
45 8
45 9
45 10
45 11
45 12
45 13
45 17
45 18
45 19
45 20
45 21
45 22
45 23
45 26
45 27
45 28
45 29
45 31
45 33
45 34
45 36
45 37
45 38
45 41
45 42
45 45
45 46
45 47
45 48
45 51
45 52
45 56
45 57
45 58
45 59
45 62
45 63
45 64
45 68
45 69
45 70
45 73
45 74
45 76
45 78
45 80
45 81
45 85
45 90
45 95
45 96
45 97
45 100
45 103
45 105
45 106
45 107
45 109
45 110
45 111
45 112
45 114
45 117
45 120
45 123
45 125
45 128
45 129
45 130
45 134
45 136
45 137
45 138
45 139
45 142
45 144
45 149
45 152
45 154
45 155
45 164
45 165
45 167
45 168
45 172
45 174
45 176
45 177
45 180
45 184
45 186
45 187
45 189
45 190
45 192
45 193
45 197
45 200
45 202
45 203
46 0
46 1
46 2
46 3
46 4
46 5
46 6
46 7
46 8
46 10
46 13
46 14
46 18
46 19
46 20
46 21
46 22
46 23
46 24
46 26
46 27
46 28
46 30
46 31
46 33
46 34
46 36
46 37
46 38
46 39
46 41
46 42
46 45
46 46
46 47
46 50
46 51
46 52
46 56
46 57
46 58
46 59
46 63
46 64
46 68
46 69
46 72
46 73
46 74
46 75
46 78
46 79
46 81
46 90
46 92
46 93
46 96
46 97
46 100
46 103
46 105
46 106
46 107
46 109
46 111
46 114
46 116
46 117
46 118
46 119
46 120
46 123
46 125
46 127
46 129
46 130
46 133
46 136
46 137
46 138
46 139
46 146
46 149
46 152
46 155
46 156
46 171
46 174
46 176
46 177
46 180
46 185
46 186
46 187
46 188
46 189
46 190
46 191
46 195
46 197
46 200
46 202
46 204
47 0
47 1
47 2
47 3
47 4
47 5
47 6
47 7
47 8
47 9
47 14
47 19
47 20
47 21
47 22
47 23
47 24
47 29
47 30
47 31
47 33
47 34
47 36
47 38
47 39
47 41
47 45
47 46
47 47
47 48
47 57
47 58
47 59
47 63
47 67
47 69
47 73
47 76
47 88
47 95
47 96
47 97
47 100
47 105
47 106
47 108
47 109
47 119
47 120
47 125
47 127
47 144
47 155
47 161
47 187
47 188
47 189
47 190
47 193
47 195
47 198
47 200
48 0
48 1
48 2
48 4
48 5
48 20
48 22
48 23
48 24
48 29
48 31
48 33
48 34
48 37
48 38
48 45
48 47
48 59
48 83
48 93
48 96
48 100
48 122
48 129
49 0
49 49
50 0
50 1
50 2
50 3
50 4
50 5
50 6
50 8
50 9
50 14
50 15
50 17
50 22
50 23
50 26
50 31
50 33
50 36
50 42
50 46
50 52
50 53
50 56
50 57
50 58
50 64
50 70
50 72
50 73
50 79
50 100
50 105
50 109
50 111
50 120
50 123
50 128
50 129
50 133
50 134
50 140
50 149
50 155
50 156
50 160
50 164
50 168
51 0
51 1
51 2
51 3
51 4
51 5
51 6
51 7
51 8
51 9
51 10
51 11
51 12
51 13
51 17
51 22
51 31
51 33
51 36
51 37
51 45
51 46
51 57
51 64
51 70
51 74
51 96
51 97
51 105
51 111
51 112
51 123
51 128
51 129
51 155
51 168
52 0
52 1
52 2
52 3
52 4
52 5
52 6
52 7
52 10
52 11
52 12
52 13
52 17
52 22
52 31
52 36
52 45
52 46
52 50
52 56
52 64
52 105
52 109
52 120
52 123
52 129
52 134
52 140
52 171
53 0
53 1
53 2
53 3
53 5
53 7
53 9
53 33
53 50
53 56
53 72
53 74
53 137
53 138
53 140
53 180
53 196
54 0
54 1
54 2
54 3
54 4
54 14
54 20
54 21
54 22
54 31
54 33
54 57
54 97
54 109
54 119
54 136
54 195
54 198
54 201
55 0
55 1
55 2
55 3
55 4
55 5
55 19
55 21
55 31
55 33
55 76
55 114
55 129
55 136
55 139
55 192
56 0
56 1
56 2
56 3
56 4
56 5
56 6
56 7
56 9
56 10
56 11
56 12
56 13
56 14
56 22
56 23
56 26
56 31
56 33
56 36
56 38
56 45
56 46
56 50
56 52
56 53
56 56
56 57
56 59
56 64
56 70
56 72
56 73
56 78
56 79
56 85
56 96
56 105
56 106
56 107
56 108
56 109
56 111
56 123
56 129
56 133
56 140
56 148
56 149
56 152
56 155
56 156
56 170
56 171
56 172
56 174
56 175
56 177
56 185
56 188
56 202
57 0
57 1
57 2
57 3
57 4
57 5
57 6
57 7
57 9
57 10
57 11
57 12
57 13
57 14
57 18
57 22
57 31
57 33
57 36
57 38
57 45
57 46
57 47
57 50
57 51
57 54
57 56
57 58
57 64
57 69
57 72
57 73
57 74
57 79
57 90
57 96
57 100
57 103
57 105
57 106
57 107
57 109
57 111
57 120
57 123
57 124
57 125
57 128
57 133
57 142
57 143
57 146
57 149
57 155
57 156
57 160
57 164
57 172
57 185
58 0
58 1
58 2
58 3
58 4
58 5
58 6
58 7
58 8
58 11
58 13
58 14
58 22
58 23
58 28
58 31
58 36
58 37
58 42
58 45
58 46
58 47
58 50
58 57
58 59
58 73
58 74
58 75
58 78
58 93
58 96
58 97
58 103
58 106
58 111
58 120
58 123
58 125
58 142
58 145
58 146
58 148
58 149
58 152
58 156
58 158
58 202
59 0
59 1
59 2
59 3
59 4
59 5
59 7
59 19
59 22
59 23
59 28
59 31
59 33
59 34
59 36
59 38
59 42
59 45
59 46
59 47
59 48
59 56
59 58
59 100
59 105
59 106
59 109
59 111
59 114
59 125
59 127
59 138
59 139
59 142
59 155
59 164
59 165
59 188
60 0
60 1
60 2
60 4
60 5
60 6
60 21
60 22
60 31
60 33
60 34
60 38
60 65
60 68
60 75
60 95
60 107
60 138
60 160
60 180
60 189
60 190
61 0
61 1
61 2
61 3
61 4
61 6
61 20
61 22
61 23
62 0
62 1
62 2
62 3
62 4
62 7
62 9
62 14
62 18
62 33
62 34
62 36
62 37
62 45
62 69
62 100
62 103
62 108
62 120
62 150
62 157
62 160
62 182
62 199
63 0
63 1
63 2
63 3
63 5
63 23
63 24
63 33
63 45
63 46
63 47
63 74
63 77
63 80
63 81
63 87
63 88
63 93
63 97
63 106
63 110
63 129
63 196
64 0
64 1
64 2
64 3
64 4
64 5
64 6
64 10
64 22
64 23
64 26
64 36
64 45
64 46
64 50
64 51
64 52
64 56
64 57
64 105
64 123
64 128
64 134
64 149
64 168
64 185
65 0
65 1
65 2
65 4
65 5
65 20
65 21
65 60
65 189
66 0
66 1
66 2
66 3
66 6
66 70
66 106
66 197
67 0
67 1
67 2
67 3
67 4
67 5
67 20
67 21
67 22
67 23
67 24
67 31
67 47
67 90
67 97
67 118
67 129
68 0
68 1
68 2
68 21
68 22
68 23
68 28
68 31
68 33
68 34
68 38
68 45
68 46
68 60
68 71
68 75
68 76
68 77
68 88
68 90
68 96
68 107
68 117
68 119
68 120
68 121
68 131
68 132
68 136
69 0
69 1
69 2
69 3
69 4
69 5
69 6
69 7
69 14
69 18
69 22
69 23
69 28
69 33
69 36
69 45
69 46
69 47
69 57
69 62
69 75
69 90
69 93
69 103
69 108
69 111
69 142
69 145
69 182
70 0
70 1
70 2
70 3
70 4
70 6
70 22
70 26
70 29
70 33
70 37
70 45
70 50
70 51
70 56
70 66
70 97
70 100
70 129
70 134
70 189
71 0
71 1
71 2
71 3
71 4
71 5
71 21
71 68
71 121
71 136
71 187
72 0
72 1
72 2
72 3
72 4
72 5
72 9
72 22
72 31
72 33
72 34
72 46
72 50
72 53
72 56
72 57
72 79
72 105
72 109
72 111
72 124
72 129
72 155
72 156
72 197
72 203
73 0
73 1
73 2
73 3
73 4
73 5
73 6
73 7
73 19
73 21
73 22
73 23
73 26
73 27
73 31
73 33
73 34
73 36
73 37
73 38
73 45
73 46
73 47
73 50
73 56
73 57
73 58
73 80
73 96
73 97
73 105
73 106
73 109
73 111
73 120
73 125
73 139
73 143
73 144
73 154
73 155
73 156
73 196
73 203
74 0
74 1
74 2
74 3
74 4
74 5
74 6
74 9
74 13
74 22
74 26
74 31
74 33
74 36
74 45
74 46
74 51
74 53
74 57
74 58
74 63
74 75
74 94
74 106
74 117
74 122
74 123
74 134
74 142
74 190
74 200
75 0
75 1
75 2
75 3
75 4
75 5
75 7
75 14
75 20
75 21
75 22
75 23
75 27
75 31
75 33
75 39
75 43
75 46
75 58
75 60
75 68
75 69
75 74
75 82
75 84
75 93
75 95
75 96
75 97
75 100
75 106
75 109
75 117
75 119
75 120
75 136
75 137
75 138
75 155
75 180
75 189
75 191
75 193
75 195
75 198
75 200
75 201
76 0
76 1
76 2
76 3
76 4
76 6
76 19
76 20
76 21
76 23
76 31
76 33
76 36
76 45
76 47
76 55
76 68
76 109
76 114
76 122
76 136
76 139
76 149
76 190
76 202
77 0
77 1
77 2
77 3
77 4
77 21
77 33
77 38
77 63
77 68
77 81
77 107
77 129
78 0
78 1
78 2
78 3
78 4
78 5
78 6
78 8
78 10
78 33
78 36
78 37
78 45
78 46
78 56
78 58
78 85
78 97
78 105
78 106
78 111
78 123
78 152
78 155
78 158
78 168
78 188
79 0
79 1
79 2
79 3
79 4
79 5
79 7
79 9
79 22
79 34
79 46
79 50
79 56
79 57
79 72
79 99
79 105
79 109
79 116
79 122
79 124
79 133
79 137
79 138
79 141
79 142
79 155
79 156
79 167
79 186
79 187
79 200
79 203
80 0
80 1
80 2
80 3
80 4
80 5
80 7
80 19
80 22
80 27
80 33
80 37
80 45
80 63
80 73
80 105
80 114
80 139
80 144
80 154
80 187
80 189
81 0
81 1
81 2
81 3
81 5
81 27
81 33
81 45
81 46
81 63
81 77
81 109
81 111
81 122
81 155
81 203
82 0
82 1
82 2
82 5
82 22
82 33
82 75
82 93
83 0
83 1
83 2
83 3
83 20
83 22
83 33
83 48
84 0
84 1
84 2
84 3
84 4
84 22
84 33
84 34
84 75
84 93
84 97
84 105
84 109
84 111
84 152
84 160
85 0
85 1
85 2
85 3
85 4
85 5
85 6
85 7
85 8
85 9
85 10
85 11
85 12
85 15
85 22
85 26
85 36
85 37
85 45
85 56
85 78
85 105
85 106
85 107
85 111
85 123
85 149
85 152
85 155
85 156
85 158
85 177
85 205
86 0
86 1
86 2
86 7
86 9
86 137
86 138
86 140
86 180
86 190
87 0
87 1
87 2
87 3
87 5
87 20
87 21
87 22
87 31
87 33
87 34
87 36
87 63
87 100
87 109
88 0
88 1
88 2
88 3
88 4
88 5
88 19
88 22
88 33
88 34
88 37
88 47
88 63
88 68
88 114
88 129
88 139
88 187
88 201
89 0
89 1
89 2
89 3
89 4
89 5
89 21
89 22
89 28
89 33
89 36
89 39
89 93
89 97
89 100
89 105
89 137
89 180
89 187
90 0
90 1
90 2
90 3
90 4
90 5
90 6
90 9
90 14
90 21
90 22
90 23
90 31
90 36
90 37
90 45
90 46
90 57
90 67
90 68
90 69
90 93
90 97
90 100
90 103
90 105
90 106
90 109
90 122
90 123
90 129
90 134
90 148
90 152
90 155
90 189
90 191
90 202
91 0
91 1
91 2
91 3
91 4
92 0
92 1
92 2
92 4
92 20
92 21
92 22
92 28
92 31
92 33
92 46
92 136
93 0
93 1
93 2
93 3
93 4
93 5
93 6
93 7
93 19
93 20
93 21
93 22
93 23
93 27
93 28
93 31
93 33
93 34
93 37
93 38
93 46
93 48
93 58
93 63
93 69
93 75
93 82
93 84
93 89
93 90
93 93
93 94
93 97
93 99
93 100
93 105
93 106
93 114
93 136
93 139
93 149
93 161
93 187
93 189
93 190
93 191
93 198
93 200
94 0
94 1
94 2
94 3
94 4
94 33
94 74
94 93
94 94
94 96
94 97
94 100
94 106
94 107
94 111
94 151
94 188
94 198
95 0
95 1
95 2
95 3
95 23
95 33
95 34
95 41
95 45
95 47
95 60
95 75
95 95
95 96
95 97
95 120
95 190
95 197
95 201
96 0
96 1
96 2
96 3
96 4
96 5
96 6
96 7
96 10
96 11
96 12
96 13
96 22
96 23
96 27
96 31
96 33
96 34
96 36
96 37
96 38
96 42
96 45
96 46
96 47
96 48
96 51
96 56
96 57
96 58
96 68
96 73
96 75
96 94
96 95
96 96
96 97
96 100
96 103
96 105
96 106
96 107
96 109
96 110
96 112
96 117
96 118
96 119
96 120
96 124
96 125
96 129
96 140
96 149
96 155
96 159
96 162
96 165
96 174
96 188
96 196
96 199
96 200
96 202
97 0
97 1
97 2
97 3
97 4
97 5
97 6
97 7
97 8
97 10
97 17
97 19
97 22
97 23
97 28
97 29
97 31
97 33
97 34
97 36
97 37
97 38
97 45
97 46
97 47
97 51
97 54
97 58
97 63
97 67
97 70
97 73
97 75
97 78
97 84
97 89
97 90
97 93
97 94
97 95
97 96
97 97
97 100
97 105
97 106
97 107
97 109
97 110
97 115
97 116
97 117
97 118
97 129
97 134
97 137
97 138
97 144
97 145
97 147
97 149
97 151
97 152
97 155
97 156
97 172
97 176
97 177
97 178
97 180
97 183
97 186
97 188
97 189
97 200
97 203
97 204
98 0
98 1
99 0
99 1
99 2
99 4
99 8
99 20
99 33
99 79
99 93
100 0
100 1
100 2
100 3
100 4
100 5
100 6
100 7
100 8
100 13
100 14
100 21
100 22
100 23
100 28
100 29
100 31
100 33
100 34
100 36
100 37
100 38
100 39
100 41
100 45
100 46
100 47
100 48
100 50
100 57
100 59
100 62
100 70
100 75
100 87
100 89
100 90
100 93
100 94
100 96
100 97
100 100
100 105
100 106
100 107
100 109
100 110
100 117
100 119
100 120
100 123
100 127
100 129
100 140
100 145
100 151
100 152
100 155
100 165
100 174
100 196
100 198
101 0
101 1
101 5
102 0
102 1
102 2
103 0
103 1
103 2
103 3
103 4
103 7
103 9
103 14
103 28
103 33
103 36
103 42
103 45
103 46
103 57
103 58
103 62
103 69
103 90
103 96
103 107
103 133
103 149
104 0
104 1
104 2
104 22
104 23
105 0
105 1
105 2
105 3
105 4
105 5
105 6
105 7
105 9
105 10
105 11
105 12
105 14
105 17
105 19
105 21
105 22
105 23
105 26
105 28
105 29
105 31
105 33
105 36
105 38
105 45
105 46
105 47
105 50
105 51
105 52
105 56
105 57
105 59
105 64
105 72
105 73
105 78
105 79
105 80
105 84
105 85
105 89
105 90
105 93
105 96
105 97
105 100
105 105
105 106
105 107
105 109
105 114
105 119
105 129
105 139
105 149
105 155
105 156
105 162
105 176
105 181
105 188
105 203
105 205
106 0
106 1
106 2
106 3
106 4
106 5
106 6
106 7
106 8
106 9
106 10
106 11
106 12
106 14
106 15
106 17
106 22
106 23
106 24
106 27
106 29
106 31
106 33
106 36
106 37
106 38
106 42
106 45
106 46
106 47
106 56
106 57
106 58
106 59
106 63
106 66
106 73
106 74
106 75
106 78
106 85
106 90
106 93
106 94
106 96
106 97
106 100
106 105
106 106
106 107
106 109
106 110
106 112
106 115
106 116
106 117
106 120
106 122
106 125
106 127
106 129
106 130
106 134
106 140
106 144
106 149
106 155
106 156
106 164
106 168
106 170
106 174
106 177
106 181
106 183
106 186
106 188
106 198
106 199
106 200
107 0
107 1
107 2
107 3
107 4
107 6
107 8
107 9
107 10
107 13
107 20
107 21
107 22
107 23
107 24
107 26
107 29
107 31
107 33
107 34
107 36
107 37
107 38
107 45
107 46
107 56
107 57
107 60
107 68
107 77
107 85
107 94
107 96
107 97
107 100
107 103
107 105
107 106
107 107
107 109
107 112
107 116
107 123
107 124
107 129
107 151
107 155
107 162
107 172
107 177
107 183
107 188
107 194
107 196
107 200
108 0
108 1
108 2
108 3
108 4
108 5
108 6
108 7
108 9
108 11
108 12
108 13
108 14
108 15
108 26
108 33
108 36
108 47
108 56
108 62
108 69
108 112
108 134
108 163
108 172
108 177
108 181
108 199
109 0
109 1
109 2
109 3
109 4
109 5
109 6
109 7
109 8
109 9
109 14
109 15
109 18
109 20
109 22
109 23
109 24
109 26
109 27
109 31
109 33
109 34
109 37
109 38
109 39
109 42
109 45
109 46
109 47
109 50
109 52
109 54
109 56
109 57
109 59
109 72
109 73
109 75
109 76
109 79
109 81
109 84
109 87
109 90
109 96
109 97
109 100
109 105
109 106
109 107
109 111
109 112
109 122
109 123
109 129
109 130
109 133
109 134
109 149
109 151
109 155
109 156
109 157
109 160
109 162
109 164
109 168
109 170
109 172
109 173
109 174
109 177
109 185
109 188
109 192
109 198
109 200
110 0
110 1
110 2
110 4
110 22
110 31
110 33
110 45
110 63
110 96
110 97
110 100
110 106
110 117
110 129
111 0
111 1
111 2
111 3
111 4
111 5
111 6
111 7
111 9
111 11
111 12
111 13
111 15
111 17
111 20
111 22
111 23
111 26
111 28
111 29
111 33
111 34
111 36
111 37
111 45
111 46
111 50
111 51
111 56
111 57
111 58
111 59
111 69
111 72
111 73
111 78
111 81
111 84
111 85
111 94
111 109
111 116
111 117
111 123
111 134
111 137
111 138
111 142
111 146
111 155
111 156
111 158
111 164
111 171
111 172
111 176
111 177
111 180
111 181
111 187
111 203
112 0
112 1
112 2
112 3
112 4
112 5
112 6
112 7
112 8
112 9
112 15
112 22
112 23
112 33
112 42
112 45
112 51
112 96
112 106
112 107
112 108
112 109
112 127
112 151
112 155
112 165
112 173
113 0
113 1
113 2
113 4
113 21
113 22
113 119
113 136
113 191
113 196
114 0
114 1
114 2
114 3
114 5
114 19
114 22
114 23
114 24
114 27
114 29
114 31
114 33
114 34
114 36
114 39
114 45
114 46
114 55
114 59
114 76
114 80
114 88
114 93
114 105
114 154
115 0
115 1
115 2
115 3
115 4
115 5
115 19
115 97
115 106
115 136
115 191
116 0
116 1
116 2
116 3
116 22
116 26
116 31
116 33
116 36
116 46
116 79
116 97
116 106
116 107
116 111
116 117
116 122
116 124
117 0
117 1
117 2
117 3
117 4
117 5
117 7
117 19
117 23
117 27
117 31
117 33
117 36
117 37
117 45
117 46
117 68
117 74
117 75
117 96
117 97
117 100
117 106
117 110
117 111
117 116
117 122
117 124
117 136
117 146
117 155
117 167
117 179
117 180
117 187
118 0
118 1
118 2
118 3
118 4
118 5
118 19
118 22
118 23
118 33
118 46
118 67
118 96
118 97
118 136
118 188
118 191
118 198
118 201
119 0
119 1
119 2
119 3
119 22
119 23
119 29
119 31
119 33
119 34
119 36
119 37
119 39
119 46
119 47
119 54
119 68
119 75
119 96
119 100
119 105
119 113
119 120
119 122
120 0
120 1
120 2
120 3
120 4
120 5
120 6
120 14
120 21
120 22
120 23
120 24
120 26
120 31
120 33
120 34
120 36
120 37
120 45
120 46
120 47
120 50
120 52
120 57
120 58
120 62
120 68
120 73
120 75
120 95
120 96
120 100
120 106
120 119
120 122
120 123
120 125
120 128
120 142
120 149
120 150
120 155
120 185
120 199
121 0
121 1
121 2
121 4
121 5
121 33
121 68
121 71
122 0
122 1
122 2
122 3
122 4
122 5
122 6
122 20
122 21
122 31
122 33
122 48
122 74
122 76
122 79
122 81
122 90
122 106
122 109
122 116
122 117
122 119
122 120
122 140
122 190
123 0
123 1
123 2
123 3
123 4
123 5
123 6
123 7
123 8
123 10
123 12
123 17
123 22
123 26
123 29
123 33
123 36
123 37
123 45
123 46
123 50
123 51
123 52
123 56
123 57
123 58
123 64
123 74
123 78
123 85
123 90
123 100
123 107
123 109
123 111
123 120
123 129
123 130
123 134
123 149
123 151
123 155
123 185
124 0
124 1
124 2
124 3
124 4
124 6
124 10
124 22
124 23
124 26
124 27
124 31
124 33
124 37
124 38
124 57
124 72
124 79
124 96
124 107
124 116
124 117
124 134
124 146
124 156
124 159
124 161
124 165
124 174
124 188
125 0
125 1
125 2
125 4
125 6
125 22
125 23
125 38
125 45
125 46
125 47
125 57
125 58
125 59
125 73
125 96
125 106
125 120
126 0
126 1
126 2
126 3
126 4
126 7
126 9
126 22
126 34
126 37
126 150
126 157
126 169
126 182
126 199
127 0
127 1
127 2
127 3
127 18
127 23
127 42
127 46
127 47
127 59
127 100
127 106
127 112
127 129
127 133
127 142
127 149
127 165
127 169
127 179
127 182
128 0
128 1
128 2
128 3
128 4
128 5
128 17
128 26
128 33
128 34
128 45
128 50
128 51
128 57
128 64
128 120
128 129
128 149
128 156
128 168
128 177
129 0
129 1
129 2
129 3
129 4
129 5
129 6
129 7
129 8
129 17
129 22
129 23
129 24
129 26
129 27
129 28
129 33
129 34
129 36
129 37
129 38
129 45
129 46
129 48
129 50
129 51
129 52
129 55
129 56
129 63
129 67
129 70
129 72
129 77
129 88
129 90
129 96
129 97
129 100
129 105
129 106
129 107
129 109
129 110
129 123
129 127
129 128
129 134
129 137
129 140
129 149
129 151
129 165
129 172
129 176
129 177
129 181
129 186
129 187
130 0
130 1
130 2
130 3
130 4
130 5
130 8
130 22
130 31
130 37
130 39
130 45
130 46
130 106
130 109
130 123
130 142
130 155
130 164
131 0
131 1
131 2
131 4
131 5
131 20
131 21
131 23
131 33
131 68
131 136
132 0
132 1
132 2
132 5
132 33
132 41
132 68
132 187
133 0
133 1
133 2
133 3
133 4
133 5
133 28
133 36
133 46
133 50
133 56
133 57
133 79
133 103
133 109
133 127
133 149
133 155
133 199
133 203
134 0
134 1
134 2
134 3
134 4
134 5
134 6
134 7
134 17
134 18
134 22
134 23
134 26
134 28
134 30
134 31
134 33
134 36
134 37
134 45
134 50
134 52
134 64
134 70
134 74
134 90
134 97
134 106
134 108
134 109
134 111
134 123
134 124
134 129
134 140
134 142
134 149
134 157
134 161
134 166
134 168
135 0
135 1
135 2
135 4
135 21
135 33
135 136
136 1
136 2
136 3
136 19
136 22
136 23
136 27
136 29
136 31
136 33
136 34
136 45
136 46
136 54
136 55
136 68
136 71
136 75
136 76
136 92
136 93
136 113
136 115
136 117
136 118
136 131
136 135
137 0
137 1
137 2
137 3
137 5
137 22
137 23
137 27
137 31
137 33
137 36
137 45
137 46
137 53
137 75
137 79
137 86
137 89
137 97
137 111
137 129
137 140
137 143
137 167
137 186
138 0
138 1
138 2
138 3
138 5
138 22
138 23
138 27
138 31
138 33
138 34
138 36
138 37
138 45
138 46
138 53
138 59
138 60
138 75
138 79
138 86
138 97
138 111
138 143
138 167
138 186
139 0
139 1
139 2
139 3
139 5
139 19
139 27
139 29
139 33
139 34
139 36
139 39
139 45
139 46
139 55
139 59
139 73
139 76
139 80
139 88
139 93
139 105
139 144
139 154
140 0
140 1
140 2
140 3
140 4
140 5
140 7
140 8
140 9
140 10
140 11
140 12
140 13
140 15
140 22
140 33
140 36
140 38
140 41
140 50
140 52
140 53
140 56
140 86
140 96
140 100
140 106
140 122
140 129
140 134
140 137
140 141
140 144
140 145
140 149
140 155
140 159
140 180
140 181
140 188
140 202
140 203
141 0
141 2
141 3
141 7
141 9
141 33
141 79
141 140
141 154
142 0
142 1
142 2
142 3
142 4
142 5
142 6
142 7
142 9
142 13
142 22
142 27
142 33
142 36
142 39
142 42
142 45
142 57
142 58
142 59
142 69
142 74
142 79
142 111
142 120
142 127
142 130
142 134
142 149
142 155
142 157
142 167
142 203
143 0
143 1
143 2
143 9
143 57
143 73
143 137
143 138
143 167
144 0
144 1
144 2
144 3
144 5
144 7
144 9
144 19
144 22
144 23
144 27
144 31
144 33
144 37
144 45
144 47
144 73
144 80
144 97
144 106
144 139
144 140
144 151
144 154
144 167
144 203
145 0
145 1
145 2
145 3
145 4
145 9
145 15
145 22
145 33
145 58
145 69
145 97
145 100
145 140
145 159
145 162
145 181
146 0
146 1
146 2
146 3
146 4
146 5
146 7
146 10
146 13
146 36
146 37
146 46
146 57
146 58
146 111
146 117
146 124
147 0
147 2
147 3
147 7
147 9
147 22
147 97
148 0
148 1
148 2
148 3
148 4
148 6
148 7
148 9
148 14
148 26
148 31
148 56
148 58
148 90
148 155
148 160
148 199
149 0
149 1
149 2
149 3
149 4
149 5
149 6
149 7
149 8
149 9
149 10
149 11
149 12
149 13
149 14
149 15
149 17
149 22
149 23
149 26
149 27
149 28
149 31
149 33
149 36
149 42
149 45
149 46
149 50
149 56
149 57
149 58
149 64
149 76
149 85
149 93
149 96
149 97
149 103
149 105
149 106
149 109
149 120
149 123
149 127
149 128
149 129
149 133
149 134
149 140
149 142
149 149
149 156
149 164
149 168
149 172
149 176
149 177
149 179
149 185
149 188
150 0
150 1
150 2
150 3
150 4
150 6
150 7
150 9
150 33
150 37
150 62
150 120
150 126
150 156
150 184
151 0
151 1
151 2
151 3
151 5
151 6
151 7
151 8
151 11
151 12
151 13
151 22
151 33
151 94
151 97
151 100
151 107
151 109
151 112
151 123
151 129
151 144
151 178
151 181
152 0
152 1
152 2
152 3
152 4
152 8
152 10
152 11
152 12
152 22
152 37
152 45
152 46
152 56
152 58
152 78
152 84
152 85
152 90
152 97
152 100
152 164
153 0
153 1
153 2
153 20
153 21
153 28
153 33
154 0
154 2
154 3
154 7
154 19
154 27
154 33
154 37
154 41
154 45
154 73
154 80
154 114
154 139
154 141
154 144
155 0
155 1
155 2
155 3
155 4
155 5
155 6
155 7
155 8
155 9
155 10
155 11
155 12
155 14
155 15
155 18
155 22
155 23
155 26
155 28
155 33
155 36
155 37
155 38
155 42
155 45
155 46
155 47
155 50
155 51
155 56
155 57
155 59
155 72
155 73
155 75
155 78
155 79
155 81
155 85
155 90
155 96
155 97
155 100
155 105
155 106
155 107
155 109
155 111
155 112
155 117
155 120
155 123
155 130
155 133
155 140
155 142
155 148
155 155
155 156
155 160
155 163
155 164
155 165
155 169
155 171
155 172
155 174
155 175
155 177
155 179
155 188
155 202
156 0
156 1
156 2
156 3
156 4
156 5
156 6
156 7
156 9
156 11
156 12
156 15
156 22
156 23
156 26
156 33
156 36
156 46
156 50
156 56
156 57
156 58
156 72
156 73
156 79
156 85
156 97
156 105
156 106
156 109
156 111
156 124
156 128
156 149
156 150
156 155
156 158
156 168
156 171
156 172
156 181
156 183
157 0
157 1
157 2
157 3
157 4
157 5
157 9
157 13
157 14
157 22
157 33
157 36
157 37
157 62
157 109
157 126
157 134
157 142
157 197
158 0
158 1
158 2
158 3
158 4
158 5
158 6
158 10
158 37
158 58
158 78
158 85
158 111
158 156
158 171
158 172
158 179
158 185
159 0
159 1
159 2
159 3
159 4
159 27
159 33
159 37
159 96
159 124
159 140
159 145
160 0
160 1
160 2
160 3
160 4
160 7
160 50
160 57
160 60
160 62
160 84
160 109
160 148
160 155
161 0
161 1
161 2
161 4
161 5
161 13
161 29
161 31
161 34
161 36
161 37
161 47
161 93
161 124
161 134
162 0
162 1
162 2
162 3
162 5
162 96
162 105
162 107
162 109
162 145
163 0
163 1
163 2
163 4
163 13
163 108
163 155
164 0
164 1
164 2
164 3
164 4
164 5
164 6
164 8
164 10
164 11
164 12
164 14
164 23
164 26
164 36
164 37
164 45
164 50
164 57
164 59
164 106
164 109
164 111
164 130
164 149
164 152
164 155
164 168
164 173
164 177
164 185
164 202
165 0
165 1
165 2
165 3
165 4
165 7
165 8
165 18
165 22
165 33
165 34
165 42
165 45
165 59
165 96
165 100
165 112
165 124
165 127
165 129
165 155
166 0
166 1
166 2
166 5
166 134
166 197
167 0
167 1
167 2
167 3
167 5
167 7
167 9
167 22
167 27
167 33
167 36
167 41
167 45
167 79
167 117
167 137
167 138
167 142
167 143
167 144
167 180
167 203
168 0
168 1
168 2
168 3
168 4
168 5
168 6
168 7
168 15
168 22
168 26
168 37
168 45
168 50
168 51
168 64
168 78
168 106
168 109
168 128
168 134
168 149
168 156
168 164
168 176
168 185
169 0
169 1
169 2
169 3
169 5
169 8
169 10
169 37
169 42
169 126
169 127
169 155
169 172
169 199
170 0
170 1
170 2
170 3
170 4
170 5
170 6
170 7
170 9
170 10
170 14
170 15
170 22
170 26
170 56
170 106
170 109
170 171
170 175
170 181
170 205
171 0
171 1
171 2
171 3
171 4
171 5
171 6
171 7
171 8
171 10
171 13
171 14
171 22
171 26
171 36
171 42
171 46
171 52
171 56
171 111
171 155
171 156
171 158
171 170
171 171
171 172
171 173
171 175
171 177
171 181
171 184
171 205
172 1
172 2
172 3
172 4
172 5
172 6
172 7
172 10
172 15
172 22
172 23
172 31
172 33
172 36
172 45
172 56
172 57
172 97
172 107
172 108
172 109
172 111
172 129
172 149
172 155
172 156
172 158
172 169
172 171
172 176
172 177
172 181
172 185
172 205
173 0
173 1
173 2
173 3
173 4
173 5
173 6
173 7
173 8
173 9
173 10
173 14
173 15
173 109
173 112
173 164
173 171
173 175
174 0
174 1
174 2
174 3
174 4
174 7
174 15
174 22
174 26
174 38
174 42
174 45
174 46
174 56
174 96
174 100
174 106
174 109
174 124
174 155
175 0
175 1
175 2
175 3
175 4
175 5
175 6
175 8
175 10
175 22
175 23
175 26
175 42
175 56
175 155
175 170
175 171
175 173
175 177
175 181
175 184
176 0
176 1
176 2
176 3
176 6
176 7
176 12
176 45
176 46
176 97
176 105
176 111
176 129
176 149
176 168
176 172
176 188
177 0
177 1
177 2
177 3
177 4
177 5
177 6
177 7
177 9
177 10
177 13
177 14
177 15
177 22
177 23
177 31
177 36
177 45
177 46
177 56
177 85
177 97
177 106
177 107
177 108
177 109
177 111
177 128
177 129
177 149
177 155
177 164
177 171
177 172
177 175
177 177
178 0
178 1
178 2
178 3
178 4
178 6
178 7
178 9
178 15
178 33
178 97
178 151
179 0
179 1
179 2
179 3
179 28
179 33
179 42
179 117
179 127
179 149
179 155
179 158
179 202
180 0
180 1
180 2
180 3
180 5
180 22
180 23
180 27
180 28
180 33
180 37
180 45
180 46
180 53
180 60
180 75
180 86
180 89
180 97
180 111
180 117
180 140
180 167
180 186
181 0
181 1
181 2
181 3
181 4
181 5
181 6
181 7
181 8
181 15
181 22
181 33
181 36
181 105
181 106
181 108
181 111
181 129
181 140
181 145
181 151
181 156
181 170
181 171
181 172
181 175
181 205
182 0
182 1
182 2
182 3
182 4
182 9
182 23
182 37
182 38
182 62
182 69
182 126
182 127
183 1
183 2
183 3
183 22
183 27
183 33
183 97
183 106
183 107
183 156
184 0
184 1
184 2
184 3
184 4
184 5
184 6
184 7
184 8
184 9
184 10
184 14
184 45
184 150
184 171
184 175
185 0
185 1
185 2
185 3
185 4
185 5
185 6
185 7
185 8
185 9
185 15
185 17
185 33
185 36
185 46
185 56
185 57
185 64
185 109
185 120
185 123
185 149
185 158
185 164
185 168
185 172
186 0
186 1
186 2
186 3
186 5
186 7
186 22
186 27
186 34
186 36
186 45
186 46
186 79
186 97
186 106
186 129
186 137
186 138
186 180
187 0
187 1
187 2
187 3
187 5
187 18
187 22
187 24
187 27
187 31
187 33
187 34
187 36
187 37
187 39
187 45
187 46
187 47
187 71
187 79
187 80
187 88
187 89
187 93
187 111
187 117
187 129
187 132
188 0
188 1
188 2
188 3
188 6
188 22
188 23
188 26
188 28
188 31
188 33
188 34
188 46
188 47
188 56
188 59
188 78
188 94
188 96
188 97
188 105
188 106
188 107
188 109
188 118
188 124
188 140
188 149
188 155
188 176
189 0
189 1
189 2
189 4
189 6
189 20
189 21
189 22
189 23
189 26
189 27
189 31
189 33
189 34
189 38
189 39
189 45
189 46
189 47
189 60
189 65
189 70
189 75
189 80
189 90
189 93
189 97
189 192
190 0
190 1
190 2
190 22
190 23
190 24
190 27
190 31
190 33
190 37
190 39
190 45
190 46
190 47
190 60
190 74
190 76
190 86
190 93
190 95
190 122
191 0
191 1
191 4
191 22
191 24
191 31
191 33
191 46
191 75
191 90
191 93
191 113
191 115
191 118
192 4
192 22
192 26
192 27
192 30
192 31
192 33
192 34
192 39
192 45
192 55
192 109
192 189
193 0
193 1
193 2
193 23
193 28
193 31
193 33
193 34
193 45
193 47
193 75
194 1
194 2
194 24
194 33
194 34
194 107
195 0
195 1
195 22
195 23
195 31
195 33
195 36
195 37
195 46
195 47
195 54
195 75
196 0
196 1
196 2
196 3
196 22
196 23
196 31
196 33
196 34
196 53
196 63
196 73
196 96
196 100
196 107
196 113
197 2
197 3
197 19
197 22
197 23
197 31
197 33
197 38
197 42
197 45
197 46
197 66
197 72
197 95
197 157
197 166
198 1
198 2
198 3
198 22
198 26
198 31
198 33
198 34
198 40
198 44
198 47
198 54
198 75
198 93
198 94
198 100
198 106
198 109
198 118
199 0
199 1
199 2
199 3
199 4
199 7
199 18
199 33
199 38
199 39
199 62
199 96
199 106
199 108
199 120
199 126
199 133
199 148
199 169
200 0
200 1
200 2
200 3
200 22
200 23
200 27
200 33
200 36
200 45
200 46
200 47
200 74
200 75
200 79
200 93
200 96
200 97
200 106
200 107
200 109
201 0
201 1
201 2
201 22
201 23
201 31
201 33
201 34
201 37
201 54
201 75
201 88
201 95
201 118
202 0
202 1
202 2
202 3
202 4
202 22
202 23
202 28
202 33
202 36
202 45
202 46
202 56
202 58
202 76
202 90
202 96
202 140
202 155
202 164
202 179
203 1
203 2
203 3
203 5
203 22
203 23
203 27
203 31
203 33
203 34
203 36
203 37
203 45
203 72
203 73
203 79
203 81
203 97
203 105
203 111
203 133
203 140
203 142
203 144
203 167
204 0
204 1
204 2
204 3
204 4
204 5
204 31
204 33
204 46
204 97
205 0
205 1
205 2
205 3
205 4
205 5
205 6
205 7
205 10
205 11
205 12
205 85
205 105
205 170
205 171
205 172
205 181
