0 0
0 1
0 2
0 3
0 4
0 5
0 6
0 8
0 9
0 10
0 11
0 14
0 20
0 21
0 22
0 24
0 25
0 26
0 27
0 28
0 29
0 30
0 31
0 32
0 33
0 34
0 35
0 36
0 37
0 38
0 39
0 40
0 41
0 42
0 43
0 44
0 45
0 46
0 47
0 48
0 49
0 50
0 51
0 52
0 53
0 54
0 55
0 56
0 57
0 58
0 59
0 60
0 61
0 62
0 63
0 64
0 65
0 66
0 67
0 68
0 69
0 70
0 71
0 72
0 73
0 74
0 75
0 76
0 77
0 78
0 79
0 80
0 81
0 82
0 83
0 84
0 85
0 86
0 87
0 88
0 89
0 90
0 91
0 92
0 93
0 94
0 95
0 96
0 97
0 98
0 99
0 100
0 101
0 102
0 103
0 104
0 105
0 106
0 107
0 108
0 109
0 110
0 111
0 112
0 113
0 114
0 115
0 116
0 117
0 118
0 119
0 120
0 121
0 122
0 123
0 124
0 125
0 126
0 127
0 128
0 129
0 130
0 131
0 132
0 133
0 134
0 135
0 136
0 137
0 138
0 139
0 140
0 141
0 142
0 143
0 144
0 145
0 146
0 147
0 148
0 149
0 150
0 151
0 152
0 153
0 154
0 155
0 156
0 157
0 158
0 159
0 160
0 161
0 162
0 163
0 164
0 165
0 166
0 167
0 168
0 169
0 170
0 171
0 172
0 173
0 174
0 175
0 176
0 177
0 178
0 179
0 180
0 181
0 182
0 183
0 184
0 185
0 186
0 187
0 188
0 189
0 190
0 191
0 192
0 193
0 194
0 195
0 196
0 197
0 198
0 199
0 200
0 201
0 202
0 203
0 204
0 205
0 206
0 207
0 208
0 209
0 210
0 211
0 212
0 213
0 214
0 215
0 216
0 217
0 218
0 219
0 220
0 221
0 222
0 223
0 224
0 225
0 226
0 227
0 228
0 229
0 230
0 231
0 232
0 233
0 234
0 235
0 236
0 237
0 238
0 239
0 241
0 242
0 243
0 244
0 245
0 246
0 247
0 248
0 249
0 250
0 251
0 252
0 253
0 254
0 255
0 256
0 257
0 258
0 259
0 260
0 261
0 262
0 263
0 264
0 265
0 266
0 267
0 268
0 269
0 270
0 271
0 272
0 273
0 274
0 275
0 276
0 277
0 278
0 279
0 282
0 283
0 284
0 285
0 286
0 287
0 288
0 289
0 290
0 291
0 292
0 293
0 294
0 295
0 296
0 297
0 298
0 299
0 300
0 301
0 302
0 303
0 304
0 305
0 306
0 307
0 308
0 309
0 310
0 311
0 312
0 313
0 314
0 315
0 316
0 318
0 319
0 320
0 321
0 322
0 323
0 324
0 325
0 326
0 327
0 328
0 329
0 330
0 331
0 332
0 333
0 334
0 335
0 336
0 337
0 338
0 339
0 340
0 341
0 342
0 343
0 344
0 345
0 346
0 347
0 348
0 349
0 350
0 351
0 352
0 353
0 354
0 355
0 356
0 357
0 358
0 359
0 360
0 361
0 362
0 363
0 365
0 366
0 367
0 368
0 369
0 370
0 371
0 372
0 373
0 374
0 375
0 376
0 377
0 379
0 381
0 382
0 383
0 384
0 385
0 386
0 387
0 388
0 389
0 390
0 391
0 392
0 393
0 394
0 395
0 396
0 397
0 398
0 399
0 400
0 401
0 402
0 403
0 404
0 405
0 406
0 407
0 408
0 409
0 410
0 411
0 412
0 413
0 414
0 415
0 416
0 417
0 418
0 419
0 421
0 422
0 423
0 424
0 425
0 426
0 427
0 428
0 429
0 430
0 432
0 433
0 434
0 435
0 436
0 438
0 439
0 440
0 441
0 443
0 445
0 446
0 447
0 448
0 449
0 450
0 451
0 452
0 453
0 454
0 456
0 457
0 458
0 460
0 461
0 462
0 463
0 465
0 466
0 467
0 468
0 469
0 470
0 471
0 472
0 473
0 474
0 475
0 476
0 477
0 478
0 479
0 480
0 481
0 482
0 483
0 484
0 485
0 486
0 487
0 488
0 489
0 490
0 493
0 494
0 496
0 497
0 498
0 499
0 500
0 501
0 502
0 503
0 504
0 505
0 506
0 508
0 509
0 510
0 511
0 513
0 514
0 515
0 516
0 517
0 519
0 520
0 521
0 522
0 524
0 526
0 527
0 528
0 529
0 530
0 531
0 532
0 535
0 537
0 538
0 539
0 540
0 541
0 542
0 543
0 544
0 545
0 546
0 548
0 555
0 559
0 562
0 564
0 565
0 566
0 569
0 570
0 571
0 572
0 574
0 575
0 576
0 577
0 578
0 579
0 580
0 581
0 586
0 587
0 588
0 591
0 592
0 593
1 0
1 1
1 2
1 3
1 4
1 5
1 6
1 7
1 8
1 9
1 10
1 11
1 12
1 13
1 14
1 16
1 18
1 20
1 21
1 22
1 23
1 24
1 25
1 26
1 27
1 28
1 29
1 30
1 31
1 32
1 33
1 34
1 35
1 36
1 37
1 38
1 39
1 40
1 41
1 42
1 43
1 44
1 45
1 46
1 47
1 48
1 50
1 51
1 52
1 53
1 54
1 55
1 56
1 57
1 58
1 59
1 61
1 62
1 63
1 65
1 66
1 68
1 69
1 70
1 71
1 72
1 73
1 74
1 75
1 76
1 77
1 78
1 79
1 80
1 81
1 82
1 84
1 85
1 86
1 87
1 88
1 89
1 90
1 91
1 92
1 93
1 94
1 95
1 96
1 97
1 98
1 99
1 101
1 102
1 103
1 104
1 105
1 106
1 107
1 108
1 109
1 110
1 111
1 112
1 113
1 114
1 115
1 116
1 117
1 118
1 119
1 120
1 121
1 122
1 123
1 124
1 125
1 126
1 127
1 128
1 129
1 130
1 131
1 132
1 133
1 134
1 135
1 136
1 137
1 138
1 139
1 140
1 141
1 142
1 143
1 144
1 145
1 146
1 147
1 148
1 149
1 150
1 151
1 152
1 153
1 154
1 155
1 156
1 157
1 158
1 159
1 160
1 161
1 162
1 163
1 164
1 165
1 166
1 167
1 168
1 169
1 170
1 171
1 172
1 173
1 174
1 175
1 176
1 177
1 178
1 179
1 180
1 181
1 182
1 183
1 184
1 185
1 186
1 187
1 188
1 189
1 190
1 191
1 192
1 193
1 194
1 195
1 196
1 197
1 198
1 199
1 200
1 201
1 202
1 203
1 204
1 205
1 206
1 207
1 208
1 209
1 210
1 211
1 212
1 213
1 214
1 215
1 216
1 217
1 218
1 219
1 220
1 221
1 222
1 223
1 224
1 225
1 226
1 227
1 228
1 229
1 230
1 231
1 232
1 233
1 234
1 235
1 236
1 237
1 238
1 239
1 240
1 241
1 242
1 243
1 244
1 245
1 246
1 247
1 248
1 249
1 250
1 251
1 252
1 253
1 254
1 255
1 256
1 257
1 258
1 259
1 260
1 261
1 262
1 263
1 264
1 265
1 266
1 267
1 268
1 269
1 270
1 271
1 272
1 273
1 274
1 275
1 276
1 277
1 278
1 279
1 280
1 281
1 282
1 283
1 284
1 285
1 286
1 287
1 288
1 289
1 290
1 291
1 292
1 293
1 294
1 295
1 297
1 298
1 299
1 300
1 301
1 302
1 303
1 304
1 305
1 306
1 307
1 308
1 310
1 311
1 313
1 314
1 315
1 316
1 318
1 320
1 321
1 322
1 323
1 324
1 325
1 327
1 329
1 330
1 331
1 332
1 333
1 334
1 335
1 336
1 337
1 338
1 339
1 340
1 341
1 342
1 343
1 344
1 345
1 346
1 347
1 348
1 349
1 350
1 351
1 352
1 353
1 354
1 355
1 356
1 357
1 358
1 359
1 360
1 361
1 362
1 363
1 365
1 366
1 367
1 368
1 369
1 370
1 371
1 372
1 373
1 374
1 375
1 376
1 377
1 378
1 379
1 381
1 382
1 383
1 384
1 385
1 386
1 387
1 388
1 389
1 391
1 392
1 393
1 394
1 396
1 397
1 398
1 399
1 400
1 401
1 402
1 403
1 404
1 405
1 406
1 407
1 408
1 409
1 410
1 411
1 413
1 414
1 415
1 416
1 417
1 418
1 419
1 420
1 421
1 422
1 423
1 424
1 425
1 426
1 427
1 428
1 429
1 430
1 432
1 433
1 434
1 435
1 436
1 437
1 439
1 440
1 442
1 443
1 445
1 446
1 448
1 449
1 450
1 452
1 453
1 454
1 455
1 456
1 457
1 458
1 459
1 460
1 461
1 462
1 463
1 464
1 465
1 466
1 467
1 468
1 469
1 470
1 471
1 472
1 473
1 474
1 475
1 476
1 477
1 478
1 479
1 481
1 482
1 483
1 484
1 485
1 486
1 487
1 488
1 489
1 490
1 491
1 492
1 493
1 494
1 496
1 497
1 498
1 499
1 501
1 502
1 503
1 504
1 505
1 506
1 507
1 508
1 509
1 510
1 511
1 513
1 514
1 515
1 516
1 517
1 518
1 519
1 520
1 522
1 523
1 524
1 527
1 528
1 529
1 530
1 531
1 532
1 534
1 535
1 537
1 538
1 539
1 540
1 541
1 543
1 544
1 545
1 546
1 548
1 551
1 555
1 556
1 557
1 559
1 560
1 561
1 563
1 565
1 566
1 567
1 568
1 569
1 570
1 572
1 573
1 574
1 575
1 576
1 577
1 578
1 579
1 580
1 581
1 582
1 583
1 586
1 587
1 588
1 591
1 592
1 593
2 0
2 1
2 2
2 3
2 4
2 5
2 6
2 7
2 8
2 9
2 10
2 11
2 13
2 14
2 17
2 18
2 20
2 21
2 22
2 23
2 24
2 25
2 26
2 27
2 28
2 29
2 30
2 31
2 32
2 33
2 34
2 35
2 36
2 37
2 39
2 40
2 41
2 42
2 43
2 44
2 45
2 46
2 48
2 50
2 51
2 52
2 53
2 54
2 55
2 56
2 57
2 58
2 59
2 60
2 61
2 62
2 63
2 65
2 66
2 68
2 69
2 70
2 71
2 72
2 73
2 74
2 75
2 76
2 77
2 78
2 79
2 80
2 81
2 82
2 84
2 85
2 86
2 87
2 88
2 89
2 90
2 91
2 92
2 93
2 94
2 95
2 96
2 97
2 98
2 99
2 101
2 102
2 103
2 104
2 106
2 107
2 108
2 109
2 110
2 111
2 112
2 113
2 114
2 115
2 116
2 117
2 118
2 120
2 121
2 123
2 124
2 125
2 126
2 127
2 128
2 129
2 130
2 131
2 132
2 133
2 134
2 135
2 136
2 138
2 139
2 140
2 141
2 142
2 143
2 144
2 145
2 146
2 147
2 148
2 149
2 150
2 151
2 152
2 153
2 154
2 155
2 156
2 157
2 158
2 159
2 160
2 161
2 162
2 163
2 164
2 165
2 167
2 168
2 169
2 170
2 171
2 172
2 173
2 174
2 175
2 177
2 178
2 179
2 180
2 181
2 182
2 183
2 184
2 185
2 186
2 187
2 188
2 189
2 190
2 191
2 192
2 193
2 194
2 195
2 196
2 197
2 198
2 199
2 200
2 201
2 202
2 205
2 206
2 208
2 209
2 210
2 211
2 212
2 213
2 214
2 215
2 217
2 218
2 219
2 220
2 221
2 222
2 224
2 226
2 227
2 228
2 229
2 230
2 231
2 233
2 234
2 235
2 236
2 237
2 239
2 240
2 242
2 243
2 244
2 245
2 246
2 247
2 249
2 250
2 251
2 252
2 253
2 254
2 258
2 259
2 260
2 261
2 262
2 263
2 264
2 265
2 266
2 267
2 268
2 269
2 270
2 272
2 273
2 274
2 275
2 276
2 277
2 278
2 279
2 280
2 282
2 283
2 284
2 285
2 286
2 287
2 288
2 289
2 290
2 291
2 292
2 293
2 294
2 295
2 296
2 297
2 298
2 299
2 300
2 301
2 302
2 303
2 304
2 305
2 306
2 307
2 308
2 309
2 310
2 311
2 312
2 313
2 314
2 315
2 316
2 317
2 318
2 319
2 320
2 321
2 322
2 323
2 324
2 325
2 326
2 327
2 328
2 329
2 330
2 331
2 332
2 333
2 334
2 335
2 336
2 337
2 338
2 339
2 340
2 341
2 342
2 343
2 344
2 345
2 346
2 347
2 348
2 349
2 350
2 351
2 352
2 353
2 354
2 355
2 356
2 357
2 358
2 359
2 360
2 361
2 362
2 363
2 364
2 365
2 366
2 367
2 368
2 369
2 370
2 371
2 372
2 373
2 374
2 375
2 376
2 377
2 378
2 379
2 380
2 381
2 382
2 383
2 384
2 385
2 386
2 387
2 388
2 389
2 390
2 391
2 392
2 393
2 394
2 395
2 396
2 397
2 398
2 399
2 400
2 401
2 402
2 403
2 404
2 405
2 406
2 407
2 408
2 409
2 410
2 411
2 412
2 413
2 414
2 415
2 416
2 417
2 418
2 419
2 421
2 422
2 423
2 424
2 425
2 426
2 427
2 428
2 429
2 430
2 431
2 432
2 433
2 434
2 436
2 437
2 440
2 441
2 442
2 443
2 444
2 446
2 448
2 449
2 451
2 452
2 453
2 454
2 456
2 457
2 458
2 459
2 460
2 462
2 463
2 465
2 466
2 467
2 468
2 469
2 470
2 472
2 473
2 474
2 475
2 477
2 478
2 479
2 480
2 481
2 482
2 484
2 486
2 487
2 488
2 489
2 490
2 491
2 492
2 493
2 494
2 496
2 498
2 499
2 500
2 501
2 502
2 503
2 504
2 505
2 506
2 507
2 508
2 509
2 510
2 512
2 514
2 515
2 516
2 517
2 519
2 520
2 521
2 524
2 525
2 526
2 527
2 528
2 529
2 531
2 535
2 537
2 538
2 539
2 540
2 541
2 542
2 543
2 544
2 546
2 548
2 549
2 551
2 554
2 555
2 561
2 562
2 564
2 565
2 566
2 568
2 569
2 570
2 572
2 573
2 574
2 575
2 576
2 577
2 579
2 580
2 581
2 586
2 587
2 588
2 591
2 593
3 0
3 1
3 2
3 3
3 4
3 5
3 6
3 7
3 8
3 9
3 10
3 11
3 16
3 17
3 18
3 19
3 20
3 21
3 22
3 23
3 24
3 25
3 27
3 28
3 29
3 30
3 31
3 32
3 33
3 34
3 35
3 36
3 37
3 38
3 39
3 41
3 42
3 43
3 44
3 45
3 48
3 50
3 51
3 52
3 53
3 54
3 55
3 56
3 57
3 58
3 59
3 60
3 61
3 62
3 63
3 65
3 66
3 68
3 69
3 70
3 71
3 72
3 73
3 74
3 75
3 76
3 77
3 78
3 79
3 80
3 81
3 85
3 86
3 87
3 88
3 89
3 90
3 91
3 92
3 93
3 94
3 95
3 96
3 97
3 101
3 102
3 103
3 104
3 105
3 106
3 107
3 108
3 109
3 110
3 111
3 114
3 115
3 118
3 119
3 120
3 121
3 122
3 123
3 125
3 127
3 128
3 129
3 131
3 132
3 133
3 134
3 135
3 136
3 138
3 139
3 140
3 142
3 143
3 144
3 145
3 148
3 149
3 150
3 151
3 152
3 153
3 154
3 155
3 156
3 157
3 158
3 159
3 160
3 162
3 163
3 164
3 165
3 166
3 167
3 168
3 169
3 170
3 171
3 172
3 173
3 174
3 175
3 176
3 177
3 178
3 179
3 180
3 181
3 183
3 185
3 187
3 188
3 189
3 191
3 193
3 194
3 195
3 196
3 197
3 198
3 199
3 200
3 201
3 202
3 205
3 206
3 209
3 210
3 211
3 213
3 214
3 215
3 217
3 218
3 219
3 220
3 221
3 222
3 223
3 224
3 226
3 227
3 228
3 229
3 231
3 232
3 233
3 234
3 236
3 237
3 240
3 241
3 243
3 244
3 245
3 246
3 247
3 248
3 249
3 250
3 251
3 252
3 253
3 256
3 257
3 259
3 260
3 261
3 263
3 264
3 265
3 266
3 267
3 268
3 269
3 270
3 272
3 274
3 275
3 276
3 277
3 278
3 279
3 280
3 284
3 286
3 287
3 289
3 290
3 291
3 292
3 294
3 295
3 296
3 297
3 298
3 299
3 300
3 301
3 302
3 303
3 305
3 306
3 307
3 308
3 309
3 310
3 311
3 312
3 313
3 314
3 315
3 316
3 317
3 318
3 319
3 320
3 322
3 323
3 324
3 325
3 326
3 329
3 330
3 331
3 333
3 334
3 335
3 337
3 339
3 340
3 341
3 342
3 343
3 345
3 347
3 348
3 349
3 350
3 351
3 352
3 353
3 354
3 357
3 358
3 360
3 361
3 362
3 363
3 364
3 365
3 366
3 367
3 368
3 369
3 370
3 371
3 372
3 373
3 377
3 378
3 379
3 380
3 383
3 384
3 385
3 386
3 387
3 388
3 389
3 390
3 391
3 392
3 393
3 394
3 395
3 396
3 397
3 398
3 399
3 400
3 401
3 402
3 403
3 404
3 405
3 406
3 407
3 408
3 409
3 410
3 411
3 412
3 413
3 414
3 415
3 416
3 417
3 418
3 419
3 420
3 421
3 422
3 423
3 424
3 425
3 426
3 427
3 428
3 429
3 430
3 431
3 432
3 433
3 434
3 435
3 436
3 437
3 438
3 439
3 440
3 441
3 442
3 443
3 444
3 445
3 447
3 448
3 449
3 451
3 452
3 453
3 454
3 455
3 456
3 457
3 458
3 459
3 460
3 462
3 463
3 465
3 467
3 468
3 469
3 470
3 471
3 472
3 473
3 474
3 475
3 477
3 478
3 480
3 481
3 482
3 484
3 486
3 487
3 490
3 491
3 492
3 493
3 494
3 495
3 496
3 498
3 500
3 501
3 502
3 503
3 504
3 505
3 506
3 507
3 508
3 509
3 510
3 511
3 513
3 514
3 515
3 517
3 518
3 519
3 520
3 521
3 522
3 523
3 525
3 526
3 527
3 528
3 529
3 530
3 531
3 532
3 533
3 534
3 535
3 536
3 537
3 538
3 539
3 540
3 541
3 543
3 544
3 546
3 549
3 554
3 562
3 564
3 571
3 572
3 573
3 574
3 575
3 576
3 577
3 579
3 583
3 586
3 588
3 592
4 0
4 1
4 2
4 3
4 4
4 5
4 6
4 7
4 8
4 9
4 10
4 11
4 12
4 14
4 16
4 18
4 19
4 20
4 21
4 22
4 25
4 27
4 28
4 29
4 30
4 32
4 33
4 34
4 35
4 36
4 37
4 39
4 40
4 41
4 42
4 44
4 45
4 47
4 48
4 50
4 51
4 52
4 53
4 54
4 55
4 57
4 58
4 59
4 60
4 61
4 62
4 65
4 66
4 68
4 69
4 70
4 71
4 73
4 74
4 75
4 77
4 78
4 79
4 80
4 81
4 82
4 84
4 86
4 88
4 89
4 90
4 92
4 93
4 94
4 95
4 96
4 101
4 102
4 103
4 104
4 105
4 106
4 107
4 108
4 109
4 111
4 112
4 113
4 114
4 115
4 118
4 119
4 120
4 125
4 126
4 127
4 128
4 129
4 130
4 131
4 132
4 133
4 134
4 135
4 136
4 138
4 139
4 140
4 141
4 142
4 143
4 144
4 145
4 146
4 147
4 148
4 149
4 150
4 151
4 152
4 153
4 154
4 155
4 157
4 158
4 160
4 161
4 162
4 163
4 164
4 165
4 167
4 168
4 169
4 171
4 173
4 174
4 175
4 177
4 178
4 179
4 181
4 182
4 183
4 185
4 187
4 188
4 189
4 191
4 192
4 193
4 194
4 195
4 196
4 197
4 199
4 200
4 201
4 202
4 205
4 206
4 209
4 213
4 214
4 215
4 218
4 219
4 220
4 221
4 222
4 224
4 226
4 227
4 228
4 229
4 230
4 231
4 232
4 233
4 234
4 235
4 236
4 240
4 241
4 242
4 243
4 244
4 245
4 246
4 247
4 248
4 249
4 250
4 251
4 252
4 253
4 256
4 258
4 259
4 260
4 261
4 263
4 264
4 266
4 267
4 268
4 270
4 272
4 273
4 274
4 275
4 276
4 277
4 278
4 279
4 280
4 283
4 285
4 286
4 288
4 289
4 291
4 292
4 294
4 295
4 296
4 298
4 299
4 301
4 303
4 305
4 306
4 307
4 308
4 309
4 310
4 311
4 312
4 313
4 314
4 315
4 316
4 317
4 318
4 320
4 321
4 322
4 323
4 324
4 325
4 326
4 327
4 329
4 330
4 331
4 333
4 334
4 335
4 338
4 339
4 340
4 342
4 343
4 344
4 348
4 349
4 350
4 351
4 352
4 353
4 354
4 357
4 358
4 360
4 361
4 362
4 363
4 365
4 366
4 368
4 369
4 370
4 371
4 372
4 373
4 375
4 376
4 378
4 380
4 381
4 382
4 383
4 384
4 386
4 387
4 389
4 390
4 391
4 393
4 394
4 395
4 396
4 398
4 399
4 400
4 401
4 402
4 403
4 404
4 405
4 406
4 407
4 409
4 410
4 411
4 413
4 414
4 416
4 417
4 418
4 419
4 420
4 421
4 422
4 423
4 429
4 430
4 431
4 432
4 433
4 434
4 439
4 440
4 442
4 444
4 445
4 446
4 447
4 448
4 449
4 450
4 451
4 452
4 453
4 454
4 456
4 457
4 458
4 459
4 460
4 461
4 462
4 463
4 464
4 465
4 466
4 467
4 468
4 469
4 470
4 471
4 473
4 474
4 475
4 476
4 477
4 478
4 479
4 480
4 481
4 482
4 483
4 484
4 485
4 486
4 487
4 488
4 489
4 490
4 491
4 492
4 493
4 494
4 495
4 496
4 498
4 499
4 500
4 501
4 502
4 503
4 504
4 505
4 506
4 507
4 509
4 510
4 513
4 514
4 515
4 516
4 517
4 518
4 519
4 520
4 521
4 522
4 523
4 525
4 526
4 527
4 528
4 529
4 530
4 532
4 533
4 534
4 535
4 536
4 537
4 538
4 539
4 540
4 541
4 543
4 554
4 565
4 572
4 576
4 580
4 581
4 587
4 591
4 592
4 593
5 0
5 1
5 2
5 3
5 4
5 5
5 6
5 7
5 8
5 9
5 10
5 11
5 13
5 14
5 15
5 19
5 20
5 21
5 22
5 23
5 25
5 27
5 29
5 30
5 33
5 34
5 35
5 36
5 37
5 39
5 41
5 42
5 43
5 46
5 47
5 48
5 50
5 51
5 52
5 54
5 55
5 56
5 59
5 61
5 62
5 65
5 66
5 68
5 69
5 70
5 72
5 73
5 74
5 77
5 78
5 79
5 80
5 85
5 86
5 87
5 92
5 93
5 94
5 101
5 103
5 104
5 105
5 107
5 109
5 110
5 112
5 114
5 117
5 118
5 120
5 125
5 126
5 127
5 128
5 130
5 132
5 140
5 141
5 144
5 146
5 147
5 148
5 150
5 152
5 153
5 154
5 155
5 156
5 158
5 160
5 161
5 162
5 163
5 164
5 165
5 169
5 173
5 175
5 178
5 181
5 183
5 185
5 189
5 193
5 195
5 197
5 199
5 200
5 202
5 206
5 209
5 210
5 212
5 214
5 217
5 218
5 219
5 221
5 222
5 224
5 227
5 229
5 232
5 233
5 234
5 237
5 240
5 242
5 243
5 244
5 245
5 246
5 247
5 250
5 251
5 260
5 261
5 265
5 266
5 272
5 277
5 279
5 280
5 285
5 286
5 288
5 289
5 292
5 296
5 298
5 299
5 300
5 301
5 303
5 305
5 306
5 307
5 308
5 309
5 311
5 313
5 315
5 316
5 317
5 318
5 320
5 324
5 330
5 334
5 335
5 337
5 339
5 340
5 343
5 345
5 348
5 351
5 353
5 355
5 356
5 357
5 358
5 362
5 367
5 368
5 369
5 371
5 372
5 373
5 376
5 378
5 380
5 381
5 383
5 384
5 387
5 389
5 394
5 395
5 396
5 401
5 403
5 406
5 407
5 409
5 410
5 412
5 413
5 414
5 416
5 417
5 418
5 419
5 420
5 421
5 422
5 423
5 429
5 430
5 432
5 433
5 434
5 437
5 440
5 441
5 442
5 445
5 448
5 451
5 452
5 454
5 457
5 459
5 460
5 462
5 464
5 466
5 467
5 470
5 471
5 476
5 478
5 486
5 488
5 489
5 490
5 492
5 493
5 494
5 495
5 496
5 499
5 500
5 501
5 502
5 503
5 507
5 509
5 510
5 511
5 512
5 513
5 514
5 515
5 516
5 517
5 518
5 519
5 520
5 521
5 522
5 523
5 524
5 528
5 529
5 530
5 533
5 537
5 538
5 539
5 540
5 541
5 542
5 543
5 561
5 571
5 572
5 583
5 592
6 0
6 1
6 2
6 3
6 4
6 5
6 6
6 7
6 8
6 9
6 10
6 11
6 12
6 14
6 17
6 18
6 21
6 23
6 25
6 29
6 30
6 32
6 34
6 36
6 39
6 44
6 48
6 50
6 51
6 52
6 53
6 54
6 55
6 56
6 57
6 60
6 61
6 62
6 65
6 66
6 68
6 69
6 70
6 71
6 72
6 74
6 76
6 77
6 78
6 79
6 81
6 87
6 89
6 92
6 93
6 94
6 96
6 99
6 101
6 103
6 104
6 106
6 107
6 108
6 109
6 110
6 112
6 114
6 118
6 123
6 125
6 126
6 127
6 128
6 129
6 130
6 131
6 132
6 135
6 138
6 139
6 142
6 147
6 148
6 151
6 153
6 157
6 160
6 161
6 162
6 164
6 165
6 169
6 172
6 175
6 178
6 181
6 182
6 183
6 185
6 187
6 188
6 191
6 192
6 193
6 194
6 195
6 197
6 199
6 200
6 202
6 206
6 209
6 210
6 211
6 214
6 215
6 221
6 222
6 224
6 227
6 230
6 231
6 232
6 233
6 234
6 235
6 236
6 241
6 242
6 243
6 244
6 245
6 246
6 247
6 248
6 249
6 251
6 259
6 260
6 261
6 266
6 267
6 268
6 270
6 272
6 277
6 278
6 279
6 284
6 285
6 286
6 288
6 289
6 290
6 292
6 294
6 296
6 298
6 299
6 300
6 303
6 304
6 306
6 307
6 308
6 309
6 310
6 311
6 313
6 314
6 315
6 316
6 317
6 318
6 319
6 320
6 322
6 323
6 324
6 325
6 326
6 328
6 330
6 335
6 339
6 343
6 348
6 351
6 352
6 353
6 357
6 361
6 362
6 364
6 367
6 368
6 371
6 373
6 375
6 378
6 380
6 381
6 384
6 390
6 393
6 394
6 395
6 398
6 399
6 402
6 403
6 408
6 409
6 410
6 411
6 412
6 413
6 414
6 416
6 417
6 418
6 419
6 420
6 423
6 426
6 428
6 433
6 434
6 437
6 438
6 439
6 445
6 447
6 448
6 452
6 454
6 459
6 462
6 464
6 470
6 473
6 476
6 477
6 478
6 479
6 480
6 483
6 484
6 486
6 487
6 490
6 491
6 492
6 493
6 499
6 501
6 502
6 506
6 507
6 509
6 510
6 511
6 517
6 519
6 520
6 521
6 522
6 523
6 525
6 526
6 527
6 528
6 529
6 530
6 531
6 532
6 533
6 534
6 535
6 536
6 537
6 539
6 540
6 541
6 543
6 544
6 562
6 581
6 592
7 1
7 2
7 3
7 4
7 5
7 6
7 8
7 9
7 10
7 11
7 12
7 19
7 21
7 23
7 25
7 29
7 33
7 34
7 35
7 36
7 37
7 39
7 40
7 41
7 42
7 43
7 44
7 48
7 50
7 51
7 52
7 54
7 55
7 57
7 61
7 62
7 65
7 66
7 68
7 69
7 70
7 71
7 73
7 77
7 78
7 79
7 80
7 81
7 85
7 86
7 90
7 92
7 93
7 94
7 95
7 96
7 102
7 103
7 104
7 105
7 108
7 109
7 110
7 111
7 114
7 115
7 116
7 117
7 118
7 120
7 125
7 127
7 130
7 133
7 134
7 135
7 136
7 139
7 149
7 150
7 152
7 153
7 154
7 155
7 157
7 158
7 160
7 161
7 162
7 164
7 165
7 167
7 169
7 175
7 178
7 179
7 181
7 182
7 183
7 185
7 190
7 193
7 194
7 197
7 199
7 200
7 201
7 202
7 205
7 209
7 214
7 215
7 217
7 220
7 221
7 224
7 227
7 229
7 233
7 234
7 236
7 242
7 243
7 244
7 245
7 246
7 247
7 251
7 252
7 253
7 256
7 260
7 263
7 272
7 273
7 274
7 275
7 279
7 289
7 291
7 292
7 293
7 294
7 300
7 303
7 305
7 306
7 307
7 308
7 311
7 313
7 314
7 315
7 316
7 320
7 326
7 329
7 330
7 331
7 334
7 335
7 337
7 338
7 340
7 341
7 343
7 349
7 352
7 354
7 356
7 360
7 362
7 366
7 367
7 370
7 371
7 372
7 373
7 384
7 387
7 389
7 390
7 394
7 396
7 399
7 404
7 409
7 410
7 412
7 413
7 414
7 415
7 418
7 419
7 421
7 422
7 423
7 425
7 426
7 428
7 431
7 432
7 439
7 445
7 448
7 449
7 451
7 453
7 454
7 456
7 457
7 474
7 476
7 477
7 478
7 486
7 501
7 503
7 507
7 509
7 517
7 518
7 519
7 521
7 522
7 527
7 528
7 530
7 531
7 533
7 534
7 535
7 538
7 540
7 543
7 548
7 572
7 575
7 592
8 0
8 1
8 2
8 3
8 4
8 5
8 6
8 7
8 8
8 9
8 17
8 19
8 23
8 25
8 27
8 29
8 33
8 35
8 39
8 42
8 48
8 50
8 54
8 61
8 62
8 65
8 68
8 70
8 71
8 77
8 78
8 84
8 85
8 92
8 93
8 103
8 109
8 112
8 113
8 114
8 115
8 117
8 120
8 125
8 130
8 131
8 132
8 135
8 139
8 140
8 142
8 144
8 146
8 148
8 151
8 154
8 162
8 164
8 168
8 174
8 175
8 178
8 179
8 180
8 183
8 185
8 194
8 196
8 197
8 200
8 202
8 205
8 209
8 211
8 214
8 217
8 221
8 224
8 227
8 230
8 233
8 234
8 242
8 244
8 246
8 260
8 268
8 272
8 277
8 288
8 290
8 293
8 303
8 305
8 307
8 308
8 310
8 312
8 313
8 315
8 316
8 319
8 320
8 321
8 322
8 325
8 328
8 330
8 335
8 340
8 343
8 351
8 354
8 368
8 370
8 378
8 379
8 380
8 384
8 390
8 402
8 403
8 405
8 413
8 414
8 418
8 419
8 422
8 423
8 426
8 431
8 433
8 443
8 448
8 455
8 459
8 462
8 471
8 472
8 478
8 484
8 487
8 501
8 503
8 511
8 512
8 518
8 519
8 521
8 522
8 525
8 530
8 535
8 536
8 538
8 540
8 576
9 0
9 1
9 2
9 3
9 4
9 5
9 6
9 7
9 8
9 9
9 10
9 11
9 12
9 17
9 19
9 21
9 23
9 25
9 27
9 28
9 33
9 34
9 39
9 43
9 44
9 48
9 50
9 51
9 52
9 61
9 65
9 68
9 69
9 71
9 77
9 78
9 79
9 80
9 88
9 92
9 93
9 94
9 95
9 96
9 97
9 101
9 104
9 109
9 110
9 115
9 128
9 132
9 142
9 145
9 146
9 148
9 149
9 156
9 157
9 158
9 160
9 161
9 162
9 165
9 168
9 174
9 175
9 178
9 181
9 183
9 185
9 195
9 196
9 197
9 199
9 200
9 202
9 206
9 208
9 214
9 217
9 218
9 219
9 222
9 224
9 229
9 242
9 243
9 245
9 247
9 250
9 251
9 253
9 256
9 260
9 262
9 267
9 277
9 285
9 291
9 292
9 295
9 303
9 305
9 307
9 311
9 313
9 315
9 316
9 320
9 323
9 326
9 330
9 339
9 342
9 346
9 348
9 349
9 351
9 360
9 368
9 378
9 380
9 381
9 409
9 412
9 413
9 417
9 418
9 419
9 420
9 426
9 429
9 433
9 434
9 437
9 448
9 450
9 457
9 458
9 459
9 462
9 467
9 477
9 478
9 484
9 486
9 491
9 509
9 511
9 518
9 519
9 520
9 521
9 522
9 530
9 531
9 533
9 535
9 537
9 538
9 539
9 540
9 541
9 542
9 543
9 544
9 572
9 592
10 0
10 1
10 2
10 3
10 4
10 5
10 6
10 7
10 9
10 10
10 19
10 31
10 34
10 35
10 39
10 41
10 50
10 51
10 61
10 62
10 68
10 69
10 70
10 73
10 77
10 78
10 79
10 80
10 90
10 92
10 96
10 108
10 118
10 128
10 132
10 137
10 138
10 148
10 156
10 161
10 162
10 164
10 165
10 178
10 191
10 196
10 200
10 210
10 214
10 243
10 247
10 248
10 253
10 259
10 263
10 267
10 277
10 278
10 292
10 303
10 308
10 316
10 323
10 326
10 330
10 339
10 349
10 350
10 368
10 381
10 384
10 389
10 393
10 406
10 409
10 410
10 411
10 417
10 419
10 420
10 421
10 426
10 428
10 434
10 437
10 439
10 441
10 448
10 460
10 477
10 484
10 486
10 491
10 501
10 503
10 509
10 521
10 528
10 530
10 533
10 534
10 535
10 539
10 541
10 543
10 544
10 577
11 0
11 1
11 2
11 3
11 4
11 5
11 6
11 7
11 9
11 16
11 23
11 41
11 42
11 43
11 50
11 51
11 54
11 55
11 61
11 62
11 65
11 68
11 69
11 71
11 73
11 77
11 79
11 81
11 92
11 94
11 101
11 107
11 108
11 110
11 120
11 128
11 129
11 131
11 148
11 164
11 178
11 195
11 197
11 209
11 214
11 220
11 242
11 245
11 253
11 263
11 264
11 277
11 292
11 296
11 308
11 313
11 316
11 326
11 339
11 362
11 367
11 368
11 371
11 378
11 380
11 384
11 386
11 393
11 396
11 399
11 409
11 410
11 411
11 412
11 413
11 417
11 419
11 420
11 426
11 428
11 433
11 434
11 439
11 448
11 452
11 454
11 459
11 470
11 475
11 476
11 477
11 478
11 484
11 486
11 490
11 507
11 510
11 519
11 527
11 530
11 535
11 544
11 571
11 592
12 1
12 4
12 6
12 7
12 9
12 25
12 93
12 161
12 209
12 227
12 242
12 245
12 251
12 299
12 306
12 315
12 316
12 320
12 339
12 350
12 378
12 380
12 410
12 417
12 456
12 462
12 519
12 520
12 522
12 528
12 529
13 1
13 2
13 5
13 50
13 51
13 61
13 62
13 65
13 68
13 70
13 84
13 93
13 120
13 125
13 139
13 140
13 162
13 164
13 178
13 209
13 214
13 227
13 244
13 246
13 312
13 324
13 330
13 403
13 414
13 448
13 455
13 471
13 472
13 524
14 0
14 1
14 2
14 4
14 5
14 6
14 27
14 42
14 68
14 77
14 88
14 92
14 93
14 94
14 127
14 147
14 152
14 156
14 171
14 173
14 181
14 187
14 189
14 193
14 197
14 222
14 236
14 245
14 291
14 351
14 384
14 404
14 417
14 433
14 445
14 462
14 486
14 509
14 520
14 542
14 577
15 5
15 50
15 51
15 61
15 78
15 84
15 93
15 112
15 118
15 120
15 139
15 143
15 162
15 164
15 178
15 181
15 209
15 211
15 214
15 227
15 234
15 303
15 307
15 313
15 324
15 330
15 403
15 410
15 442
15 447
15 448
15 455
15 465
15 466
15 468
15 469
15 471
15 472
15 497
15 508
16 1
16 3
16 4
16 11
16 29
16 33
16 36
16 41
16 43
16 48
16 52
16 55
16 61
16 68
16 73
16 85
16 94
16 102
16 117
16 125
16 132
16 139
16 146
16 152
16 155
16 162
16 169
16 178
16 214
16 222
16 234
16 272
16 371
16 373
16 394
16 396
16 399
16 410
16 457
16 501
16 515
16 517
16 530
16 540
17 2
17 3
17 6
17 8
17 9
17 39
17 54
17 62
17 77
17 92
17 94
17 101
17 131
17 132
17 161
17 197
17 241
17 242
17 267
17 292
17 296
17 304
17 306
17 326
17 343
17 368
17 386
17 396
17 411
17 418
17 426
17 428
17 454
17 457
17 459
17 470
17 480
17 484
17 493
17 503
17 526
17 527
17 530
17 533
17 534
17 537
17 592
18 1
18 2
18 3
18 4
18 6
18 30
18 50
18 51
18 54
18 61
18 65
18 78
18 104
18 120
18 122
18 128
18 151
18 153
18 163
18 164
18 178
18 181
18 188
18 195
18 200
18 202
18 218
18 224
18 260
18 266
18 286
18 291
18 296
18 303
18 307
18 356
18 357
18 359
18 362
18 448
18 464
18 499
19 3
19 4
19 5
19 7
19 8
19 9
19 10
19 27
19 50
19 54
19 65
19 68
19 77
19 92
19 93
19 132
19 147
19 161
19 178
19 197
19 222
19 227
19 241
19 242
19 243
19 245
19 247
19 251
19 253
19 267
19 303
19 316
19 330
19 358
19 368
19 384
19 412
19 413
19 420
19 431
19 434
19 457
19 459
19 467
19 480
19 486
19 491
19 518
19 519
19 537
19 540
20 0
20 1
20 2
20 3
20 4
20 5
20 35
20 48
20 51
20 57
20 61
20 62
20 65
20 66
20 70
20 77
20 78
20 84
20 120
20 149
20 162
20 174
20 175
20 177
20 195
20 197
20 199
20 202
20 215
20 250
20 262
20 287
20 294
20 305
20 307
20 331
20 390
20 423
20 442
20 455
20 464
20 577
21 0
21 1
21 2
21 3
21 4
21 5
21 6
21 7
21 9
21 27
21 33
21 36
21 42
21 50
21 68
21 92
21 93
21 127
21 132
21 147
21 178
21 179
21 181
21 189
21 193
21 194
21 209
21 222
21 224
21 227
21 229
21 236
21 251
21 256
21 267
21 289
21 291
21 303
21 307
21 315
21 351
21 358
21 367
21 384
21 389
21 394
21 404
21 406
21 431
21 433
21 445
21 457
21 478
21 491
21 509
21 518
21 520
22 0
22 1
22 2
22 3
22 4
22 5
22 35
22 48
22 50
22 61
22 65
22 68
22 69
22 70
22 77
22 78
22 84
22 93
22 113
22 118
22 139
22 143
22 160
22 164
22 165
22 175
22 178
22 181
22 211
22 214
22 221
22 227
22 228
22 285
22 307
22 313
22 330
22 358
22 389
22 410
22 448
22 469
22 471
22 505
22 572
23 1
23 2
23 3
23 5
23 6
23 7
23 8
23 9
23 11
23 29
23 34
23 41
23 43
23 50
23 54
23 62
23 69
23 70
23 73
23 74
23 92
23 94
23 102
23 107
23 110
23 132
23 152
23 155
23 165
23 178
23 181
23 185
23 197
23 200
23 202
23 210
23 219
23 243
23 251
23 258
23 263
23 268
23 272
23 285
23 291
23 303
23 315
23 325
23 339
23 368
23 371
23 387
23 394
23 401
23 411
23 413
23 417
23 418
23 456
23 478
23 501
23 509
23 530
24 0
24 1
24 2
24 3
24 32
24 35
24 36
24 48
24 52
24 56
24 61
24 63
24 65
24 66
24 69
24 71
24 106
24 109
24 114
24 115
24 116
24 128
24 136
24 142
24 149
24 154
24 169
24 175
24 177
24 178
24 190
24 197
24 199
24 200
24 213
24 214
24 218
24 224
24 234
24 290
24 360
24 363
24 364
24 402
24 474
24 572
24 581
25 0
25 1
25 2
25 3
25 4
25 5
25 6
25 7
25 8
25 9
25 12
25 33
25 41
25 50
25 65
25 68
25 69
25 70
25 93
25 95
25 110
25 146
25 152
25 161
25 178
25 181
25 209
25 245
25 251
25 277
25 291
25 303
25 306
25 316
25 339
25 350
25 351
25 368
25 378
25 419
25 420
25 431
25 441
25 445
25 454
25 456
25 460
25 462
25 467
25 476
25 477
25 478
25 509
25 522
25 528
25 529
25 535
25 537
25 541
26 0
26 1
26 2
26 70
26 218
27 0
27 1
27 2
27 3
27 4
27 5
27 8
27 9
27 14
27 19
27 21
27 50
27 61
27 62
27 68
27 77
27 78
27 92
27 147
27 219
27 220
27 245
27 251
27 272
27 277
27 292
27 323
27 330
27 362
27 365
27 367
27 369
27 413
27 431
27 433
27 458
27 486
27 513
27 518
27 538
27 550
27 592
28 0
28 1
28 2
28 3
28 4
28 9
28 62
28 65
28 113
28 178
28 183
28 206
28 224
28 241
28 296
28 305
28 307
28 350
28 384
28 410
28 467
29 0
29 1
29 2
29 3
29 4
29 5
29 6
29 7
29 8
29 16
29 23
29 69
29 107
29 155
29 165
29 175
29 178
29 183
29 194
29 202
29 234
29 235
29 261
29 270
29 325
29 339
29 361
29 381
29 406
29 413
29 435
29 440
29 485
29 583
30 0
30 1
30 2
30 3
30 4
30 5
30 6
30 18
30 32
30 35
30 48
30 50
30 51
30 52
30 54
30 57
30 61
30 62
30 65
30 66
30 78
30 81
30 100
30 104
30 114
30 120
30 122
30 128
30 151
30 153
30 163
30 164
30 169
30 178
30 181
30 183
30 188
30 191
30 192
30 195
30 199
30 200
30 202
30 214
30 215
30 224
30 230
30 234
30 244
30 260
30 262
30 266
30 286
30 289
30 290
30 291
30 296
30 300
30 303
30 307
30 331
30 340
30 356
30 357
30 359
30 360
30 362
30 364
30 405
30 442
30 448
30 464
30 499
30 506
30 553
31 0
31 1
31 2
31 3
31 10
31 34
31 35
31 43
31 48
31 50
31 51
31 52
31 53
31 56
31 59
31 61
31 62
31 63
31 65
31 66
31 68
31 69
31 70
31 71
31 76
31 78
31 80
31 81
31 89
31 96
31 118
31 128
31 137
31 138
31 141
31 145
31 157
31 159
31 162
31 164
31 169
31 175
31 178
31 181
31 183
31 185
31 186
31 197
31 199
31 200
31 201
31 208
31 213
31 214
31 218
31 224
31 234
31 257
31 261
31 265
31 278
31 284
31 300
31 307
31 330
31 331
31 341
31 384
31 402
31 421
31 436
31 474
31 498
31 572
31 588
32 0
32 1
32 2
32 3
32 4
32 6
32 24
32 30
32 34
32 35
32 43
32 48
32 50
32 51
32 52
32 56
32 61
32 62
32 63
32 65
32 66
32 68
32 69
32 70
32 71
32 78
32 81
32 90
32 96
32 97
32 109
32 115
32 116
32 118
32 128
32 138
32 144
32 150
32 151
32 157
32 158
32 159
32 160
32 162
32 164
32 169
32 174
32 175
32 178
32 181
32 183
32 190
32 192
32 197
32 199
32 200
32 202
32 213
32 214
32 215
32 224
32 229
32 230
32 244
32 254
32 259
32 260
32 275
32 284
32 296
32 305
32 313
32 320
32 331
32 337
32 340
32 341
32 363
32 389
32 396
32 402
32 423
32 426
32 466
32 498
32 570
32 572
32 586
33 0
33 1
33 2
33 3
33 4
33 5
33 7
33 8
33 9
33 16
33 21
33 25
33 50
33 94
33 132
33 147
33 155
33 156
33 178
33 214
33 219
33 232
33 245
33 291
33 369
33 373
33 378
33 380
33 384
33 396
33 417
33 434
33 456
33 509
33 554
34 0
34 1
34 2
34 3
34 4
34 5
34 6
34 7
34 9
34 10
34 23
34 31
34 32
34 36
34 50
34 62
34 65
34 70
34 75
34 84
34 164
34 168
34 210
34 236
34 273
34 275
34 276
34 285
34 293
34 306
34 308
34 338
34 340
34 344
34 423
34 470
34 487
34 512
34 513
34 554
34 567
34 573
35 0
35 1
35 2
35 3
35 4
35 5
35 7
35 8
35 10
35 20
35 22
35 24
35 30
35 31
35 32
35 50
35 62
35 69
35 71
35 74
35 78
35 138
35 156
35 162
35 175
35 183
35 202
35 234
35 247
35 251
35 254
35 259
35 280
35 289
35 293
35 303
35 305
35 308
35 321
35 353
35 381
35 406
35 413
35 416
35 438
35 460
35 479
35 494
35 496
35 546
35 564
36 0
36 1
36 2
36 3
36 4
36 5
36 6
36 7
36 16
36 21
36 24
36 34
36 48
36 52
36 58
36 61
36 62
36 63
36 65
36 69
36 71
36 105
36 106
36 126
36 164
36 176
36 181
36 185
36 197
36 209
36 214
36 237
36 246
36 284
36 303
36 316
36 352
36 374
36 375
36 421
36 482
36 485
36 506
36 554
36 566
36 575
36 588
37 0
37 1
37 2
37 3
37 4
37 5
37 7
37 48
37 61
37 62
37 65
37 70
37 174
37 263
37 443
38 0
38 1
38 3
38 61
38 66
38 438
39 0
39 1
39 2
39 3
39 4
39 5
39 6
39 7
39 8
39 9
39 10
39 17
39 51
39 65
39 66
39 68
39 69
39 77
39 80
39 85
39 93
39 101
39 103
39 117
39 120
39 125
39 130
39 131
39 139
39 161
39 165
39 175
39 177
39 178
39 211
39 214
39 220
39 221
39 231
39 234
39 244
39 246
39 247
39 264
39 277
39 292
39 300
39 303
39 316
39 339
39 348
39 415
39 423
39 433
39 438
39 448
39 454
39 462
39 480
39 491
39 512
39 519
39 521
39 535
39 543
40 0
40 1
40 2
40 4
40 7
40 51
40 57
40 61
40 164
40 202
40 209
40 214
40 273
40 289
40 291
40 306
40 324
40 351
40 387
40 479
40 482
40 575
41 0
41 1
41 2
41 3
41 4
41 5
41 7
41 10
41 11
41 16
41 23
41 25
41 61
41 62
41 317
41 378
41 430
41 433
41 492
41 571
42 0
42 1
42 2
42 3
42 4
42 5
42 7
42 8
42 11
42 14
42 21
42 50
42 70
42 77
42 92
42 102
42 107
42 118
42 124
42 178
42 189
42 214
42 234
42 243
42 251
42 422
42 433
42 494
42 501
43 0
43 1
43 2
43 3
43 5
43 7
43 9
43 11
43 16
43 23
43 31
43 32
43 106
43 128
43 162
43 174
43 190
43 209
43 286
43 572
43 585
44 0
44 1
44 2
44 3
44 4
44 6
44 7
44 9
45 0
45 1
45 2
45 3
45 4
45 51
45 70
45 162
45 175
45 183
45 185
45 198
45 208
45 210
45 213
45 300
46 0
46 1
46 2
46 5
46 185
47 0
47 1
47 4
47 5
47 183
48 0
48 1
48 2
48 3
48 4
48 5
48 6
48 7
48 8
48 9
48 16
48 20
48 22
48 24
48 30
48 31
48 32
48 36
48 37
48 48
48 50
48 51
48 56
48 61
48 62
48 63
48 65
48 66
48 68
48 69
48 70
48 71
48 72
48 75
48 76
48 78
48 90
48 91
48 100
48 106
48 121
48 122
48 162
48 166
48 169
48 174
48 175
48 177
48 181
48 183
48 184
48 185
48 187
48 190
48 199
48 202
48 206
48 209
48 214
48 226
48 247
48 253
48 269
48 288
48 292
48 296
48 301
48 302
48 308
48 314
48 327
48 331
48 334
48 348
48 378
48 413
48 448
48 482
48 487
48 494
48 506
48 545
48 546
48 554
48 564
48 565
48 566
48 567
48 568
48 569
48 572
48 576
48 585
49 0
50 0
50 1
50 2
50 3
50 4
50 5
50 6
50 7
50 8
50 9
50 10
50 11
50 13
50 15
50 18
50 19
50 21
50 22
50 23
50 25
50 27
50 30
50 31
50 32
50 33
50 34
50 35
50 42
50 48
50 50
50 51
50 52
50 54
50 58
50 61
50 62
50 65
50 66
50 68
50 70
50 71
50 72
50 74
50 77
50 78
50 80
50 84
50 85
50 89
50 93
50 94
50 96
50 101
50 106
50 117
50 119
50 121
50 122
50 126
50 131
50 140
50 155
50 160
50 162
50 164
50 170
50 171
50 175
50 177
50 178
50 179
50 181
50 183
50 185
50 194
50 197
50 199
50 201
50 202
50 208
50 209
50 214
50 215
50 221
50 224
50 226
50 229
50 232
50 233
50 234
50 240
50 245
50 246
50 250
50 251
50 256
50 257
50 259
50 270
50 278
50 279
50 285
50 287
50 290
50 292
50 293
50 296
50 298
50 303
50 306
50 307
50 308
50 311
50 314
50 316
50 319
50 322
50 330
50 344
50 349
50 357
50 360
50 361
50 364
50 367
50 368
50 373
50 378
50 380
50 387
50 399
50 410
50 413
50 415
50 417
50 418
50 419
50 420
50 421
50 423
50 433
50 434
50 442
50 448
50 454
50 471
50 475
50 479
50 485
50 486
50 491
50 494
50 496
50 506
50 509
50 510
50 521
50 526
50 528
50 534
50 536
50 542
50 543
50 547
50 548
50 549
50 550
50 551
50 552
50 553
50 554
50 564
50 567
50 572
50 573
50 575
50 583
50 586
50 590
51 0
51 1
51 2
51 3
51 4
51 5
51 6
51 7
51 9
51 10
51 11
51 13
51 15
51 18
51 20
51 30
51 31
51 32
51 39
51 40
51 45
51 48
51 50
51 51
51 52
51 54
51 57
51 61
51 62
51 63
51 65
51 66
51 68
51 69
51 70
51 71
51 74
51 77
51 78
51 81
51 108
51 117
51 126
51 135
51 138
51 145
51 155
51 162
51 164
51 169
51 175
51 178
51 179
51 181
51 185
51 192
51 197
51 198
51 199
51 201
51 202
51 209
51 210
51 213
51 214
51 220
51 224
51 229
51 234
51 240
51 246
51 250
51 262
51 263
51 269
51 272
51 277
51 286
51 289
51 291
51 292
51 303
51 307
51 308
51 313
51 316
51 317
51 322
51 336
51 350
51 353
51 364
51 372
51 375
51 377
51 384
51 416
51 421
51 429
51 438
51 448
51 454
51 456
51 485
51 500
51 506
51 535
51 546
51 553
51 561
51 563
51 564
51 572
51 575
51 588
52 0
52 1
52 2
52 3
52 4
52 5
52 6
52 7
52 9
52 16
52 24
52 30
52 31
52 32
52 36
52 50
52 51
52 56
52 62
52 63
52 65
52 66
52 68
52 69
52 72
52 77
52 78
52 81
52 82
52 96
52 97
52 106
52 116
52 119
52 125
52 128
52 136
52 145
52 154
52 155
52 162
52 164
52 169
52 171
52 175
52 178
52 181
52 183
52 184
52 185
52 191
52 202
52 209
52 214
52 243
52 244
52 280
52 291
52 307
52 314
52 316
52 322
52 337
52 364
52 373
52 404
52 438
52 549
52 551
52 554
52 556
52 563
52 565
52 566
52 567
52 568
52 569
52 572
52 576
52 592
53 0
53 1
53 2
53 3
53 4
53 6
53 31
53 63
53 66
53 68
53 71
53 80
53 81
53 103
53 185
53 210
53 215
53 226
53 234
53 278
53 314
54 0
54 1
54 2
54 3
54 4
54 5
54 6
54 7
54 8
54 11
54 17
54 18
54 19
54 23
54 30
54 50
54 51
54 61
54 62
54 65
54 92
54 101
54 102
54 107
54 144
54 155
54 160
54 161
54 165
54 181
54 197
54 227
54 251
54 267
54 291
54 293
54 296
54 303
54 313
54 325
54 326
54 343
54 353
54 368
54 378
54 380
54 396
54 410
54 411
54 438
54 448
54 454
54 459
54 477
54 506
54 507
54 521
54 526
54 527
54 534
54 537
54 540
54 571
54 572
55 0
55 1
55 2
55 3
55 4
55 5
55 6
55 7
55 11
55 16
55 61
55 78
55 81
55 111
55 162
55 209
55 227
55 234
55 245
55 263
55 272
55 274
55 308
55 322
55 329
55 348
55 358
55 371
55 394
55 409
55 415
55 441
55 456
55 543
55 571
55 572
56 0
56 1
56 2
56 3
56 5
56 6
56 24
56 31
56 32
56 48
56 52
56 70
56 78
56 106
56 119
56 175
56 197
56 208
56 210
56 234
56 266
56 330
56 551
56 567
57 0
57 1
57 2
57 3
57 4
57 6
57 7
57 20
57 30
57 40
57 51
57 61
57 70
57 174
57 209
57 212
57 236
57 254
57 259
57 273
57 305
57 324
57 375
57 389
57 565
58 0
58 1
58 2
58 3
58 4
58 36
58 50
58 61
58 66
58 71
58 77
58 81
58 114
58 133
58 135
58 182
58 185
58 215
58 234
58 272
58 448
58 449
59 0
59 1
59 2
59 3
59 4
59 5
59 31
59 65
59 162
59 174
59 197
59 224
59 261
59 265
59 316
59 340
59 348
59 588
60 0
60 2
60 3
60 4
60 6
60 61
60 62
61 0
61 1
61 2
61 3
61 4
61 5
61 6
61 7
61 8
61 9
61 10
61 11
61 13
61 15
61 16
61 18
61 20
61 22
61 24
61 27
61 30
61 31
61 32
61 36
61 37
61 38
61 40
61 41
61 48
61 50
61 51
61 54
61 55
61 57
61 58
61 60
61 61
61 62
61 63
61 65
61 66
61 68
61 69
61 70
61 71
61 72
61 74
61 77
61 78
61 81
61 82
61 84
61 89
61 91
61 93
61 102
61 104
61 106
61 113
61 118
61 119
61 120
61 121
61 125
61 130
61 131
61 134
61 138
61 142
61 147
61 151
61 162
61 164
61 166
61 169
61 174
61 175
61 176
61 178
61 181
61 183
61 188
61 190
61 191
61 192
61 196
61 197
61 200
61 202
61 209
61 211
61 213
61 214
61 215
61 218
61 219
61 220
61 222
61 223
61 224
61 226
61 227
61 228
61 232
61 234
61 237
61 240
61 246
61 247
61 249
61 250
61 251
61 263
61 266
61 269
61 272
61 278
61 280
61 283
61 284
61 285
61 287
61 289
61 290
61 291
61 292
61 295
61 298
61 299
61 300
61 303
61 306
61 307
61 308
61 311
61 314
61 316
61 318
61 320
61 322
61 324
61 327
61 338
61 344
61 349
61 353
61 357
61 358
61 361
61 364
61 370
61 374
61 378
61 383
61 384
61 390
61 396
61 409
61 413
61 416
61 423
61 430
61 438
61 442
61 456
61 457
61 470
61 471
61 474
61 477
61 479
61 480
61 482
61 485
61 491
61 494
61 495
61 496
61 498
61 500
61 501
61 506
61 522
61 535
61 539
61 545
61 549
61 551
61 552
61 553
61 554
61 557
61 559
61 560
61 565
61 566
61 567
61 568
61 571
61 572
61 573
61 581
62 0
62 1
62 2
62 3
62 4
62 5
62 6
62 7
62 8
62 10
62 11
62 13
62 17
62 20
62 23
62 27
62 28
62 30
62 31
62 32
62 34
62 35
62 36
62 37
62 41
62 48
62 50
62 51
62 52
62 54
62 60
62 61
62 62
62 63
62 65
62 66
62 68
62 69
62 70
62 71
62 72
62 77
62 78
62 80
62 82
62 85
62 90
62 92
62 94
62 104
62 106
62 108
62 115
62 117
62 118
62 121
62 126
62 128
62 131
62 138
62 151
62 155
62 162
62 164
62 168
62 169
62 172
62 175
62 177
62 178
62 181
62 183
62 186
62 188
62 190
62 197
62 202
62 209
62 214
62 215
62 224
62 226
62 234
62 237
62 240
62 246
62 251
62 253
62 266
62 269
62 272
62 279
62 285
62 287
62 292
62 294
62 295
62 298
62 299
62 300
62 306
62 307
62 308
62 311
62 324
62 329
62 331
62 347
62 381
62 382
62 384
62 415
62 421
62 448
62 468
62 481
62 485
62 538
62 553
62 555
62 556
62 557
62 560
62 563
62 564
62 566
62 568
62 569
62 572
62 573
62 579
62 584
63 0
63 1
63 2
63 3
63 24
63 31
63 32
63 36
63 48
63 51
63 52
63 53
63 61
63 62
63 65
63 66
63 80
63 81
63 82
63 138
63 162
63 175
63 183
63 201
63 212
63 237
63 303
63 321
63 375
63 427
63 565
63 572
64 0
65 0
65 1
65 2
65 3
65 4
65 5
65 6
65 7
65 8
65 9
65 11
65 13
65 18
65 19
65 20
65 22
65 24
65 25
65 28
65 30
65 31
65 32
65 34
65 36
65 37
65 39
65 48
65 50
65 51
65 52
65 54
65 59
65 61
65 62
65 63
65 65
65 66
65 68
65 69
65 70
65 71
65 73
65 76
65 78
65 79
65 80
65 81
65 103
65 105
65 106
65 112
65 113
65 117
65 118
65 122
65 125
65 135
65 136
65 138
65 145
65 146
65 162
65 164
65 169
65 171
65 174
65 175
65 181
65 183
65 186
65 188
65 190
65 196
65 199
65 202
65 213
65 214
65 215
65 218
65 224
65 227
65 228
65 229
65 234
65 245
65 246
65 251
65 255
65 265
65 266
65 269
65 283
65 285
65 289
65 291
65 299
65 300
65 303
65 314
65 319
65 353
65 364
65 378
65 389
65 394
65 414
65 417
65 430
65 449
65 454
65 459
65 485
65 489
65 506
65 512
65 514
65 516
65 521
65 524
65 538
65 539
65 545
65 553
65 554
65 556
65 558
65 559
65 560
65 561
65 562
65 563
65 564
65 565
65 566
65 567
65 568
65 569
65 570
65 572
65 573
65 581
65 584
66 0
66 1
66 2
66 3
66 4
66 5
66 6
66 7
66 20
66 24
66 30
66 31
66 32
66 38
66 39
66 48
66 50
66 51
66 52
66 53
66 58
66 61
66 62
66 63
66 65
66 66
66 68
66 81
66 85
66 98
66 106
66 128
66 162
66 178
66 181
66 190
66 191
66 199
66 209
66 210
66 213
66 224
66 269
66 306
66 307
66 314
66 364
66 387
66 409
66 415
66 516
66 554
66 557
66 560
66 565
66 567
66 569
66 572
66 588
67 0
68 0
68 1
68 2
68 3
68 4
68 5
68 6
68 7
68 8
68 9
68 10
68 11
68 13
68 14
68 16
68 19
68 21
68 22
68 25
68 27
68 31
68 32
68 39
68 48
68 50
68 51
68 52
68 53
68 61
68 62
68 65
68 66
68 69
68 70
68 78
68 79
68 89
68 92
68 94
68 104
68 106
68 107
68 120
68 122
68 125
68 126
68 147
68 148
68 160
68 162
68 164
68 169
68 174
68 178
68 181
68 183
68 185
68 189
68 190
68 208
68 209
68 214
68 220
68 224
68 227
68 228
68 234
68 241
68 251
68 256
68 273
68 280
68 285
68 291
68 294
68 300
68 302
68 303
68 307
68 308
68 311
68 312
68 313
68 314
68 316
68 317
68 318
68 322
68 323
68 324
68 330
68 338
68 349
68 353
68 355
68 361
68 362
68 365
68 367
68 369
68 371
68 378
68 380
68 387
68 403
68 405
68 409
68 411
68 419
68 423
68 430
68 433
68 438
68 445
68 447
68 448
68 456
68 459
68 461
68 463
68 467
68 477
68 485
68 489
68 491
68 494
68 495
68 496
68 500
68 503
68 505
68 509
68 510
68 518
68 519
68 520
68 521
68 550
68 552
68 553
68 554
68 561
68 565
68 566
68 568
68 571
68 572
68 592
69 0
69 1
69 2
69 3
69 4
69 5
69 6
69 7
69 9
69 10
69 11
69 22
69 23
69 24
69 25
69 29
69 31
69 32
69 35
69 36
69 39
69 48
69 51
69 52
69 61
69 62
69 65
69 68
69 69
69 70
69 71
69 81
69 92
69 97
69 107
69 108
69 117
69 119
69 127
69 130
69 131
69 135
69 137
69 138
69 141
69 145
69 159
69 161
69 162
69 164
69 169
69 171
69 175
69 177
69 178
69 181
69 185
69 188
69 197
69 198
69 199
69 201
69 202
69 209
69 214
69 215
69 220
69 234
69 246
69 247
69 256
69 269
69 270
69 272
69 280
69 284
69 285
69 290
69 291
69 292
69 296
69 300
69 317
69 319
69 320
69 322
69 330
69 337
69 341
69 351
69 352
69 354
69 358
69 362
69 364
69 367
69 372
69 381
69 384
69 410
69 411
69 413
69 418
69 435
69 436
69 448
69 459
69 473
69 494
69 495
69 496
69 512
69 522
69 533
69 549
69 551
69 557
69 565
69 572
69 573
69 575
70 0
70 1
70 2
70 3
70 4
70 5
70 6
70 7
70 8
70 10
70 13
70 20
70 22
70 23
70 25
70 26
70 31
70 32
70 34
70 37
70 42
70 45
70 48
70 50
70 51
70 56
70 57
70 61
70 62
70 65
70 68
70 69
70 71
70 77
70 82
70 97
70 106
70 107
70 135
70 138
70 162
70 167
70 169
70 170
70 175
70 178
70 181
70 185
70 197
70 199
70 200
70 202
70 208
70 214
70 224
70 234
70 240
70 250
70 274
70 284
70 285
70 305
70 307
70 313
70 330
70 339
70 354
70 364
70 375
70 379
70 436
70 438
70 448
70 449
70 482
70 487
70 517
70 551
70 554
70 557
70 561
70 566
70 568
70 572
71 0
71 1
71 2
71 3
71 4
71 6
71 7
71 8
71 9
71 11
71 24
71 31
71 32
71 35
71 36
71 48
71 50
71 51
71 53
71 58
71 61
71 62
71 65
71 69
71 70
71 78
71 96
71 106
71 128
71 131
71 169
71 174
71 175
71 234
71 251
71 269
71 274
71 298
71 303
71 307
71 308
71 364
71 514
71 554
71 563
71 565
71 566
71 567
71 568
71 572
72 0
72 1
72 2
72 3
72 5
72 6
72 48
72 50
72 52
72 61
72 62
72 82
72 237
72 375
72 389
72 403
72 557
73 0
73 1
73 2
73 3
73 4
73 5
73 7
73 10
73 11
73 16
73 23
73 65
73 92
73 102
73 245
73 250
73 264
73 303
73 378
73 380
73 409
73 413
73 456
73 459
73 460
73 507
73 571
74 0
74 1
74 2
74 3
74 4
74 5
74 6
74 23
74 35
74 50
74 51
74 61
74 165
74 202
74 214
74 243
74 251
74 270
74 308
74 403
74 406
74 408
74 410
74 413
74 416
74 418
74 440
74 444
74 479
74 485
74 490
74 510
75 0
75 1
75 2
75 3
75 4
75 34
75 48
75 487
76 0
76 1
76 2
76 3
76 6
76 31
76 48
76 65
76 181
77 0
77 1
77 2
77 3
77 4
77 5
77 6
77 7
77 8
77 9
77 10
77 11
77 14
77 17
77 19
77 20
77 22
77 27
77 39
77 42
77 50
77 51
77 52
77 58
77 61
77 62
77 70
77 77
77 78
77 81
77 86
77 92
77 93
77 94
77 95
77 101
77 113
77 119
77 146
77 156
77 162
77 189
77 193
77 195
77 199
77 209
77 214
77 220
77 223
77 227
77 241
77 247
77 251
77 261
77 263
77 272
77 277
77 280
77 307
77 308
77 313
77 324
77 326
77 330
77 348
77 350
77 358
77 368
77 394
77 398
77 400
77 420
77 433
77 442
77 449
77 456
77 463
77 470
77 477
77 478
77 494
77 495
77 496
77 513
77 519
77 521
77 536
77 547
77 550
77 590
78 0
78 1
78 2
78 3
78 4
78 5
78 6
78 7
78 8
78 9
78 10
78 15
78 18
78 20
78 22
78 27
78 30
78 31
78 32
78 35
78 48
78 50
78 51
78 52
78 55
78 56
78 61
78 62
78 65
78 68
78 71
78 77
78 78
78 84
78 92
78 104
78 108
78 112
78 119
78 120
78 131
78 133
78 138
78 140
78 146
78 147
78 162
78 164
78 178
78 188
78 195
78 197
78 199
78 208
78 209
78 229
78 234
78 247
78 251
78 259
78 266
78 267
78 272
78 280
78 292
78 297
78 306
78 323
78 329
78 348
78 368
78 417
78 431
78 442
78 448
78 449
78 480
78 486
78 494
78 496
78 506
78 538
78 550
78 572
79 0
79 1
79 2
79 3
79 4
79 5
79 6
79 7
79 9
79 10
79 11
79 65
79 68
79 111
79 117
79 120
79 128
79 139
79 183
79 191
79 209
79 219
79 272
79 292
79 352
79 384
79 393
79 413
79 448
79 449
79 481
79 524
79 561
79 565
80 0
80 1
80 2
80 3
80 4
80 5
80 7
80 9
80 10
80 31
80 39
80 50
80 53
80 62
80 63
80 65
80 86
80 125
80 133
80 140
80 148
80 181
80 224
80 227
80 278
80 307
80 330
80 339
80 350
80 369
80 396
80 404
80 405
80 421
80 448
80 509
81 0
81 1
81 2
81 3
81 4
81 6
81 7
81 11
81 30
81 31
81 32
81 51
81 52
81 53
81 55
81 58
81 61
81 63
81 65
81 66
81 69
81 77
81 97
81 111
81 126
81 175
81 198
81 199
81 208
81 209
81 218
81 224
81 261
81 272
81 274
81 352
81 449
81 549
81 554
81 566
82 0
82 1
82 2
82 4
82 52
82 61
82 62
82 63
82 70
82 72
82 95
82 121
82 169
82 202
82 218
82 234
82 247
82 314
82 565
83 0
84 0
84 1
84 2
84 4
84 8
84 13
84 15
84 20
84 22
84 34
84 50
84 61
84 78
84 93
84 120
84 139
84 234
84 280
84 379
84 410
84 442
84 448
84 465
84 466
84 469
84 472
84 494
84 495
84 496
84 497
84 590
85 0
85 1
85 2
85 3
85 5
85 7
85 8
85 16
85 39
85 50
85 62
85 66
85 103
85 117
85 125
85 130
85 139
85 165
85 209
85 211
85 221
85 233
85 244
85 246
85 272
85 335
85 405
85 414
85 423
85 455
85 512
86 0
86 1
86 2
86 3
86 4
86 5
86 7
86 77
86 80
86 127
86 156
86 173
86 193
86 219
86 243
86 251
86 292
86 342
86 396
86 406
86 432
86 458
86 486
86 513
86 544
87 0
87 1
87 2
87 3
87 5
87 6
87 102
87 165
87 219
87 249
87 270
87 361
87 410
87 413
87 418
87 456
87 513
88 0
88 1
88 2
88 3
88 4
88 9
88 14
88 381
88 553
89 0
89 1
89 2
89 3
89 4
89 6
89 31
89 50
89 61
89 68
89 162
89 206
89 236
89 246
89 316
89 568
90 0
90 1
90 2
90 3
90 4
90 7
90 10
90 32
90 48
90 62
90 106
90 138
90 546
90 565
90 566
90 568
91 0
91 1
91 2
91 3
91 48
91 61
91 183
91 583
92 0
92 1
92 2
92 3
92 4
92 5
92 6
92 7
92 8
92 9
92 10
92 11
92 14
92 17
92 19
92 21
92 23
92 27
92 42
92 54
92 62
92 68
92 69
92 73
92 77
92 78
92 101
92 102
92 128
92 147
92 156
92 161
92 164
92 178
92 196
92 209
92 214
92 227
92 243
92 245
92 251
92 252
92 263
92 267
92 272
92 277
92 313
92 323
92 342
92 349
92 368
92 370
92 413
92 417
92 418
92 419
92 420
92 429
92 431
92 433
92 434
92 451
92 458
92 486
92 493
92 509
92 510
92 521
92 550
93 0
93 1
93 2
93 3
93 4
93 5
93 6
93 7
93 8
93 9
93 12
93 13
93 14
93 15
93 19
93 21
93 22
93 25
93 39
93 50
93 61
93 77
93 84
93 95
93 178
93 209
93 224
93 251
93 280
93 367
93 378
93 384
93 394
93 403
93 417
93 448
93 470
93 477
93 495
93 496
93 505
93 521
93 536
93 564
94 0
94 1
94 2
94 3
94 4
94 5
94 6
94 7
94 9
94 11
94 14
94 16
94 17
94 23
94 33
94 50
94 62
94 68
94 77
94 101
94 155
94 193
94 200
94 221
94 229
94 243
94 245
94 251
94 369
94 373
94 394
94 399
94 411
94 478
94 484
94 503
94 510
94 517
94 561
95 0
95 1
95 2
95 3
95 4
95 7
95 9
95 25
95 77
95 82
95 93
95 111
95 178
95 218
95 245
95 305
95 322
95 448
95 449
95 470
95 480
95 521
96 0
96 1
96 2
96 3
96 4
96 6
96 7
96 9
96 10
96 31
96 32
96 50
96 52
96 71
96 118
96 130
96 138
96 162
96 178
96 199
96 218
96 278
96 285
96 349
96 382
96 384
96 409
96 564
97 0
97 1
97 2
97 3
97 9
97 32
97 52
97 69
97 70
97 81
97 175
97 224
97 390
97 569
98 0
98 1
98 2
98 66
99 0
99 1
99 2
99 6
100 0
100 30
100 48
101 0
101 1
101 2
101 3
101 4
101 5
101 6
101 9
101 11
101 17
101 39
101 50
101 54
101 77
101 92
101 94
101 131
101 161
101 162
101 197
101 229
101 241
101 243
101 251
101 292
101 296
101 396
101 409
101 451
101 454
101 462
101 477
101 480
101 484
101 526
101 534
101 536
101 537
102 0
102 1
102 2
102 3
102 4
102 7
102 16
102 23
102 42
102 54
102 61
102 73
102 87
102 92
102 107
102 155
102 197
102 243
102 249
102 308
102 325
102 394
102 403
102 405
102 406
102 410
102 418
102 485
103 0
103 1
103 2
103 3
103 4
103 5
103 6
103 7
103 8
103 39
103 53
103 65
103 85
103 125
103 130
103 134
103 178
103 246
103 335
103 345
103 353
103 354
103 414
103 415
103 423
103 512
103 564
103 565
104 0
104 1
104 2
104 3
104 4
104 5
104 6
104 7
104 9
104 18
104 30
104 61
104 62
104 68
104 78
104 120
104 126
104 138
104 188
104 191
104 195
104 266
104 296
104 303
104 442
104 464
104 506
105 0
105 1
105 3
105 4
105 5
105 7
105 36
105 65
105 181
105 253
105 356
105 375
105 546
106 0
106 1
106 2
106 3
106 4
106 6
106 24
106 36
106 43
106 48
106 50
106 52
106 56
106 61
106 62
106 65
106 66
106 68
106 70
106 71
106 90
106 178
106 181
106 190
106 214
106 224
106 229
106 261
106 275
106 282
106 290
106 296
106 297
106 313
106 354
106 377
106 402
106 410
106 466
106 572
107 0
107 1
107 2
107 3
107 4
107 5
107 6
107 11
107 23
107 29
107 42
107 54
107 68
107 69
107 70
107 102
107 155
107 162
107 164
107 165
107 185
107 188
107 197
107 222
107 227
107 234
107 249
107 251
107 268
107 308
107 325
107 357
107 413
107 485
107 517
108 0
108 1
108 2
108 3
108 4
108 6
108 7
108 10
108 11
108 51
108 62
108 69
108 78
108 129
108 131
108 138
108 164
108 214
108 219
108 220
108 231
108 362
108 365
108 367
108 381
108 396
108 417
108 439
108 592
109 0
109 1
109 2
109 3
109 4
109 5
109 6
109 7
109 8
109 9
109 24
109 32
109 142
109 364
110 0
110 1
110 2
110 3
110 5
110 6
110 7
110 9
110 11
110 23
110 25
110 146
110 227
110 251
110 378
110 380
110 411
110 412
110 418
110 433
110 459
110 503
110 507
110 571
111 0
111 1
111 2
111 3
111 4
111 7
111 55
111 79
111 81
111 95
111 133
111 167
111 197
111 214
111 227
111 263
111 272
111 274
111 308
111 329
111 350
111 448
111 449
111 481
112 0
112 1
112 2
112 4
112 5
112 6
112 8
112 15
112 65
112 78
112 113
112 126
112 134
112 162
112 200
112 211
112 243
112 251
112 379
112 403
112 569
112 580
113 0
113 1
113 2
113 4
113 8
113 22
113 28
113 61
113 65
113 77
113 112
113 181
113 196
113 280
113 298
113 403
113 494
113 495
113 496
114 0
114 1
114 2
114 3
114 4
114 5
114 6
114 7
114 8
114 24
114 30
114 58
114 175
114 190
114 209
114 246
114 269
114 303
114 316
114 358
114 364
114 370
114 403
114 549
114 566
114 568
115 0
115 1
115 2
115 3
115 4
115 7
115 8
115 9
115 24
115 32
115 62
115 162
115 364
116 0
116 1
116 2
116 7
116 24
116 32
116 52
116 126
116 236
116 375
117 0
117 1
117 2
117 5
117 7
117 8
117 16
117 39
117 50
117 51
117 62
117 65
117 69
117 79
117 85
117 221
117 233
117 244
117 246
117 272
117 335
117 353
117 413
117 512
117 564
117 583
118 0
118 1
118 2
118 3
118 4
118 5
118 6
118 7
118 10
118 15
118 22
118 31
118 32
118 42
118 61
118 62
118 65
118 96
118 138
118 164
118 165
118 183
118 200
118 214
118 251
118 278
118 280
118 294
118 364
118 402
118 403
118 418
118 479
118 494
118 495
118 496
118 505
119 0
119 1
119 3
119 4
119 50
119 52
119 56
119 61
119 69
119 77
119 78
119 175
119 305
119 314
119 406
119 572
120 0
120 1
120 2
120 3
120 4
120 5
120 7
120 8
120 11
120 13
120 15
120 18
120 20
120 30
120 39
120 61
120 68
120 78
120 79
120 84
120 104
120 140
120 162
120 178
120 181
120 188
120 195
120 227
120 241
120 266
120 379
120 409
120 442
120 464
120 506
120 533
120 561
120 569
121 0
121 1
121 2
121 3
121 48
121 50
121 61
121 62
121 82
121 175
121 209
121 306
121 551
122 0
122 1
122 3
122 18
122 30
122 48
122 50
122 65
122 68
122 506
122 559
122 572
123 0
123 1
123 2
123 3
123 6
123 444
124 0
124 1
124 2
124 42
125 0
125 1
125 2
125 3
125 4
125 5
125 6
125 7
125 8
125 13
125 16
125 39
125 52
125 61
125 65
125 68
125 80
125 85
125 103
125 130
125 139
125 165
125 175
125 211
125 214
125 221
125 233
125 246
125 299
125 335
125 372
125 375
125 415
125 512
125 561
126 0
126 1
126 2
126 4
126 5
126 6
126 36
126 50
126 51
126 62
126 68
126 81
126 104
126 112
126 116
126 140
126 144
126 153
126 162
126 183
126 200
126 201
126 240
126 290
126 306
126 308
126 358
126 375
126 413
126 448
126 573
126 576
127 0
127 1
127 2
127 3
127 4
127 5
127 6
127 7
127 14
127 21
127 69
127 86
127 227
127 232
127 256
127 384
127 417
127 457
127 458
127 486
127 520
128 0
128 1
128 2
128 3
128 4
128 5
128 6
128 9
128 10
128 11
128 18
128 24
128 30
128 31
128 32
128 43
128 52
128 62
128 66
128 71
128 79
128 92
128 151
128 185
128 247
128 364
128 433
128 506
128 569
129 0
129 1
129 2
129 3
129 4
129 6
129 11
129 108
129 308
129 553
129 585
130 0
130 1
130 2
130 4
130 5
130 6
130 7
130 8
130 39
130 61
130 69
130 85
130 96
130 103
130 125
130 214
130 221
130 233
130 234
130 244
130 246
130 272
130 335
130 414
130 415
130 423
130 512
130 583
131 0
131 1
131 2
131 3
131 4
131 6
131 8
131 11
131 17
131 39
131 50
131 61
131 62
131 69
131 71
131 78
131 101
131 108
131 131
131 135
131 156
131 161
131 164
131 193
131 214
131 219
131 241
131 245
131 306
131 308
131 322
131 384
131 398
131 411
131 428
131 433
131 470
131 480
132 0
132 1
132 2
132 3
132 4
132 5
132 6
132 8
132 9
132 10
132 16
132 17
132 19
132 21
132 23
132 33
132 178
132 179
132 209
132 214
132 229
132 251
132 256
132 267
132 313
132 362
132 367
132 384
132 411
132 413
132 418
132 433
132 518
132 521
133 0
133 1
133 2
133 3
133 4
133 7
133 58
133 78
133 80
133 111
133 167
133 263
133 272
133 274
133 308
133 350
133 449
133 565
134 0
134 1
134 2
134 3
134 4
134 7
134 61
134 103
134 112
134 140
134 279
134 306
134 353
134 411
134 569
135 0
135 1
135 2
135 3
135 4
135 6
135 7
135 8
135 51
135 58
135 65
135 69
135 70
135 131
135 164
135 188
135 199
135 214
135 223
135 247
135 263
135 308
135 322
135 358
135 400
135 417
135 449
135 520
136 0
136 1
136 2
136 3
136 4
136 7
136 24
136 52
136 65
136 157
136 202
137 0
137 1
137 10
137 31
137 69
138 0
138 1
138 2
138 3
138 4
138 6
138 10
138 31
138 32
138 35
138 51
138 61
138 62
138 63
138 65
138 69
138 70
138 78
138 90
138 96
138 104
138 108
138 118
138 157
138 164
138 169
138 178
138 181
138 200
138 214
138 224
138 234
138 251
138 253
138 278
138 292
138 301
138 337
138 402
138 436
138 572
139 0
139 1
139 2
139 3
139 4
139 6
139 7
139 8
139 13
139 15
139 16
139 22
139 39
139 79
139 84
139 85
139 125
139 209
139 234
139 280
139 335
139 389
139 403
139 442
139 470
139 471
139 495
139 496
139 505
139 561
140 0
140 1
140 2
140 3
140 4
140 5
140 8
140 13
140 50
140 78
140 80
140 120
140 126
140 134
140 217
140 224
140 234
140 303
140 330
140 448
140 524
140 561
141 0
141 1
141 2
141 4
141 5
141 31
141 69
141 181
142 0
142 1
142 2
142 3
142 4
142 6
142 8
142 9
142 24
142 61
142 109
143 0
143 1
143 2
143 3
143 4
143 15
143 22
143 280
143 442
143 468
143 494
143 496
143 569
143 589
143 590
144 0
144 1
144 2
144 3
144 4
144 5
144 8
144 32
144 54
144 126
144 565
145 0
145 1
145 2
145 3
145 4
145 9
145 31
145 51
145 52
145 65
145 69
145 178
145 202
145 214
146 0
146 1
146 2
146 4
146 5
146 8
146 9
146 16
146 25
146 65
146 77
146 78
146 110
146 152
146 251
146 303
146 368
146 378
146 438
146 491
146 536
146 540
146 541
147 0
147 1
147 2
147 4
147 5
147 6
147 14
147 19
147 21
147 27
147 33
147 61
147 68
147 78
147 92
147 156
147 178
147 193
147 247
147 272
147 323
147 342
147 381
147 458
147 459
147 460
147 518
147 521
148 0
148 1
148 2
148 3
148 4
148 5
148 6
148 8
148 9
148 10
148 11
148 68
148 80
148 315
148 322
148 339
148 378
148 380
148 418
148 530
148 535
149 0
149 1
149 2
149 3
149 4
149 7
149 9
149 20
149 24
149 177
150 0
150 1
150 2
150 3
150 4
150 5
150 7
150 32
150 364
151 0
151 1
151 2
151 3
151 4
151 6
151 8
151 18
151 30
151 32
151 61
151 62
151 128
151 303
151 364
151 375
151 464
151 506
152 0
152 1
152 2
152 3
152 4
152 5
152 7
152 14
152 16
152 23
152 25
152 146
152 155
152 181
152 292
152 361
152 418
152 429
152 456
152 485
152 522
152 530
152 571
153 0
153 1
153 2
153 3
153 4
153 5
153 6
153 7
153 18
153 30
153 126
153 191
153 209
153 210
153 375
153 506
153 556
154 0
154 1
154 2
154 3
154 4
154 5
154 7
154 8
154 24
154 52
154 175
154 198
154 566
154 568
155 0
155 1
155 2
155 3
155 4
155 5
155 7
155 16
155 23
155 29
155 33
155 50
155 51
155 52
155 54
155 62
155 94
155 102
155 107
155 152
155 162
155 206
155 210
155 263
155 308
155 361
155 394
155 399
155 406
155 456
155 485
155 517
155 523
156 0
156 1
156 2
156 3
156 5
156 9
156 10
156 14
156 33
156 35
156 77
156 86
156 92
156 131
156 147
156 193
156 214
156 219
156 220
156 245
156 247
156 272
156 277
156 378
156 432
156 433
156 456
156 458
156 477
156 486
156 513
156 538
156 550
157 0
157 1
157 2
157 3
157 4
157 6
157 7
157 9
157 31
157 32
157 136
157 138
158 0
158 1
158 2
158 3
158 4
158 5
158 7
158 9
158 32
158 215
159 0
159 1
159 2
159 3
159 31
159 32
159 69
159 185
159 209
160 0
160 1
160 2
160 3
160 4
160 5
160 6
160 7
160 9
160 22
160 32
160 50
160 54
160 68
160 201
160 253
160 262
160 296
160 307
160 311
160 494
160 559
160 565
161 0
161 1
161 2
161 4
161 5
161 6
161 7
161 9
161 10
161 12
161 17
161 19
161 25
161 39
161 54
161 69
161 92
161 101
161 131
161 209
161 241
161 242
161 251
161 299
161 303
161 319
161 320
161 326
161 350
161 368
161 378
161 409
161 417
161 459
161 475
161 478
161 480
161 484
161 486
161 509
161 519
161 521
161 527
161 533
161 534
161 536
162 0
162 1
162 2
162 3
162 4
162 5
162 6
162 7
162 8
162 9
162 10
162 13
162 15
162 16
162 20
162 31
162 32
162 35
162 43
162 45
162 48
162 50
162 51
162 52
162 55
162 59
162 61
162 62
162 63
162 65
162 66
162 68
162 69
162 70
162 77
162 78
162 89
162 96
162 101
162 107
162 112
162 115
162 120
162 126
162 155
162 175
162 179
162 181
162 185
162 188
162 197
162 198
162 199
162 201
162 214
162 224
162 229
162 234
162 240
162 244
162 246
162 250
162 251
162 272
162 286
162 294
162 299
162 302
162 314
162 322
162 329
162 361
162 364
162 376
162 379
162 383
162 394
162 407
162 410
162 413
162 415
162 423
162 425
162 427
162 443
162 448
162 485
162 495
162 498
162 500
162 542
162 547
162 557
162 564
162 569
162 581
162 583
163 0
163 1
163 2
163 3
163 4
163 5
163 18
163 30
163 172
163 175
163 506
163 564
164 0
164 1
164 2
164 3
164 4
164 5
164 6
164 7
164 8
164 10
164 11
164 13
164 15
164 18
164 22
164 30
164 31
164 32
164 34
164 36
164 40
164 50
164 51
164 52
164 61
164 62
164 65
164 68
164 69
164 78
164 92
164 107
164 108
164 118
164 131
164 135
164 138
164 164
164 183
164 196
164 202
164 209
164 214
164 215
164 224
164 240
164 245
164 251
164 253
164 278
164 279
164 280
164 289
164 294
164 296
164 306
164 308
164 319
164 321
164 323
164 324
164 330
164 338
164 348
164 349
164 355
164 368
164 391
164 403
164 413
164 417
164 421
164 437
164 448
164 478
164 479
164 494
164 506
164 520
164 527
164 533
164 542
164 548
164 553
164 554
164 566
164 570
164 573
164 574
164 575
164 579
164 581
164 585
165 0
165 1
165 2
165 3
165 4
165 5
165 6
165 7
165 9
165 10
165 22
165 23
165 29
165 39
165 54
165 74
165 85
165 87
165 107
165 118
165 125
165 171
165 178
165 183
165 198
165 202
165 213
165 214
165 215
165 234
165 243
165 246
165 250
165 251
165 261
165 268
165 269
165 280
165 285
165 299
165 322
165 339
165 340
165 364
165 412
165 413
165 467
165 494
165 495
165 496
165 536
165 566
165 571
166 0
166 1
166 3
166 48
166 61
166 166
166 174
166 175
166 177
166 184
166 202
166 203
166 224
166 281
166 551
167 0
167 1
167 2
167 3
167 4
167 7
167 70
167 111
167 133
167 169
167 183
167 263
167 272
167 274
167 308
167 329
167 352
167 406
167 449
167 481
168 0
168 1
168 2
168 3
168 4
168 8
168 9
168 34
168 62
168 201
168 487
169 0
169 1
169 2
169 3
169 4
169 5
169 6
169 7
169 16
169 24
169 30
169 31
169 32
169 48
169 51
169 52
169 61
169 62
169 65
169 68
169 69
169 70
169 71
169 82
169 138
169 167
169 169
169 170
169 178
169 179
169 181
169 192
169 198
169 209
169 214
169 215
169 263
169 270
169 272
169 308
169 337
169 340
169 345
169 358
169 364
169 413
169 416
169 506
169 554
169 569
169 572
169 582
170 0
170 1
170 2
170 3
170 50
170 70
170 169
170 581
171 0
171 1
171 2
171 3
171 4
171 14
171 50
171 52
171 65
171 69
171 165
171 175
171 202
171 221
171 234
171 325
171 350
171 358
171 404
171 448
171 551
171 572
172 0
172 1
172 2
172 3
172 6
172 62
172 163
172 175
172 307
172 560
173 0
173 1
173 2
173 3
173 4
173 5
173 14
173 86
173 183
173 236
173 313
173 340
174 0
174 1
174 2
174 3
174 4
174 8
174 9
174 20
174 32
174 37
174 43
174 48
174 57
174 59
174 61
174 65
174 68
174 71
174 166
174 181
174 182
174 183
174 187
174 202
174 203
174 209
174 214
174 224
174 260
174 272
174 319
174 321
174 381
174 396
174 413
174 560
174 565
174 580
175 0
175 1
175 2
175 3
175 4
175 5
175 6
175 7
175 8
175 9
175 20
175 22
175 24
175 29
175 31
175 32
175 35
175 39
175 45
175 48
175 50
175 51
175 52
175 56
175 61
175 62
175 63
175 65
175 69
175 70
175 71
175 81
175 97
175 114
175 119
175 121
175 125
175 154
175 162
175 163
175 166
175 171
175 172
175 175
175 177
175 181
175 183
175 185
175 187
175 190
175 198
175 199
175 201
175 202
175 209
175 214
175 218
175 224
175 226
175 227
175 234
175 235
175 238
175 246
175 251
175 263
175 272
175 291
175 300
175 306
175 314
175 322
175 353
175 356
175 411
175 450
175 471
175 512
175 549
175 551
175 553
175 554
175 565
175 568
175 569
175 572
175 573
175 581
176 0
176 1
176 3
176 36
176 61
176 579
176 581
177 0
177 1
177 2
177 3
177 4
177 20
177 24
177 39
177 48
177 50
177 62
177 69
177 149
177 166
177 175
177 181
177 246
177 435
177 491
177 569
178 0
178 1
178 2
178 3
178 4
178 5
178 6
178 7
178 8
178 9
178 10
178 11
178 13
178 15
178 16
178 18
178 19
178 21
178 22
178 23
178 24
178 25
178 28
178 29
178 30
178 31
178 32
178 33
178 39
178 42
178 50
178 51
178 52
178 61
178 62
178 66
178 68
178 69
178 70
178 78
178 92
178 93
178 95
178 96
178 103
178 106
178 120
178 132
178 138
178 145
178 147
178 165
178 169
178 178
178 181
178 185
178 188
178 191
178 195
178 197
178 199
178 200
178 202
178 209
178 210
178 212
178 214
178 215
178 224
178 234
178 243
178 245
178 246
178 251
178 256
178 258
178 280
178 285
178 303
178 305
178 306
178 318
178 320
178 324
178 326
178 338
178 339
178 348
178 349
178 353
178 364
178 367
178 368
178 371
178 373
178 378
178 380
178 394
178 411
178 412
178 413
178 418
178 419
178 429
178 440
178 448
178 454
178 459
178 460
178 470
178 476
178 486
178 494
178 495
178 496
178 505
178 506
178 509
178 510
178 520
178 522
178 543
178 553
178 557
178 571
178 590
179 0
179 1
179 2
179 3
179 4
179 7
179 8
179 21
179 50
179 51
179 132
179 162
179 169
179 198
179 209
179 214
179 232
179 245
179 250
179 256
179 270
179 393
179 412
179 413
179 417
180 0
180 1
180 2
180 3
180 8
180 569
181 0
181 1
181 2
181 3
181 4
181 5
181 6
181 7
181 9
181 14
181 15
181 18
181 21
181 22
181 23
181 25
181 30
181 31
181 32
181 36
181 48
181 50
181 51
181 52
181 54
181 61
181 62
181 65
181 66
181 68
181 69
181 70
181 76
181 80
181 105
181 106
181 113
181 120
181 138
181 141
181 152
181 162
181 169
181 174
181 175
181 177
181 178
181 181
181 185
181 188
181 195
181 202
181 215
181 229
181 234
181 246
181 247
181 251
181 254
181 266
181 272
181 280
181 282
181 285
181 289
181 292
181 294
181 306
181 308
181 311
181 337
181 338
181 351
181 352
181 356
181 364
181 369
181 377
181 378
181 386
181 396
181 401
181 403
181 413
181 430
181 438
181 445
181 459
181 494
181 495
181 496
181 506
181 522
181 528
181 566
181 568
181 571
182 0
182 1
182 2
182 4
182 6
182 7
182 58
182 174
182 348
183 0
183 1
183 2
183 3
183 4
183 5
183 6
183 7
183 8
183 9
183 28
183 29
183 30
183 31
183 32
183 35
183 45
183 47
183 48
183 50
183 52
183 61
183 62
183 63
183 65
183 68
183 79
183 91
183 118
183 126
183 164
183 165
183 167
183 173
183 174
183 175
183 183
183 193
183 200
183 201
183 202
183 209
183 210
183 214
183 224
183 237
183 240
183 246
183 269
183 289
183 303
183 306
183 317
183 318
183 324
183 330
183 337
183 338
183 340
183 343
183 354
183 355
183 358
183 359
183 362
183 364
183 381
183 410
183 438
183 449
183 502
183 506
183 546
183 560
184 0
184 1
184 2
184 48
184 52
184 166
185 0
185 1
185 2
185 3
185 4
185 5
185 6
185 7
185 8
185 9
185 23
185 31
185 36
185 45
185 46
185 48
185 50
185 51
185 52
185 53
185 58
185 68
185 69
185 70
185 107
185 128
185 159
185 162
185 175
185 178
185 181
185 197
185 198
185 209
185 213
185 222
185 246
185 252
185 256
185 291
185 298
185 325
185 502
185 518
185 546
185 551
185 554
185 565
186 0
186 1
186 2
186 31
186 62
186 65
187 0
187 1
187 2
187 3
187 4
187 6
187 14
187 48
187 174
187 175
187 581
188 0
188 1
188 2
188 3
188 4
188 6
188 18
188 30
188 61
188 62
188 65
188 69
188 78
188 104
188 107
188 120
188 135
188 162
188 178
188 181
188 191
188 195
188 214
188 266
188 289
188 303
188 319
188 398
188 413
188 437
188 464
188 518
189 0
189 1
189 2
189 3
189 4
189 5
189 14
189 21
189 42
189 68
189 77
189 221
189 256
189 351
189 369
189 433
189 457
189 509
189 520
190 0
190 1
190 2
190 7
190 24
190 32
190 43
190 48
190 61
190 62
190 65
190 66
190 68
190 106
190 114
190 175
190 197
190 214
190 224
190 307
190 354
190 410
191 0
191 1
191 2
191 3
191 4
191 6
191 10
191 30
191 52
191 61
191 66
191 79
191 104
191 153
191 178
191 188
191 192
191 195
191 266
191 290
191 303
191 306
191 348
191 357
191 417
191 432
192 0
192 1
192 2
192 4
192 6
192 30
192 32
192 51
192 61
192 169
192 191
192 296
192 316
192 553
193 0
193 1
193 2
193 3
193 4
193 5
193 6
193 7
193 14
193 21
193 77
193 86
193 94
193 131
193 147
193 156
193 183
193 220
193 226
193 232
193 249
193 272
193 369
193 389
194 0
194 1
194 2
194 3
194 4
194 6
194 7
194 8
194 21
194 29
194 50
194 222
194 270
194 396
194 413
195 0
195 1
195 2
195 3
195 4
195 5
195 6
195 9
195 11
195 18
195 20
195 30
195 77
195 78
195 104
195 120
195 178
195 181
195 188
195 191
195 220
195 234
195 266
195 277
195 303
195 342
195 418
195 420
195 433
195 442
195 458
195 459
195 460
195 471
195 486
195 506
195 538
195 539
196 0
196 1
196 2
196 3
196 4
196 8
196 9
196 10
196 61
196 65
196 92
196 113
196 164
196 208
196 280
196 300
196 349
196 398
196 494
196 518
196 560
196 569
197 0
197 1
197 2
197 3
197 4
197 5
197 6
197 7
197 8
197 9
197 11
197 14
197 17
197 19
197 20
197 23
197 24
197 31
197 32
197 36
197 50
197 51
197 54
197 56
197 59
197 61
197 62
197 69
197 70
197 78
197 101
197 102
197 107
197 111
197 162
197 178
197 185
197 190
197 197
197 199
197 202
197 209
197 210
197 215
197 218
197 227
197 234
197 241
197 243
197 251
197 260
197 268
197 272
197 276
197 277
197 291
197 295
197 296
197 300
197 303
197 305
197 306
197 308
197 319
197 322
197 324
197 339
197 364
197 375
197 405
197 413
197 418
197 422
197 433
197 456
197 478
197 487
197 493
197 502
197 507
197 546
197 551
197 553
197 566
198 0
198 1
198 2
198 3
198 45
198 51
198 69
198 81
198 154
198 162
198 165
198 169
198 175
198 179
198 185
198 214
198 234
198 247
198 294
198 307
198 314
199 0
199 1
199 2
199 3
199 4
199 5
199 6
199 7
199 9
199 20
199 24
199 30
199 31
199 32
199 48
199 50
199 51
199 65
199 66
199 69
199 70
199 77
199 78
199 81
199 96
199 135
199 162
199 175
199 178
199 197
199 215
199 218
199 236
199 240
199 278
199 319
199 381
199 448
199 506
199 578
200 0
200 1
200 2
200 3
200 4
200 5
200 6
200 7
200 8
200 9
200 10
200 18
200 23
200 24
200 30
200 31
200 32
200 61
200 70
200 94
200 112
200 118
200 126
200 138
200 178
200 183
200 225
200 243
200 251
200 269
200 270
200 313
200 330
200 339
200 354
200 380
200 569
201 0
201 1
201 2
201 3
201 4
201 7
201 31
201 50
201 51
201 63
201 69
201 126
201 160
201 162
201 168
201 175
201 183
201 212
201 296
201 344
201 448
201 536
202 0
202 1
202 2
202 3
202 4
202 5
202 6
202 7
202 8
202 9
202 18
202 20
202 23
202 29
202 30
202 32
202 35
202 40
202 48
202 50
202 51
202 52
202 61
202 62
202 65
202 69
202 70
202 74
202 82
202 136
202 145
202 164
202 165
202 166
202 171
202 174
202 175
202 178
202 181
202 183
202 197
202 202
202 215
202 224
202 240
202 245
202 251
202 253
202 270
202 272
202 289
202 298
202 307
202 314
202 359
202 403
202 404
202 406
202 440
202 445
202 448
202 454
202 506
202 566
202 568
202 572
202 573
202 575
202 581
202 583
202 587
203 0
203 1
203 166
203 174
203 203
204 0
204 1
205 0
205 1
205 2
205 3
205 4
205 7
205 8
205 251
205 272
205 361
205 583
206 0
206 1
206 2
206 3
206 4
206 5
206 6
206 9
206 28
206 48
206 89
206 155
206 219
206 325
206 413
206 456
206 485
206 501
206 554
207 0
207 1
208 0
208 1
208 2
208 9
208 31
208 45
208 50
208 56
208 68
208 70
208 78
208 81
208 196
208 254
208 375
208 551
209 0
209 1
209 2
209 3
209 4
209 5
209 6
209 7
209 8
209 11
209 12
209 13
209 15
209 21
209 25
209 36
209 40
209 43
209 48
209 50
209 51
209 52
209 55
209 57
209 61
209 62
209 66
209 68
209 69
209 77
209 78
209 79
209 81
209 85
209 92
209 93
209 114
209 121
209 132
209 139
209 153
209 159
209 161
209 164
209 169
209 174
209 175
209 178
209 179
209 183
209 185
209 197
209 214
209 215
209 227
209 232
209 236
209 245
209 251
209 253
209 261
209 273
209 285
209 291
209 298
209 305
209 308
209 319
209 323
209 326
209 330
209 338
209 348
209 351
209 357
209 359
209 362
209 367
209 369
209 370
209 373
209 374
209 378
209 396
209 413
209 419
209 426
209 438
209 441
209 448
209 451
209 454
209 459
209 470
209 471
209 476
209 480
209 494
209 505
209 510
209 515
209 517
209 522
209 526
209 536
209 544
209 553
209 572
209 590
210 0
210 1
210 2
210 3
210 5
210 6
210 10
210 23
210 34
210 45
210 51
210 53
210 56
210 66
210 153
210 155
210 178
210 183
210 197
210 300
210 322
210 413
210 551
210 554
211 0
211 1
211 2
211 3
211 6
211 8
211 15
211 22
211 39
211 61
211 85
211 112
211 125
211 240
211 280
211 411
211 470
211 494
211 495
211 496
212 0
212 1
212 2
212 5
212 57
212 63
212 178
212 201
212 260
212 305
212 344
212 348
213 0
213 1
213 2
213 3
213 4
213 24
213 31
213 32
213 45
213 51
213 61
213 65
213 66
213 165
213 185
213 474
214 0
214 1
214 2
214 3
214 4
214 5
214 6
214 7
214 8
214 9
214 10
214 11
214 13
214 15
214 16
214 22
214 24
214 30
214 31
214 32
214 33
214 36
214 39
214 40
214 42
214 48
214 50
214 51
214 52
214 61
214 62
214 65
214 68
214 69
214 70
214 74
214 77
214 92
214 106
214 108
214 111
214 118
214 125
214 130
214 131
214 132
214 135
214 138
214 145
214 156
214 162
214 164
214 165
214 169
214 174
214 175
214 178
214 179
214 183
214 188
214 190
214 198
214 209
214 214
214 219
214 221
214 227
214 234
214 240
214 245
214 246
214 269
214 272
214 278
214 280
214 285
214 298
214 303
214 308
214 311
214 322
214 324
214 339
214 348
214 358
214 362
214 370
214 387
214 396
214 413
214 416
214 417
214 421
214 433
214 438
214 448
214 451
214 465
214 471
214 486
214 491
214 494
214 495
214 496
214 513
214 518
214 520
214 548
214 552
214 564
214 569
214 572
214 574
214 581
214 583
215 0
215 1
215 2
215 3
215 4
215 6
215 7
215 20
215 30
215 32
215 50
215 53
215 58
215 61
215 62
215 65
215 69
215 158
215 164
215 165
215 169
215 178
215 181
215 197
215 199
215 202
215 209
215 224
215 232
215 234
215 273
215 305
215 338
215 364
215 375
215 412
215 448
215 515
215 548
215 566
216 0
216 1
217 0
217 1
217 2
217 3
217 5
217 7
217 8
217 9
217 140
217 364
217 443
217 565
218 0
218 1
218 2
218 3
218 4
218 5
218 9
218 18
218 24
218 26
218 31
218 61
218 65
218 81
218 82
218 95
218 96
218 175
218 197
218 199
218 234
218 291
218 303
218 547
218 556
218 566
219 0
219 1
219 2
219 3
219 4
219 5
219 9
219 23
219 27
219 33
219 61
219 79
219 86
219 87
219 108
219 131
219 156
219 206
219 214
219 227
219 229
219 243
219 292
219 365
219 411
219 417
219 433
219 456
219 467
219 486
219 513
219 538
219 592
220 0
220 1
220 2
220 3
220 4
220 7
220 11
220 27
220 39
220 51
220 61
220 68
220 69
220 77
220 108
220 156
220 193
220 195
220 229
220 247
220 272
220 313
220 362
220 365
220 367
220 428
220 536
220 538
220 592
221 0
221 1
221 2
221 3
221 4
221 5
221 6
221 7
221 8
221 22
221 39
221 50
221 85
221 94
221 117
221 125
221 130
221 171
221 189
221 214
221 229
221 232
221 246
221 251
221 252
221 268
221 272
221 490
221 505
221 564
222 0
222 1
222 2
222 3
222 4
222 5
222 6
222 9
222 14
222 16
222 19
222 21
222 61
222 107
222 185
222 194
222 319
222 413
222 417
222 456
222 485
222 520
222 521
223 0
223 1
223 3
223 61
223 77
223 135
224 0
224 1
224 2
224 3
224 4
224 5
224 6
224 7
224 8
224 9
224 18
224 21
224 24
224 28
224 30
224 31
224 32
224 50
224 51
224 59
224 61
224 62
224 65
224 66
224 68
224 70
224 80
224 81
224 93
224 97
224 106
224 138
224 140
224 162
224 164
224 166
224 174
224 175
224 178
224 183
224 190
224 202
224 215
224 224
224 236
224 240
224 247
224 251
224 260
224 266
224 300
224 314
224 338
224 340
224 353
224 462
224 505
224 506
224 549
224 557
224 566
224 568
224 572
224 581
224 584
224 585
225 0
225 1
225 200
226 0
226 1
226 2
226 3
226 4
226 48
226 50
226 53
226 61
226 62
226 175
226 193
226 234
226 566
227 0
227 1
227 2
227 3
227 4
227 5
227 6
227 7
227 8
227 12
227 13
227 15
227 19
227 21
227 22
227 54
227 55
227 61
227 65
227 68
227 77
227 80
227 92
227 107
227 110
227 111
227 120
227 127
227 175
227 197
227 209
227 214
227 219
227 263
227 267
227 268
227 280
227 325
227 350
227 358
227 380
227 413
227 442
227 447
227 449
227 456
227 463
227 470
227 471
227 481
227 494
227 495
227 496
227 505
227 507
227 518
227 521
227 540
227 561
227 590
228 0
228 1
228 2
228 3
228 4
228 22
228 61
228 65
228 68
228 251
228 279
228 280
228 358
228 448
228 470
228 494
228 496
228 505
229 0
229 1
229 2
229 3
229 4
229 5
229 7
229 9
229 21
229 32
229 50
229 51
229 65
229 78
229 94
229 101
229 106
229 132
229 162
229 181
229 219
229 220
229 221
229 232
229 243
229 246
229 251
229 256
229 372
229 411
229 458
229 484
229 503
230 0
230 1
230 2
230 4
230 6
230 8
230 30
230 32
230 296
231 0
231 1
231 2
231 3
231 4
231 6
231 39
231 108
232 0
232 1
232 3
232 4
232 5
232 6
232 33
232 50
232 61
232 127
232 179
232 193
232 209
232 215
232 221
232 229
232 251
232 256
232 367
232 384
232 394
232 404
232 413
232 445
232 457
233 0
233 1
233 2
233 3
233 4
233 5
233 6
233 7
233 8
233 50
233 85
233 117
233 125
233 130
233 244
233 303
233 335
233 415
233 512
233 561
234 0
234 1
234 2
234 3
234 4
234 5
234 6
234 7
234 8
234 15
234 16
234 24
234 29
234 30
234 31
234 35
234 39
234 42
234 50
234 51
234 53
234 55
234 56
234 58
234 61
234 62
234 65
234 68
234 69
234 70
234 71
234 78
234 82
234 84
234 107
234 130
234 138
234 139
234 140
234 162
234 165
234 171
234 175
234 178
234 181
234 195
234 197
234 198
234 214
234 215
234 218
234 226
234 234
234 240
234 244
234 247
234 251
234 257
234 258
234 259
234 261
234 263
234 272
234 288
234 292
234 298
234 306
234 324
234 330
234 335
234 340
234 353
234 354
234 358
234 361
234 367
234 379
234 380
234 394
234 399
234 407
234 411
234 413
234 415
234 442
234 448
234 456
234 461
234 469
234 470
234 483
234 490
234 501
234 506
234 512
234 516
234 586
234 589
234 590
235 0
235 1
235 2
235 4
235 6
235 29
235 175
235 413
236 0
236 1
236 2
236 3
236 4
236 6
236 7
236 14
236 21
236 34
236 57
236 89
236 116
236 173
236 199
236 209
236 224
236 273
236 324
236 347
236 404
236 423
236 536
237 0
237 1
237 2
237 3
237 5
237 36
237 61
237 62
237 63
237 72
237 183
237 400
237 569
238 0
238 1
238 175
238 257
239 0
239 1
239 2
240 1
240 2
240 3
240 4
240 5
240 50
240 51
240 61
240 62
240 70
240 126
240 162
240 164
240 183
240 199
240 202
240 211
240 214
240 224
240 234
240 266
240 275
240 288
240 307
240 483
240 572
241 0
241 1
241 3
241 4
241 6
241 17
241 19
241 28
241 68
241 77
241 101
241 120
241 131
241 161
241 197
241 243
241 251
241 289
241 292
241 320
241 417
241 503
241 521
241 530
241 536
242 0
242 1
242 2
242 4
242 5
242 6
242 7
242 8
242 9
242 11
242 12
242 17
242 19
242 161
242 285
242 296
242 315
242 322
242 448
242 521
242 522
243 0
243 1
243 2
243 3
243 4
243 5
243 6
243 7
243 9
243 10
243 19
243 23
243 42
243 52
243 74
243 86
243 92
243 94
243 101
243 102
243 112
243 165
243 178
243 197
243 200
243 219
243 229
243 241
243 247
243 251
243 268
243 270
243 280
243 384
243 401
243 408
243 413
243 440
243 456
243 460
243 533
243 536
244 0
244 1
244 2
244 3
244 4
244 5
244 6
244 7
244 8
244 13
244 30
244 32
244 39
244 52
244 85
244 117
244 130
244 162
244 233
244 234
244 246
244 272
244 313
244 335
244 415
244 423
244 469
244 512
244 524
244 561
245 0
245 1
245 2
245 3
245 4
245 5
245 6
245 7
245 9
245 11
245 12
245 14
245 19
245 25
245 27
245 33
245 50
245 55
245 65
245 73
245 92
245 94
245 95
245 131
245 156
245 164
245 178
245 179
245 202
245 209
245 214
245 261
245 292
245 306
245 308
245 339
245 342
245 410
245 411
245 428
245 432
245 458
245 459
245 486
245 519
245 520
245 521
245 529
245 538
245 542
245 544
246 0
246 1
246 2
246 3
246 4
246 5
246 6
246 7
246 8
246 13
246 36
246 39
246 50
246 51
246 61
246 62
246 65
246 69
246 85
246 89
246 103
246 114
246 117
246 125
246 130
246 162
246 165
246 175
246 177
246 178
246 181
246 183
246 185
246 214
246 221
246 229
246 244
246 272
246 303
246 320
246 331
246 335
246 402
246 415
246 466
246 512
246 561
246 570
246 572
246 583
247 0
247 1
247 2
247 3
247 4
247 5
247 6
247 7
247 9
247 10
247 19
247 35
247 39
247 48
247 61
247 69
247 77
247 78
247 82
247 128
247 135
247 147
247 156
247 181
247 198
247 220
247 224
247 234
247 243
247 272
247 279
247 291
247 297
247 298
247 306
247 310
247 319
247 413
247 431
247 437
247 456
247 467
247 521
247 525
247 533
247 534
247 538
247 572
248 0
248 1
248 3
248 4
248 6
248 10
248 260
248 431
248 437
248 510
249 0
249 1
249 2
249 3
249 4
249 6
249 61
249 87
249 102
249 107
249 193
249 413
249 418
249 490
250 0
250 1
250 2
250 3
250 4
250 5
250 9
250 20
250 50
250 51
250 61
250 70
250 73
250 162
250 165
250 179
250 251
250 270
250 351
251 0
251 1
251 2
251 3
251 4
251 5
251 6
251 7
251 9
251 12
251 19
251 21
251 23
251 25
251 27
251 35
251 42
251 50
251 54
251 61
251 62
251 65
251 68
251 71
251 74
251 77
251 78
251 86
251 92
251 93
251 94
251 101
251 107
251 110
251 112
251 118
251 132
251 138
251 146
251 161
251 162
251 164
251 165
251 175
251 178
251 181
251 197
251 200
251 202
251 205
251 209
251 221
251 224
251 228
251 229
251 232
251 234
251 241
251 243
251 250
251 251
251 253
251 263
251 269
251 270
251 272
251 292
251 303
251 308
251 313
251 315
251 321
251 322
251 323
251 338
251 339
251 358
251 380
251 383
251 384
251 418
251 433
251 456
251 470
251 478
251 504
251 507
251 521
251 532
251 536
251 548
251 573
251 575
252 0
252 1
252 2
252 3
252 4
252 7
252 92
252 185
252 221
252 268
253 0
253 1
253 2
253 3
253 4
253 7
253 9
253 10
253 11
253 19
253 48
253 62
253 105
253 138
253 160
253 164
253 202
253 209
253 251
253 289
253 312
253 313
253 320
253 340
253 362
253 375
253 384
253 426
253 499
253 557
254 0
254 1
254 2
254 32
254 35
254 57
254 181
254 208
254 259
254 305
254 330
254 344
255 0
255 1
255 65
256 0
256 1
256 3
256 4
256 7
256 9
256 21
256 50
256 68
256 69
256 127
256 132
256 178
256 179
256 185
256 189
256 229
256 232
256 367
256 384
256 394
256 413
256 518
257 0
257 1
257 3
257 31
257 50
257 234
257 238
258 0
258 1
258 2
258 4
258 23
258 178
258 234
258 325
258 339
259 0
259 1
259 2
259 3
259 4
259 6
259 10
259 32
259 35
259 50
259 57
259 78
259 234
259 254
259 279
259 306
259 310
259 413
260 0
260 1
260 2
260 3
260 4
260 5
260 6
260 7
260 8
260 9
260 18
260 30
260 32
260 174
260 197
260 212
260 224
260 248
260 364
260 506
261 0
261 1
261 2
261 3
261 4
261 5
261 6
261 29
261 31
261 59
261 77
261 81
261 106
261 165
261 209
261 234
261 245
261 278
261 308
261 313
261 322
261 325
261 361
261 400
261 406
261 448
262 0
262 1
262 2
262 9
262 20
262 30
262 51
262 160
262 364
263 0
263 1
263 2
263 3
263 4
263 7
263 10
263 11
263 23
263 37
263 51
263 55
263 61
263 77
263 92
263 111
263 133
263 135
263 155
263 167
263 169
263 175
263 227
263 234
263 251
263 272
263 274
263 308
263 350
263 352
263 361
263 399
263 403
263 408
263 418
263 422
263 449
264 0
264 1
264 2
264 3
264 4
264 11
264 39
264 73
264 409
264 418
264 434
264 484
264 527
264 547
265 0
265 1
265 2
265 3
265 5
265 31
265 59
265 65
266 0
266 1
266 2
266 3
266 4
266 5
266 6
266 18
266 30
266 56
266 61
266 62
266 65
266 78
266 104
266 120
266 181
266 188
266 191
266 195
266 224
266 240
266 289
266 296
266 303
266 442
266 464
267 0
267 1
267 2
267 3
267 4
267 6
267 9
267 10
267 17
267 19
267 21
267 54
267 78
267 92
267 132
267 227
267 277
267 291
267 319
267 418
267 501
267 509
267 513
267 521
267 529
267 592
268 0
268 1
268 2
268 3
268 4
268 6
268 8
268 23
268 107
268 165
268 197
268 221
268 227
268 243
268 252
268 285
268 303
268 313
269 0
269 1
269 2
269 3
269 48
269 51
269 61
269 62
269 65
269 66
269 69
269 71
269 114
269 165
269 183
269 200
269 214
269 251
269 275
269 331
269 356
269 363
269 400
269 402
269 572
269 576
270 0
270 1
270 2
270 3
270 4
270 6
270 29
270 50
270 69
270 74
270 87
270 169
270 179
270 194
270 200
270 202
270 243
270 250
270 251
270 308
270 365
270 388
270 416
270 418
270 440
270 479
270 490
270 510
270 517
271 0
271 1
272 0
272 1
272 2
272 3
272 4
272 5
272 6
272 7
272 8
272 16
272 23
272 27
272 51
272 55
272 58
272 61
272 62
272 69
272 77
272 78
272 79
272 81
272 85
272 92
272 111
272 117
272 130
272 133
272 147
272 156
272 162
272 167
272 169
272 174
272 175
272 181
272 193
272 197
272 202
272 205
272 214
272 220
272 221
272 234
272 244
272 246
272 247
272 251
272 263
272 274
272 308
272 310
272 311
272 329
272 335
272 350
272 351
272 406
272 422
272 423
272 443
272 449
272 456
272 457
272 481
272 485
272 486
273 0
273 1
273 2
273 4
273 7
273 34
273 40
273 57
273 68
273 209
273 215
273 236
273 303
273 306
273 308
273 338
273 351
273 470
273 488
273 573
273 574
274 0
274 1
274 2
274 3
274 4
274 7
274 55
274 70
274 71
274 81
274 111
274 133
274 167
274 263
274 272
274 308
274 329
274 448
274 449
275 0
275 1
275 2
275 3
275 4
275 7
275 32
275 34
275 106
275 240
275 269
275 364
276 0
276 1
276 2
276 3
276 4
276 34
276 197
277 0
277 1
277 2
277 3
277 4
277 5
277 6
277 8
277 9
277 10
277 11
277 25
277 27
277 39
277 51
277 77
277 92
277 156
277 195
277 197
277 267
277 322
277 342
277 378
277 413
277 418
277 419
277 420
277 433
277 456
277 477
277 484
277 503
277 527
277 536
277 541
278 0
278 1
278 2
278 3
278 4
278 6
278 10
278 31
278 50
278 53
278 61
278 80
278 96
278 118
278 138
278 164
278 199
278 214
278 261
278 372
278 421
278 549
278 572
279 0
279 1
279 2
279 3
279 4
279 5
279 6
279 7
279 50
279 62
279 134
279 164
279 228
279 247
279 259
279 306
279 308
279 343
279 353
279 355
279 573
279 574
280 1
280 2
280 3
280 4
280 5
280 35
280 52
280 61
280 68
280 69
280 77
280 78
280 84
280 93
280 113
280 118
280 139
280 143
280 164
280 165
280 178
280 181
280 196
280 211
280 214
280 227
280 228
280 243
280 285
280 307
280 313
280 324
280 330
280 358
280 410
280 448
280 461
280 469
280 505
280 572
281 1
281 166
281 581
282 0
282 1
282 2
282 106
282 181
283 0
283 1
283 2
283 4
283 61
283 65
283 291
283 560
283 581
284 0
284 1
284 2
284 3
284 6
284 31
284 32
284 36
284 61
284 69
284 70
284 306
284 322
284 349
284 374
285 0
285 1
285 2
285 4
285 5
285 6
285 9
285 22
285 23
285 34
285 50
285 61
285 62
285 65
285 68
285 69
285 70
285 96
285 165
285 178
285 181
285 209
285 214
285 242
285 268
285 280
285 291
285 308
285 318
285 319
285 325
285 353
285 378
285 381
285 413
285 419
285 434
285 437
285 478
285 494
285 495
285 496
285 505
285 572
286 0
286 1
286 2
286 3
286 4
286 5
286 6
286 18
286 30
286 43
286 51
286 162
286 298
286 506
287 0
287 1
287 2
287 3
287 20
287 50
287 61
287 62
287 288
287 290
287 300
288 0
288 1
288 2
288 4
288 5
288 6
288 8
288 48
288 234
288 240
288 287
288 358
288 560
288 566
289 0
289 1
289 2
289 3
289 4
289 5
289 6
289 7
289 21
289 30
289 35
289 40
289 51
289 61
289 65
289 164
289 181
289 183
289 188
289 202
289 241
289 253
289 266
289 308
289 313
289 362
289 375
289 575
290 0
290 1
290 2
290 3
290 6
290 8
290 24
290 30
290 50
290 61
290 69
290 106
290 126
290 191
290 287
290 294
290 375
290 413
290 506
290 553
291 0
291 1
291 2
291 3
291 4
291 7
291 9
291 14
291 18
291 21
291 23
291 25
291 30
291 33
291 40
291 51
291 52
291 54
291 61
291 65
291 68
291 69
291 175
291 185
291 197
291 209
291 218
291 247
291 267
291 283
291 285
291 292
291 298
291 299
291 303
291 306
291 307
291 313
291 322
291 338
291 345
291 356
291 375
291 382
291 389
291 424
291 425
291 438
291 444
291 452
291 454
291 475
291 477
291 478
291 506
291 509
291 537
292 0
292 1
292 2
292 3
292 4
292 5
292 6
292 7
292 9
292 10
292 11
292 17
292 27
292 39
292 48
292 50
292 51
292 61
292 62
292 69
292 78
292 79
292 86
292 101
292 138
292 152
292 181
292 219
292 234
292 241
292 245
292 251
292 291
292 307
292 322
292 383
292 410
292 413
292 438
292 452
292 500
292 504
292 518
292 527
292 586
293 0
293 1
293 2
293 7
293 8
293 34
293 35
293 50
293 54
293 307
293 353
294 0
294 1
294 2
294 3
294 4
294 6
294 7
294 20
294 62
294 68
294 118
294 162
294 164
294 181
294 198
294 290
294 298
294 299
294 321
294 389
294 556
294 565
294 568
295 0
295 1
295 2
295 3
295 4
295 9
295 61
295 62
295 197
296 0
296 2
296 3
296 4
296 5
296 6
296 11
296 17
296 18
296 28
296 30
296 32
296 48
296 50
296 54
296 69
296 101
296 104
296 106
296 160
296 164
296 192
296 197
296 201
296 230
296 242
296 266
296 357
296 368
296 396
296 410
296 419
296 448
296 454
296 456
296 506
296 522
296 535
296 537
297 0
297 1
297 2
297 3
297 78
297 106
297 247
297 307
297 551
297 559
298 0
298 1
298 2
298 3
298 4
298 5
298 6
298 50
298 61
298 62
298 71
298 113
298 185
298 202
298 209
298 214
298 234
298 247
298 286
298 291
298 294
298 306
298 313
298 403
298 512
299 0
299 1
299 2
299 3
299 4
299 5
299 6
299 12
299 61
299 62
299 65
299 125
299 161
299 162
299 165
299 291
299 294
299 299
299 303
299 309
299 311
299 317
299 321
299 322
299 335
299 357
299 358
299 378
299 382
299 395
299 444
299 489
299 500
299 504
299 549
299 552
299 554
299 555
299 573
299 583
300 0
300 1
300 2
300 3
300 5
300 6
300 7
300 30
300 31
300 39
300 45
300 61
300 62
300 65
300 68
300 69
300 175
300 196
300 197
300 210
300 224
300 287
300 306
300 314
300 554
300 560
300 565
301 0
301 1
301 2
301 3
301 4
301 5
301 48
301 138
302 0
302 1
302 2
302 3
302 48
302 68
302 162
302 322
302 444
302 556
302 566
303 0
303 1
303 2
303 3
303 4
303 5
303 6
303 7
303 8
303 9
303 10
303 15
303 18
303 19
303 21
303 23
303 25
303 30
303 35
303 36
303 39
303 50
303 51
303 54
303 61
303 63
303 65
303 68
303 71
303 73
303 104
303 114
303 140
303 146
303 151
303 161
303 178
303 183
303 188
303 191
303 195
303 197
303 214
303 218
303 233
303 246
303 251
303 266
303 268
303 273
303 291
303 299
303 308
303 311
303 312
303 317
303 318
303 319
303 324
303 329
303 335
303 343
303 353
303 367
303 368
303 378
303 381
303 407
303 409
303 413
303 414
303 415
303 430
303 433
303 448
303 456
303 503
303 506
303 507
303 519
303 521
303 525
303 536
303 564
303 565
303 569
303 571
303 572
304 0
304 1
304 2
304 6
304 17
304 319
304 413
305 0
305 1
305 2
305 3
305 4
305 5
305 7
305 8
305 9
305 20
305 28
305 32
305 35
305 57
305 70
305 95
305 119
305 178
305 197
305 209
305 212
305 215
305 254
305 323
305 326
305 340
305 358
305 400
305 410
305 518
305 551
305 569
306 0
306 1
306 2
306 3
306 4
306 5
306 6
306 7
306 12
306 17
306 25
306 34
306 40
306 50
306 61
306 62
306 66
306 78
306 121
306 126
306 131
306 134
306 164
306 175
306 178
306 181
306 183
306 191
306 197
306 234
306 245
306 247
306 259
306 273
306 279
306 284
306 291
306 298
306 300
306 306
306 307
306 308
306 310
306 311
306 314
306 316
306 322
306 326
306 349
306 351
306 353
306 355
306 370
306 462
306 478
306 522
306 536
306 552
306 554
306 573
306 575
306 581
307 0
307 1
307 2
307 3
307 4
307 5
307 6
307 7
307 8
307 9
307 15
307 18
307 20
307 21
307 22
307 28
307 30
307 31
307 50
307 51
307 52
307 61
307 62
307 66
307 68
307 70
307 71
307 77
307 80
307 160
307 172
307 190
307 198
307 202
307 240
307 280
307 291
307 292
307 293
307 297
307 306
307 353
307 381
307 390
307 496
307 505
307 506
307 563
307 566
307 568
307 581
308 0
308 1
308 2
308 3
308 4
308 5
308 6
308 7
308 8
308 10
308 11
308 34
308 35
308 48
308 50
308 51
308 55
308 61
308 62
308 68
308 71
308 74
308 77
308 102
308 107
308 111
308 126
308 129
308 131
308 133
308 135
308 155
308 164
308 167
308 169
308 181
308 197
308 209
308 214
308 245
308 251
308 261
308 263
308 270
308 272
308 273
308 274
308 279
308 285
308 289
308 303
308 306
308 308
308 329
308 348
308 351
308 355
308 358
308 361
308 373
308 403
308 406
308 408
308 416
308 444
308 448
308 505
308 533
308 535
308 536
308 548
308 571
308 573
309 0
309 2
309 3
309 4
309 5
309 6
309 299
309 382
309 489
309 492
309 500
309 502
309 528
310 0
310 1
310 2
310 3
310 4
310 6
310 8
310 247
310 259
310 272
310 306
310 583
311 0
311 1
311 2
311 3
311 4
311 5
311 6
311 7
311 9
311 50
311 61
311 62
311 68
311 160
311 181
311 214
311 272
311 299
311 303
311 306
311 322
311 351
311 381
311 413
311 485
311 573
311 583
312 0
312 2
312 3
312 4
312 8
312 13
312 68
312 253
312 303
312 413
312 561
313 0
313 1
313 2
313 3
313 4
313 5
313 6
313 7
313 8
313 9
313 11
313 15
313 22
313 32
313 51
313 54
313 68
313 70
313 77
313 92
313 106
313 132
313 173
313 200
313 220
313 244
313 251
313 253
313 261
313 268
313 280
313 289
313 291
313 298
313 325
313 362
313 396
313 413
313 466
313 494
313 495
313 496
313 550
313 590
314 0
314 1
314 2
314 3
314 4
314 6
314 7
314 48
314 50
314 52
314 53
314 61
314 65
314 66
314 68
314 82
314 119
314 162
314 175
314 198
314 202
314 224
314 300
314 306
314 322
314 353
314 374
315 0
315 1
315 2
315 3
315 4
315 5
315 6
315 7
315 8
315 9
315 12
315 21
315 23
315 148
315 242
315 251
315 322
315 378
315 380
315 413
315 418
315 433
315 456
315 507
315 522
315 529
315 530
315 539
316 0
316 1
316 2
316 3
316 4
316 5
316 6
316 7
316 8
316 9
316 10
316 11
316 12
316 19
316 25
316 36
316 39
316 50
316 51
316 52
316 59
316 61
316 68
316 89
316 114
316 192
316 306
316 322
316 349
316 378
316 478
316 519
316 522
316 525
316 536
316 549
316 554
316 572
317 2
317 3
317 4
317 5
317 6
317 41
317 51
317 68
317 69
317 183
317 299
317 303
317 395
317 446
317 478
317 492
317 504
317 593
318 0
318 1
318 2
318 3
318 4
318 5
318 6
318 61
318 68
318 178
318 183
318 285
318 303
318 324
318 357
318 367
318 501
319 0
319 2
319 3
319 6
319 8
319 50
319 65
319 69
319 161
319 164
319 174
319 188
319 197
319 199
319 209
319 222
319 247
319 267
319 285
319 303
319 304
319 323
319 368
319 398
319 419
319 459
319 462
319 478
319 503
319 525
319 531
319 534
319 538
320 0
320 1
320 2
320 3
320 4
320 5
320 6
320 7
320 8
320 9
320 12
320 32
320 61
320 69
320 161
320 178
320 241
320 246
320 253
320 348
320 370
320 386
320 396
320 409
320 438
320 441
320 543
321 0
321 1
321 2
321 4
321 8
321 35
321 63
321 164
321 174
321 251
321 294
321 299
321 384
321 557
321 566
321 572
322 0
322 1
322 2
322 3
322 4
322 6
322 8
322 50
322 51
322 52
322 55
322 61
322 68
322 69
322 95
322 131
322 135
322 148
322 162
322 165
322 175
322 197
322 210
322 214
322 242
322 251
322 261
322 277
322 284
322 291
322 292
322 299
322 302
322 306
322 311
322 314
322 315
322 316
322 330
322 348
322 349
322 374
322 410
322 417
322 418
322 419
322 431
322 438
322 477
322 509
322 530
322 572
323 0
323 1
323 2
323 3
323 4
323 6
323 9
323 10
323 27
323 68
323 78
323 92
323 147
323 164
323 209
323 251
323 305
323 319
323 349
323 370
323 413
323 437
323 456
323 459
323 460
323 486
323 509
323 518
323 533
324 0
324 1
324 2
324 3
324 4
324 5
324 6
324 13
324 15
324 40
324 57
324 61
324 62
324 68
324 77
324 164
324 178
324 183
324 197
324 214
324 234
324 236
324 280
324 303
324 318
324 338
324 339
324 367
324 379
324 407
324 472
324 479
324 494
324 495
324 496
324 565
324 569
324 575
325 0
325 1
325 2
325 3
325 4
325 6
325 8
325 23
325 29
325 54
325 102
325 107
325 171
325 185
325 206
325 227
325 258
325 261
325 285
325 313
325 339
326 0
326 2
326 3
326 4
326 6
326 7
326 9
326 10
326 11
326 17
326 54
326 77
326 161
326 178
326 209
326 305
326 306
326 368
326 418
326 431
326 451
326 478
326 509
326 519
326 533
326 536
326 572
327 0
327 1
327 2
327 4
327 48
327 61
328 0
328 2
328 6
328 8
328 418
329 0
329 1
329 2
329 3
329 4
329 7
329 55
329 62
329 78
329 111
329 162
329 167
329 272
329 274
329 303
329 308
329 448
329 449
329 565
330 0
330 1
330 2
330 3
330 4
330 5
330 6
330 7
330 8
330 9
330 10
330 13
330 15
330 19
330 22
330 27
330 31
330 50
330 56
330 68
330 69
330 70
330 77
330 80
330 140
330 164
330 183
330 200
330 209
330 234
330 254
330 280
330 322
330 353
330 380
330 403
330 418
330 421
330 431
330 494
330 495
330 496
330 521
330 530
330 540
330 550
330 561
330 590
331 0
331 1
331 2
331 3
331 4
331 7
331 20
331 30
331 31
331 32
331 48
331 62
331 246
331 269
331 364
331 506
331 516
331 556
331 566
332 0
332 1
332 2
333 0
333 1
333 2
333 3
333 4
334 0
334 1
334 2
334 3
334 4
334 5
334 7
334 48
335 0
335 1
335 2
335 3
335 4
335 5
335 6
335 7
335 8
335 85
335 103
335 117
335 125
335 130
335 139
335 233
335 234
335 244
335 246
335 272
335 299
335 303
335 399
335 415
335 512
335 561
336 0
336 1
336 2
336 51
336 581
337 0
337 1
337 2
337 3
337 5
337 7
337 32
337 52
337 69
337 138
337 169
337 181
337 183
337 364
338 0
338 1
338 2
338 4
338 7
338 34
338 61
338 68
338 164
338 178
338 181
338 183
338 209
338 215
338 224
338 251
338 273
338 291
338 324
338 488
338 575
339 0
339 1
339 2
339 3
339 4
339 5
339 6
339 9
339 10
339 11
339 12
339 23
339 25
339 29
339 39
339 70
339 80
339 148
339 165
339 178
339 197
339 200
339 214
339 245
339 251
339 258
339 324
339 325
339 387
339 459
339 478
339 491
339 509
339 536
340 0
340 1
340 2
340 3
340 4
340 5
340 7
340 8
340 30
340 32
340 34
340 59
340 165
340 169
340 173
340 183
340 224
340 234
340 253
340 305
340 345
340 362
340 560
340 563
340 567
341 0
341 1
341 2
341 3
341 7
341 31
341 32
341 69
342 0
342 1
342 2
342 3
342 4
342 9
342 86
342 92
342 147
342 195
342 245
342 277
342 413
342 458
342 460
342 486
342 513
342 538
343 0
343 1
343 2
343 3
343 4
343 5
343 6
343 7
343 8
343 17
343 54
343 183
343 279
343 303
343 353
343 368
343 419
343 426
343 448
343 494
343 505
343 518
343 536
344 0
344 1
344 2
344 4
344 34
344 50
344 61
344 201
344 212
344 254
345 0
345 1
345 2
345 3
345 5
345 103
345 169
345 291
345 340
345 355
345 358
345 405
346 0
346 1
346 2
346 9
347 0
347 1
347 2
347 3
347 62
347 236
348 0
348 1
348 2
348 3
348 4
348 5
348 6
348 9
348 39
348 48
348 55
348 59
348 77
348 78
348 164
348 178
348 182
348 191
348 209
348 212
348 214
348 308
348 320
348 322
348 396
348 417
348 438
348 452
348 454
348 527
348 592
349 0
349 1
349 2
349 3
349 4
349 7
349 9
349 10
349 50
349 61
349 68
349 92
349 96
349 164
349 178
349 196
349 284
349 306
349 316
349 322
349 323
349 374
349 552
350 0
350 1
350 2
350 3
350 4
350 10
350 12
350 25
350 28
350 51
350 77
350 80
350 111
350 133
350 161
350 171
350 227
350 263
350 272
350 352
350 358
350 378
350 413
350 449
350 456
350 481
350 522
350 529
350 550
350 571
351 0
351 1
351 2
351 3
351 4
351 5
351 6
351 8
351 9
351 14
351 21
351 25
351 40
351 69
351 181
351 189
351 209
351 250
351 272
351 273
351 306
351 308
351 311
351 352
351 378
351 391
351 443
351 470
351 486
351 488
351 522
351 532
351 573
351 575
351 581
352 0
352 1
352 2
352 3
352 4
352 6
352 7
352 36
352 69
352 79
352 81
352 167
352 181
352 263
352 350
352 351
352 390
352 411
352 562
353 0
353 1
353 2
353 3
353 4
353 5
353 6
353 35
353 51
353 54
353 61
353 65
353 68
353 103
353 117
353 134
353 175
353 178
353 224
353 234
353 279
353 285
353 293
353 303
353 306
353 307
353 314
353 330
353 343
353 354
353 576
354 0
354 1
354 2
354 3
354 4
354 7
354 8
354 69
354 70
354 103
354 106
354 183
354 190
354 200
354 234
354 353
354 410
354 566
354 568
355 0
355 1
355 2
355 5
355 68
355 164
355 183
355 279
355 306
355 308
355 345
356 0
356 1
356 2
356 5
356 7
356 18
356 30
356 105
356 175
356 181
356 269
356 291
356 506
356 557
357 0
357 1
357 2
357 3
357 4
357 5
357 6
357 18
357 30
357 50
357 61
357 107
357 191
357 209
357 296
357 299
357 318
357 433
357 485
357 506
357 571
358 0
358 1
358 2
358 3
358 4
358 5
358 19
358 21
358 22
358 55
358 61
358 69
358 77
358 114
358 126
358 135
358 169
358 171
358 183
358 214
358 227
358 228
358 234
358 251
358 280
358 288
358 299
358 305
358 308
358 345
358 350
358 369
358 413
358 448
358 481
358 494
358 496
358 505
358 518
358 521
358 573
359 0
359 1
359 2
359 18
359 30
359 183
359 202
359 209
359 506
360 0
360 1
360 2
360 3
360 4
360 7
360 9
360 24
360 30
360 50
360 364
361 0
361 1
361 2
361 3
361 4
361 6
361 29
361 50
361 61
361 68
361 87
361 152
361 155
361 162
361 205
361 234
361 261
361 263
361 308
361 373
361 394
361 403
361 408
361 410
361 435
361 485
361 501
361 510
361 523
361 524
362 0
362 1
362 2
362 3
362 4
362 5
362 6
362 7
362 11
362 18
362 27
362 30
362 68
362 69
362 108
362 132
362 183
362 209
362 214
362 220
362 253
362 289
362 313
362 340
362 404
362 506
363 0
363 1
363 2
363 3
363 4
363 24
363 32
363 269
363 375
363 546
364 2
364 3
364 6
364 24
364 30
364 50
364 51
364 52
364 61
364 65
364 66
364 69
364 70
364 71
364 109
364 114
364 115
364 118
364 128
364 150
364 151
364 162
364 165
364 169
364 178
364 181
364 183
364 197
364 215
364 217
364 260
364 262
364 275
364 331
364 337
364 360
364 402
365 0
365 1
365 2
365 3
365 4
365 27
365 68
365 108
365 219
365 220
365 270
365 381
365 458
365 459
365 460
365 538
365 539
366 0
366 1
366 2
366 3
366 4
366 7
367 0
367 1
367 2
367 3
367 5
367 6
367 7
367 11
367 21
367 27
367 50
367 68
367 69
367 93
367 108
367 132
367 178
367 209
367 220
367 232
367 234
367 256
367 303
367 318
367 324
367 384
368 0
368 1
368 2
368 3
368 4
368 5
368 6
368 8
368 9
368 10
368 11
368 17
368 19
368 23
368 25
368 50
368 54
368 77
368 78
368 92
368 146
368 161
368 164
368 178
368 296
368 303
368 319
368 326
368 343
368 378
368 380
368 413
368 426
368 432
368 437
368 448
368 454
368 460
368 478
368 510
368 521
368 533
368 540
368 541
369 0
369 1
369 2
369 3
369 4
369 5
369 27
369 33
369 68
369 80
369 94
369 181
369 189
369 193
369 209
369 358
369 394
369 396
369 404
370 0
370 1
370 2
370 3
370 4
370 7
370 8
370 61
370 92
370 114
370 209
370 214
370 306
370 320
370 323
370 552
370 554
371 0
371 1
371 2
371 3
371 4
371 5
371 6
371 7
371 11
371 16
371 23
371 55
371 68
371 178
371 378
371 380
371 399
371 409
371 412
371 413
371 456
371 485
371 507
371 571
372 0
372 1
372 2
372 3
372 4
372 5
372 7
372 51
372 69
372 125
372 229
372 278
372 384
373 0
373 1
373 2
373 3
373 4
373 5
373 6
373 7
373 16
373 33
373 50
373 52
373 94
373 178
373 209
373 308
373 361
373 399
373 485
373 510
373 517
374 0
374 1
374 2
374 36
374 61
374 209
374 284
374 314
374 322
374 349
374 549
375 0
375 1
375 2
375 4
375 6
375 36
375 51
375 57
375 63
375 70
375 72
375 105
375 116
375 125
375 126
375 151
375 153
375 197
375 208
375 215
375 253
375 289
375 290
375 291
375 363
375 483
376 0
376 1
376 2
376 4
376 5
376 162
376 560
377 0
377 1
377 2
377 3
377 51
377 106
377 181
378 1
378 2
378 3
378 4
378 5
378 6
378 8
378 9
378 11
378 12
378 25
378 33
378 41
378 48
378 50
378 54
378 61
378 65
378 68
378 73
378 93
378 110
378 146
378 148
378 156
378 161
378 178
378 181
378 209
378 277
378 285
378 299
378 303
378 315
378 316
378 350
378 351
378 368
378 371
378 380
378 387
378 412
378 413
378 418
378 419
378 420
378 431
378 441
378 454
378 456
378 460
378 467
378 478
378 484
378 486
378 503
378 507
378 509
378 511
378 513
378 528
378 529
378 530
378 535
378 537
378 541
379 0
379 1
379 2
379 3
379 8
379 70
379 84
379 112
379 120
379 162
379 234
379 324
379 413
379 494
379 495
379 557
379 565
380 2
380 3
380 4
380 5
380 6
380 8
380 9
380 11
380 12
380 33
380 50
380 54
380 68
380 73
380 110
380 148
380 178
380 200
380 227
380 234
380 251
380 315
380 330
380 368
380 371
380 378
380 387
380 412
380 418
380 456
380 478
380 484
380 530
381 0
381 1
381 2
381 4
381 5
381 6
381 9
381 10
381 29
381 35
381 62
381 69
381 88
381 108
381 147
381 174
381 183
381 199
381 285
381 303
381 307
381 311
381 365
381 419
381 445
381 448
381 458
381 459
381 460
381 477
381 486
381 492
381 509
381 572
382 0
382 1
382 2
382 4
382 62
382 96
382 291
382 299
382 309
382 430
383 0
383 1
383 2
383 3
383 4
383 5
383 61
383 162
383 251
383 292
383 389
383 397
383 403
383 424
383 425
383 430
384 0
384 1
384 2
384 3
384 4
384 5
384 6
384 7
384 8
384 10
384 11
384 14
384 19
384 21
384 28
384 31
384 33
384 51
384 61
384 62
384 69
384 79
384 93
384 96
384 127
384 131
384 132
384 232
384 243
384 251
384 253
384 256
384 321
384 367
384 372
384 387
384 405
384 436
384 521
385 0
385 1
385 2
385 3
385 389
386 0
386 1
386 2
386 3
386 4
386 11
386 17
386 181
386 320
386 396
386 409
386 433
386 572
387 0
387 1
387 2
387 3
387 4
387 5
387 7
387 23
387 40
387 50
387 66
387 68
387 214
387 339
387 378
387 380
387 384
387 409
387 467
387 478
387 553
388 0
388 1
388 2
388 3
388 270
389 0
389 1
389 2
389 3
389 4
389 5
389 7
389 10
389 21
389 22
389 32
389 57
389 65
389 72
389 139
389 193
389 291
389 294
389 383
389 385
389 389
389 392
389 394
389 396
389 397
389 403
389 404
389 406
389 410
389 413
389 423
389 424
389 425
389 444
389 494
389 495
389 496
390 0
390 2
390 3
390 4
390 6
390 7
390 8
390 20
390 61
390 97
390 307
390 352
390 569
391 0
391 1
391 2
391 3
391 4
391 164
391 351
392 0
392 1
392 2
392 3
392 389
392 425
393 0
393 1
393 2
393 3
393 4
393 6
393 10
393 11
393 79
393 179
393 460
394 0
394 1
394 2
394 3
394 4
394 5
394 6
394 7
394 16
394 21
394 23
394 55
394 65
394 77
394 93
394 94
394 102
394 155
394 162
394 178
394 232
394 234
394 256
394 361
394 369
394 389
394 396
394 399
394 412
394 456
394 485
394 571
395 0
395 2
395 3
395 4
395 5
395 6
395 299
395 317
395 445
395 492
395 500
396 0
396 1
396 2
396 3
396 4
396 5
396 7
396 11
396 16
396 17
396 32
396 33
396 54
396 61
396 80
396 86
396 101
396 108
396 174
396 181
396 194
396 209
396 214
396 296
396 313
396 320
396 348
396 369
396 386
396 389
396 394
396 403
396 411
396 437
396 438
396 441
396 543
396 572
397 0
397 1
397 2
397 3
397 383
397 389
397 424
397 425
397 427
398 0
398 1
398 2
398 3
398 4
398 6
398 77
398 131
398 188
398 196
398 319
398 411
398 413
398 433
398 438
398 493
399 0
399 1
399 2
399 3
399 4
399 6
399 7
399 11
399 16
399 50
399 94
399 155
399 234
399 263
399 335
399 371
399 373
399 394
399 456
399 485
400 0
400 1
400 2
400 3
400 4
400 77
400 135
400 237
400 261
400 269
400 305
400 448
400 566
400 569
401 0
401 1
401 2
401 3
401 4
401 5
401 23
401 181
401 243
401 403
401 418
401 530
401 564
402 0
402 1
402 2
402 3
402 4
402 6
402 8
402 24
402 31
402 32
402 106
402 118
402 138
402 246
402 269
402 364
403 0
403 1
403 2
403 3
403 4
403 5
403 6
403 8
403 13
403 15
403 68
403 72
403 74
403 93
403 102
403 112
403 113
403 114
403 118
403 139
403 164
403 181
403 202
403 263
403 298
403 308
403 330
403 361
403 383
403 389
403 396
403 401
403 416
403 418
403 444
403 448
404 0
404 1
404 2
404 3
404 4
404 7
404 14
404 21
404 52
404 80
404 171
404 202
404 232
404 236
404 362
404 369
404 389
404 439
405 0
405 1
405 2
405 3
405 4
405 8
405 30
405 68
405 80
405 85
405 102
405 197
405 345
405 384
405 413
405 435
405 559
406 0
406 1
406 2
406 3
406 4
406 5
406 10
406 21
406 29
406 35
406 74
406 86
406 102
406 119
406 155
406 167
406 202
406 261
406 272
406 308
406 389
406 416
406 428
406 509
406 541
407 0
407 1
407 2
407 3
407 4
407 5
407 162
407 234
407 303
407 324
408 0
408 1
408 2
408 3
408 6
408 74
408 243
408 263
408 308
408 361
408 416
409 0
409 1
409 2
409 3
409 4
409 5
409 6
409 7
409 9
409 10
409 11
409 55
409 61
409 66
409 68
409 73
409 96
409 101
409 120
409 161
409 264
409 303
409 320
409 371
409 386
409 387
409 410
409 433
409 441
409 571
410 0
410 1
410 2
410 3
410 4
410 5
410 6
410 7
410 10
410 11
410 12
410 15
410 16
410 22
410 28
410 50
410 54
410 69
410 74
410 84
410 87
410 102
410 106
410 162
410 183
410 190
410 245
410 280
410 292
410 296
410 305
410 322
410 354
410 361
410 389
410 409
410 416
410 433
410 438
410 444
410 448
410 470
410 476
410 479
410 485
410 490
410 494
410 495
410 496
410 505
410 510
410 590
410 592
411 0
411 1
411 2
411 3
411 4
411 6
411 10
411 11
411 17
411 23
411 54
411 68
411 69
411 94
411 110
411 131
411 132
411 134
411 175
411 178
411 211
411 219
411 229
411 234
411 245
411 352
411 396
411 398
411 412
411 473
411 503
411 507
411 509
411 526
411 532
412 0
412 2
412 3
412 5
412 6
412 7
412 9
412 11
412 19
412 110
412 165
412 178
412 179
412 215
412 371
412 378
412 380
412 394
412 411
412 413
412 433
412 459
412 460
412 507
412 521
412 522
412 571
413 0
413 1
413 2
413 3
413 4
413 5
413 6
413 7
413 8
413 9
413 11
413 19
413 23
413 27
413 29
413 35
413 48
413 50
413 61
413 69
413 73
413 74
413 79
413 87
413 92
413 107
413 117
413 126
413 132
413 162
413 164
413 165
413 169
413 174
413 178
413 179
413 181
413 188
413 194
413 197
413 206
413 209
413 210
413 214
413 222
413 227
413 232
413 234
413 235
413 243
413 247
413 249
413 256
413 259
413 277
413 285
413 290
413 292
413 303
413 304
413 311
413 312
413 313
413 315
413 323
413 342
413 350
413 358
413 368
413 371
413 378
413 379
413 389
413 398
413 405
413 412
413 416
413 418
413 433
413 437
413 440
413 451
413 458
413 462
413 463
413 464
413 467
413 478
413 490
413 507
413 510
413 518
413 523
413 525
413 529
413 530
413 531
413 539
413 571
414 0
414 1
414 2
414 3
414 4
414 5
414 6
414 7
414 8
414 13
414 65
414 85
414 103
414 130
414 303
414 415
414 512
414 561
415 0
415 1
415 2
415 3
415 7
415 39
415 50
415 55
415 62
415 66
415 103
415 125
415 130
415 162
415 233
415 234
415 244
415 246
415 303
415 335
415 414
415 425
415 469
415 512
415 572
416 0
416 1
416 2
416 3
416 4
416 5
416 6
416 35
416 51
416 61
416 74
416 169
416 214
416 270
416 308
416 403
416 406
416 408
416 410
416 413
416 440
416 444
416 456
416 479
416 485
417 0
417 1
417 2
417 3
417 4
417 5
417 6
417 9
417 10
417 11
417 12
417 14
417 23
417 33
417 50
417 65
417 78
417 92
417 93
417 108
417 127
417 135
417 161
417 164
417 179
417 191
417 214
417 219
417 222
417 241
417 322
417 348
417 432
417 433
417 438
417 454
417 480
417 486
417 501
417 521
417 526
418 0
418 1
418 2
418 3
418 4
418 5
418 6
418 7
418 8
418 9
418 17
418 23
418 50
418 69
418 74
418 87
418 92
418 102
418 110
418 118
418 132
418 148
418 152
418 178
418 195
418 197
418 249
418 251
418 263
418 264
418 267
418 270
418 277
418 315
418 322
418 326
418 328
418 330
418 378
418 380
418 401
418 403
418 413
418 460
418 467
418 490
418 538
418 539
419 0
419 1
419 2
419 3
419 4
419 5
419 6
419 7
419 8
419 9
419 10
419 11
419 25
419 50
419 68
419 92
419 178
419 209
419 277
419 285
419 296
419 319
419 322
419 343
419 378
419 381
419 419
419 434
419 437
419 477
419 486
419 509
419 510
419 536
419 541
419 571
420 1
420 3
420 4
420 5
420 6
420 9
420 10
420 11
420 19
420 25
420 50
420 77
420 92
420 195
420 277
420 378
420 433
420 434
420 467
420 477
420 521
420 536
421 0
421 1
421 2
421 3
421 4
421 5
421 7
421 10
421 31
421 36
421 50
421 51
421 62
421 80
421 164
421 214
421 278
421 330
421 588
422 0
422 1
422 2
422 3
422 4
422 5
422 7
422 8
422 42
422 197
422 263
422 272
422 512
422 583
423 0
423 1
423 2
423 3
423 4
423 5
423 6
423 7
423 8
423 20
423 32
423 34
423 39
423 50
423 61
423 68
423 85
423 103
423 130
423 162
423 236
423 244
423 272
423 389
423 512
423 561
423 569
424 0
424 1
424 2
424 3
424 291
424 383
424 389
424 397
424 425
425 0
425 1
425 2
425 3
425 7
425 162
425 291
425 383
425 389
425 392
425 397
425 415
425 424
426 0
426 1
426 2
426 3
426 6
426 7
426 8
426 9
426 10
426 11
426 17
426 32
426 209
426 253
426 343
426 368
426 533
427 0
427 1
427 2
427 3
427 63
427 162
427 397
428 0
428 1
428 2
428 3
428 6
428 7
428 10
428 11
428 17
428 131
428 220
428 245
428 406
429 0
429 1
429 2
429 3
429 4
429 5
429 9
429 51
429 92
429 152
429 178
429 456
429 485
429 518
429 520
430 0
430 1
430 2
430 3
430 4
430 5
430 41
430 61
430 65
430 68
430 181
430 303
430 382
430 383
430 492
430 507
430 581
430 593
431 2
431 3
431 4
431 7
431 8
431 19
431 21
431 25
431 27
431 78
431 92
431 247
431 248
431 322
431 326
431 330
431 378
431 432
431 477
431 486
431 509
431 521
431 540
432 0
432 1
432 2
432 3
432 4
432 5
432 7
432 86
432 156
432 191
432 245
432 368
432 417
432 431
432 438
432 477
432 513
432 520
432 550
433 0
433 1
433 2
433 3
433 4
433 5
433 6
433 8
433 9
433 11
433 14
433 21
433 27
433 39
433 41
433 42
433 50
433 68
433 77
433 92
433 110
433 128
433 131
433 132
433 156
433 189
433 195
433 197
433 214
433 219
433 251
433 277
433 303
433 315
433 357
433 386
433 398
433 409
433 410
433 412
433 413
433 417
433 420
433 434
433 454
433 456
433 467
433 478
433 486
433 509
433 527
433 530
433 550
434 0
434 1
434 2
434 3
434 4
434 5
434 6
434 9
434 10
434 11
434 19
434 33
434 50
434 92
434 264
434 285
434 419
434 420
434 433
434 456
434 477
434 521
434 538
434 539
435 0
435 1
435 3
435 29
435 69
435 177
435 361
435 405
436 0
436 1
436 2
436 3
436 31
436 69
436 70
436 138
436 384
437 1
437 2
437 3
437 5
437 6
437 9
437 10
437 164
437 188
437 247
437 248
437 285
437 323
437 368
437 396
437 413
437 419
437 477
437 521
437 525
437 531
437 533
438 0
438 3
438 6
438 35
438 38
438 39
438 51
438 52
438 54
438 61
438 68
438 70
438 146
438 181
438 183
438 209
438 214
438 291
438 292
438 320
438 322
438 348
438 396
438 398
438 410
438 417
438 432
438 440
438 441
438 454
438 470
438 475
438 480
438 503
438 526
438 527
438 544
439 0
439 1
439 3
439 4
439 6
439 7
439 10
439 11
439 108
439 404
440 0
440 1
440 2
440 3
440 4
440 5
440 29
440 74
440 178
440 202
440 243
440 270
440 413
440 416
440 438
440 444
440 485
440 523
441 0
441 2
441 3
441 5
441 10
441 25
441 55
441 209
441 320
441 378
441 396
441 409
441 438
441 536
442 1
442 2
442 3
442 4
442 5
442 15
442 20
442 30
442 50
442 61
442 77
442 78
442 84
442 104
442 120
442 139
442 143
442 195
442 227
442 234
442 266
442 447
442 448
442 455
442 464
442 465
442 468
442 471
442 472
442 497
443 0
443 1
443 2
443 3
443 8
443 37
443 162
443 217
443 272
443 351
443 524
444 2
444 3
444 4
444 74
444 123
444 291
444 299
444 302
444 308
444 389
444 403
444 410
444 416
444 440
445 0
445 1
445 3
445 4
445 5
445 6
445 7
445 14
445 21
445 25
445 68
445 181
445 202
445 232
445 381
445 395
445 522
445 553
446 0
446 1
446 2
446 4
446 317
447 0
447 3
447 4
447 6
447 15
447 68
447 227
447 442
447 461
447 589
447 590
448 0
448 1
448 2
448 3
448 4
448 5
448 6
448 7
448 8
448 9
448 10
448 11
448 13
448 15
448 18
448 22
448 30
448 39
448 48
448 50
448 51
448 54
448 58
448 62
448 68
448 69
448 70
448 78
448 79
448 80
448 84
448 93
448 95
448 111
448 126
448 140
448 162
448 164
448 171
448 178
448 199
448 201
448 202
448 209
448 214
448 215
448 228
448 234
448 242
448 261
448 274
448 280
448 296
448 303
448 308
448 329
448 343
448 358
448 368
448 381
448 400
448 403
448 410
448 442
448 451
448 456
448 470
448 494
448 495
448 496
448 505
448 506
448 522
448 534
448 535
448 537
448 590
449 0
449 1
449 2
449 3
449 4
449 7
449 58
449 65
449 70
449 77
449 78
449 79
449 81
449 95
449 111
449 133
449 135
449 167
449 183
449 227
449 263
449 272
449 274
449 329
449 350
450 0
450 1
450 4
450 9
450 175
451 0
451 2
451 3
451 4
451 5
451 7
451 92
451 101
451 209
451 214
451 326
451 413
451 448
451 467
451 470
451 479
451 493
451 505
451 530
451 565
452 0
452 1
452 2
452 3
452 4
452 5
452 6
452 11
452 291
452 292
452 348
452 454
452 480
453 0
453 1
453 2
453 3
453 4
453 7
454 0
454 1
454 2
454 3
454 4
454 5
454 6
454 7
454 11
454 17
454 25
454 39
454 50
454 51
454 54
454 65
454 101
454 178
454 202
454 209
454 291
454 296
454 348
454 368
454 378
454 417
454 433
454 438
454 452
454 470
454 480
454 507
455 1
455 3
455 8
455 13
455 15
455 20
455 85
455 442
455 589
455 590
456 0
456 1
456 2
456 3
456 4
456 7
456 12
456 23
456 25
456 33
456 51
456 55
456 61
456 68
456 73
456 77
456 87
456 152
456 155
456 156
456 197
456 206
456 219
456 222
456 227
456 234
456 243
456 247
456 251
456 272
456 277
456 296
456 303
456 315
456 323
456 350
456 371
456 378
456 380
456 394
456 399
456 416
456 429
456 433
456 434
456 448
456 462
456 477
456 486
456 517
456 522
456 550
457 0
457 1
457 2
457 3
457 4
457 5
457 7
457 9
457 16
457 17
457 19
457 21
457 61
457 127
457 189
457 232
457 272
457 521
458 0
458 1
458 2
458 3
458 4
458 9
458 27
458 86
458 92
458 127
458 147
458 156
458 195
458 229
458 245
458 342
458 365
458 381
458 413
458 459
458 460
458 462
458 486
458 513
458 550
459 1
459 2
459 3
459 4
459 5
459 6
459 8
459 9
459 11
459 17
459 19
459 54
459 65
459 68
459 69
459 73
459 110
459 147
459 161
459 178
459 181
459 195
459 209
459 245
459 319
459 323
459 339
459 365
459 381
459 412
459 458
459 460
459 477
459 521
459 526
460 0
460 1
460 2
460 3
460 4
460 5
460 10
460 25
460 35
460 73
460 147
460 178
460 195
460 243
460 323
460 342
460 365
460 368
460 378
460 381
460 393
460 412
460 418
460 458
460 459
460 477
460 486
461 0
461 1
461 4
461 68
461 234
461 280
461 447
461 496
461 590
462 0
462 1
462 2
462 3
462 4
462 5
462 6
462 8
462 9
462 12
462 14
462 25
462 39
462 101
462 224
462 306
462 319
462 413
462 456
462 458
462 486
462 522
463 0
463 1
463 2
463 3
463 4
463 68
463 77
463 227
463 413
463 592
464 1
464 4
464 5
464 6
464 18
464 20
464 30
464 104
464 120
464 151
464 188
464 266
464 413
464 442
464 499
464 506
465 0
465 1
465 2
465 3
465 4
465 15
465 84
465 214
465 442
465 589
465 590
466 0
466 1
466 2
466 4
466 5
466 15
466 32
466 84
466 106
466 246
466 313
466 590
467 0
467 1
467 2
467 3
467 4
467 5
467 9
467 19
467 25
467 28
467 68
467 165
467 219
467 247
467 378
467 387
467 413
467 418
467 420
467 433
467 451
467 507
467 509
467 521
467 522
467 529
468 0
468 1
468 2
468 3
468 4
468 15
468 62
468 143
468 442
468 471
468 472
468 589
468 590
469 0
469 1
469 2
469 3
469 4
469 15
469 22
469 84
469 234
469 244
469 280
469 415
469 496
469 589
469 590
470 0
470 1
470 2
470 3
470 4
470 5
470 6
470 11
470 17
470 34
470 61
470 77
470 93
470 95
470 131
470 139
470 178
470 209
470 211
470 227
470 228
470 234
470 251
470 273
470 351
470 410
470 438
470 448
470 451
470 454
470 479
470 480
470 488
470 527
470 572
470 575
471 0
471 1
471 3
471 4
471 5
471 8
471 13
471 15
471 22
471 50
471 61
471 139
471 175
471 195
471 209
471 214
471 227
471 442
471 468
471 494
471 508
471 589
471 590
472 0
472 1
472 2
472 3
472 8
472 13
472 15
472 84
472 324
472 442
472 468
472 589
472 590
473 0
473 1
473 2
473 3
473 4
473 6
473 69
473 411
473 532
474 0
474 1
474 2
474 3
474 4
474 7
474 24
474 31
474 61
474 213
474 498
475 0
475 1
475 2
475 3
475 4
475 11
475 50
475 161
475 291
475 438
475 480
476 0
476 1
476 4
476 5
476 6
476 7
476 11
476 25
476 178
476 209
476 410
476 507
477 0
477 1
477 2
477 3
477 4
477 6
477 7
477 9
477 10
477 11
477 25
477 54
477 61
477 68
477 77
477 93
477 101
477 156
477 277
477 291
477 322
477 381
477 419
477 420
477 431
477 432
477 434
477 437
477 456
477 459
477 460
477 486
477 510
477 529
477 535
477 537
477 538
477 540
477 541
477 544
477 571
478 0
478 1
478 2
478 3
478 4
478 5
478 6
478 7
478 8
478 9
478 11
478 21
478 23
478 25
478 77
478 94
478 161
478 164
478 197
478 251
478 285
478 291
478 306
478 316
478 317
478 319
478 326
478 339
478 368
478 378
478 380
478 387
478 413
478 433
478 484
478 507
478 519
478 522
478 530
478 535
478 571
479 0
479 1
479 2
479 4
479 6
479 35
479 40
479 50
479 61
479 74
479 118
479 164
479 270
479 324
479 410
479 416
479 451
479 470
479 575
480 0
480 2
480 3
480 4
480 6
480 17
480 19
480 39
480 61
480 78
480 95
480 101
480 131
480 161
480 209
480 417
480 438
480 452
480 454
480 470
480 475
480 521
480 527
481 0
481 1
481 2
481 3
481 4
481 62
481 79
481 111
481 167
481 227
481 272
481 350
481 358
482 0
482 1
482 2
482 3
482 4
482 36
482 40
482 48
482 61
482 70
482 565
483 0
483 1
483 4
483 6
483 234
483 240
483 375
484 0
484 1
484 2
484 3
484 4
484 6
484 8
484 9
484 10
484 11
484 17
484 94
484 101
484 161
484 229
484 264
484 277
484 378
484 380
484 478
484 490
484 527
485 0
485 1
485 4
485 29
485 36
485 50
485 51
485 61
485 62
485 65
485 68
485 74
485 102
485 107
485 152
485 155
485 162
485 206
485 222
485 272
485 311
485 357
485 361
485 371
485 373
485 394
485 399
485 410
485 416
485 429
485 440
485 501
485 523
486 0
486 1
486 2
486 3
486 4
486 5
486 6
486 7
486 9
486 10
486 11
486 14
486 19
486 27
486 50
486 78
486 86
486 92
486 127
486 156
486 161
486 178
486 195
486 214
486 219
486 245
486 272
486 323
486 342
486 351
486 378
486 381
486 417
486 419
486 431
486 433
486 456
486 458
486 460
486 462
486 477
486 513
486 521
486 550
487 0
487 1
487 2
487 3
487 4
487 6
487 8
487 34
487 48
487 70
487 75
487 168
487 197
488 0
488 1
488 2
488 4
488 5
488 273
488 338
488 351
488 470
489 0
489 1
489 2
489 4
489 5
489 65
489 68
489 299
489 309
489 500
490 0
490 1
490 2
490 3
490 4
490 5
490 6
490 11
490 74
490 221
490 234
490 249
490 270
490 410
490 413
490 418
490 484
490 585
491 1
491 2
491 3
491 4
491 6
491 9
491 10
491 19
491 21
491 39
491 50
491 61
491 68
491 146
491 177
491 214
491 339
491 519
491 521
491 522
491 531
491 536
491 543
492 1
492 2
492 3
492 4
492 5
492 6
492 41
492 309
492 317
492 381
492 395
492 430
492 502
493 0
493 1
493 2
493 3
493 4
493 5
493 6
493 17
493 92
493 197
493 398
493 451
493 518
494 0
494 1
494 2
494 3
494 4
494 5
494 35
494 42
494 48
494 50
494 61
494 68
494 69
494 77
494 78
494 84
494 113
494 118
494 143
494 160
494 164
494 165
494 178
494 181
494 196
494 209
494 211
494 214
494 227
494 228
494 285
494 313
494 324
494 330
494 343
494 358
494 379
494 389
494 410
494 448
494 471
494 505
495 3
495 4
495 5
495 61
495 68
495 69
495 77
495 84
495 93
495 113
495 118
495 139
495 162
495 165
495 178
495 181
495 211
495 214
495 227
495 285
495 313
495 324
495 330
495 379
495 389
495 410
495 448
495 505
496 0
496 1
496 2
496 3
496 4
496 5
496 35
496 50
496 61
496 68
496 69
496 77
496 78
496 84
496 93
496 113
496 118
496 139
496 143
496 165
496 178
496 181
496 211
496 214
496 227
496 228
496 285
496 307
496 313
496 324
496 330
496 358
496 389
496 410
496 448
496 461
496 469
496 505
497 0
497 1
497 15
497 84
497 442
497 590
498 0
498 1
498 2
498 3
498 4
498 31
498 32
498 61
498 162
498 474
499 0
499 1
499 2
499 4
499 5
499 6
499 18
499 30
499 253
499 464
499 506
500 0
500 2
500 3
500 4
500 5
500 51
500 61
500 68
500 162
500 292
500 299
500 309
500 395
500 489
500 502
500 504
500 528
500 564
501 0
501 1
501 2
501 3
501 4
501 5
501 6
501 7
501 8
501 10
501 16
501 23
501 42
501 61
501 206
501 234
501 267
501 318
501 361
501 417
501 485
501 571
502 0
502 1
502 2
502 3
502 4
502 5
502 6
502 183
502 185
502 197
502 309
502 492
502 500
503 0
503 1
503 2
503 3
503 4
503 5
503 7
503 8
503 10
503 17
503 68
503 94
503 110
503 229
503 241
503 277
503 303
503 319
503 378
503 411
503 438
503 571
504 0
504 1
504 2
504 3
504 4
504 251
504 292
504 299
504 317
504 500
505 0
505 1
505 2
505 3
505 4
505 22
505 68
505 93
505 118
505 139
505 178
505 209
505 221
505 224
505 227
505 228
505 280
505 285
505 307
505 308
505 343
505 358
505 410
505 448
505 451
505 494
505 495
505 496
506 0
506 1
506 2
506 3
506 4
506 6
506 30
506 36
506 48
506 50
506 51
506 54
506 61
506 65
506 78
506 104
506 120
506 122
506 128
506 151
506 153
506 163
506 164
506 169
506 178
506 181
506 183
506 195
506 199
506 202
506 224
506 234
506 260
506 286
506 290
506 291
506 296
506 303
506 307
506 331
506 356
506 357
506 359
506 362
506 448
506 464
506 499
506 559
507 1
507 2
507 3
507 4
507 5
507 6
507 7
507 11
507 54
507 73
507 110
507 197
507 227
507 251
507 303
507 315
507 371
507 378
507 411
507 412
507 413
507 430
507 454
507 467
507 476
507 478
507 509
507 522
507 529
507 530
508 0
508 1
508 2
508 3
508 15
508 471
508 590
509 0
509 1
509 2
509 3
509 4
509 5
509 6
509 7
509 9
509 10
509 14
509 21
509 23
509 25
509 33
509 50
509 68
509 80
509 92
509 161
509 178
509 189
509 267
509 291
509 322
509 323
509 326
509 339
509 378
509 381
509 406
509 411
509 419
509 431
509 433
509 467
509 507
509 510
509 518
509 522
509 529
510 0
510 1
510 2
510 3
510 4
510 5
510 6
510 11
510 50
510 68
510 74
510 92
510 94
510 178
510 209
510 248
510 270
510 361
510 368
510 373
510 410
510 413
510 419
510 477
510 509
510 534
511 0
511 1
511 3
511 5
511 6
511 8
511 9
511 378
511 536
512 2
512 5
512 8
512 34
512 39
512 65
512 69
512 85
512 103
512 117
512 125
512 130
512 175
512 233
512 234
512 244
512 246
512 298
512 335
512 414
512 415
512 422
512 423
513 0
513 1
513 3
513 4
513 5
513 27
513 34
513 77
513 86
513 87
513 156
513 214
513 219
513 267
513 342
513 378
513 432
513 458
513 486
513 514
513 592
514 0
514 1
514 2
514 3
514 4
514 5
514 65
514 71
514 513
515 0
515 1
515 2
515 3
515 4
515 5
515 16
515 209
515 215
515 517
515 554
516 0
516 1
516 2
516 4
516 5
516 65
516 66
516 234
516 331
516 566
516 567
517 0
517 1
517 2
517 3
517 4
517 5
517 6
517 7
517 16
517 70
517 94
517 107
517 155
517 209
517 270
517 373
517 456
517 515
518 1
518 3
518 4
518 5
518 7
518 8
518 9
518 19
518 21
518 27
518 68
518 132
518 147
518 185
518 188
518 196
518 214
518 227
518 256
518 292
518 305
518 323
518 343
518 358
518 413
518 429
518 493
518 509
518 521
518 540
519 0
519 1
519 2
519 3
519 4
519 5
519 6
519 7
519 8
519 9
519 11
519 12
519 19
519 39
519 68
519 77
519 161
519 245
519 303
519 316
519 326
519 478
519 491
519 521
519 528
519 542
519 543
520 0
520 1
520 2
520 3
520 4
520 5
520 6
520 9
520 12
520 14
520 21
520 68
520 127
520 135
520 164
520 178
520 189
520 214
520 222
520 245
520 429
520 432
520 522
520 542
521 0
521 2
521 3
521 4
521 5
521 6
521 7
521 8
521 9
521 10
521 39
521 50
521 54
521 65
521 68
521 77
521 92
521 93
521 95
521 132
521 147
521 161
521 222
521 227
521 241
521 242
521 245
521 247
521 251
521 267
521 303
521 330
521 358
521 368
521 384
521 412
521 417
521 420
521 431
521 434
521 437
521 457
521 459
521 467
521 480
521 486
521 491
521 518
521 519
521 525
521 537
521 540
521 542
521 592
522 0
522 1
522 3
522 4
522 5
522 6
522 7
522 8
522 9
522 12
522 25
522 61
522 69
522 152
522 178
522 181
522 209
522 242
522 296
522 306
522 315
522 316
522 350
522 351
522 412
522 445
522 448
522 456
522 462
522 467
522 478
522 491
522 507
522 509
522 520
522 535
522 542
522 543
523 1
523 3
523 4
523 5
523 6
523 155
523 361
523 413
523 440
523 485
524 0
524 1
524 2
524 5
524 13
524 65
524 79
524 140
524 244
524 361
524 443
524 561
525 2
525 3
525 4
525 6
525 8
525 247
525 303
525 316
525 319
525 413
525 437
525 521
525 531
526 0
526 2
526 3
526 4
526 6
526 17
526 50
526 54
526 101
526 209
526 411
526 417
526 438
526 459
526 527
526 537
526 544
527 0
527 1
527 2
527 3
527 4
527 6
527 7
527 11
527 17
527 54
527 161
527 164
527 264
527 277
527 292
527 348
527 433
527 438
527 470
527 480
527 484
527 526
528 0
528 1
528 2
528 3
528 4
528 5
528 6
528 7
528 10
528 12
528 25
528 50
528 181
528 309
528 378
528 500
528 519
529 0
529 1
529 2
529 3
529 4
529 5
529 6
529 12
529 25
529 245
529 267
529 315
529 350
529 378
529 413
529 467
529 477
529 507
529 509
529 536
529 571
530 0
530 1
530 3
530 4
530 5
530 6
530 7
530 8
530 9
530 10
530 11
530 16
530 17
530 23
530 148
530 152
530 241
530 315
530 322
530 330
530 378
530 380
530 401
530 413
530 433
530 451
530 478
530 507
531 0
531 1
531 2
531 3
531 6
531 7
531 9
531 319
531 413
531 437
531 491
531 525
532 0
532 1
532 3
532 4
532 6
532 251
532 351
532 411
532 473
533 3
533 4
533 5
533 6
533 7
533 9
533 10
533 17
533 69
533 120
533 161
533 164
533 243
533 247
533 308
533 323
533 326
533 368
533 426
533 437
533 536
534 1
534 3
534 4
534 6
534 7
534 10
534 17
534 50
534 54
534 101
534 161
534 247
534 319
534 448
534 510
534 536
535 0
535 1
535 2
535 3
535 4
535 6
535 7
535 8
535 9
535 10
535 11
535 25
535 39
535 51
535 61
535 148
535 296
535 308
535 378
535 448
535 477
535 478
535 522
535 536
536 3
536 4
536 6
536 8
536 50
536 77
536 93
536 101
536 146
536 161
536 165
536 201
536 209
536 220
536 236
536 241
536 243
536 251
536 277
536 303
536 306
536 308
536 316
536 326
536 339
536 343
536 419
536 420
536 441
536 491
536 511
536 529
536 533
536 534
536 535
536 543
537 0
537 1
537 2
537 3
537 4
537 5
537 6
537 9
537 17
537 19
537 25
537 54
537 101
537 291
537 296
537 378
537 448
537 477
537 521
537 526
538 0
538 1
538 2
538 3
538 4
538 5
538 7
538 8
538 9
538 27
538 62
538 65
538 78
538 156
538 195
538 219
538 220
538 245
538 247
538 319
538 342
538 365
538 418
538 434
538 477
538 539
538 576
539 0
539 1
539 2
539 3
539 4
539 5
539 6
539 9
539 10
539 61
539 65
539 195
539 315
539 365
539 413
539 418
539 434
539 538
540 0
540 1
540 2
540 3
540 4
540 5
540 6
540 7
540 8
540 9
540 16
540 19
540 54
540 146
540 227
540 330
540 368
540 431
540 477
540 518
540 521
541 0
541 1
541 2
541 3
541 4
541 5
541 6
541 9
541 10
541 25
541 146
541 277
541 368
541 378
541 406
541 419
541 477
542 0
542 2
542 5
542 9
542 14
542 50
542 162
542 164
542 245
542 519
542 520
542 521
542 522
543 0
543 1
543 2
543 3
543 4
543 5
543 6
543 7
543 9
543 10
543 39
543 50
543 55
543 178
543 320
543 396
543 491
543 519
543 522
543 536
544 0
544 1
544 2
544 3
544 6
544 9
544 10
544 11
544 86
544 209
544 245
544 438
544 477
544 526
545 0
545 1
545 48
545 61
545 65
546 0
546 1
546 2
546 3
546 35
546 48
546 51
546 90
546 105
546 183
546 185
546 197
546 363
546 572
547 50
547 77
547 162
547 218
547 264
548 0
548 1
548 2
548 7
548 50
548 164
548 214
548 215
548 251
548 308
548 574
549 2
549 3
549 50
549 52
549 61
549 69
549 81
549 114
549 175
549 224
549 278
549 299
549 316
549 374
550 27
550 50
550 68
550 77
550 78
550 92
550 156
550 313
550 330
550 350
550 432
550 433
550 456
550 458
550 486
551 1
551 2
551 50
551 52
551 56
551 61
551 69
551 70
551 121
551 166
551 171
551 175
551 185
551 197
551 208
551 210
551 297
551 305
552 50
552 61
552 68
552 214
552 299
552 306
552 349
552 370
553 30
553 50
553 51
553 61
553 62
553 65
553 68
553 88
553 129
553 164
553 175
553 178
553 192
553 197
553 209
553 290
553 387
553 445
554 2
554 3
554 4
554 33
554 34
554 36
554 48
554 50
554 52
554 61
554 65
554 66
554 68
554 70
554 71
554 81
554 164
554 169
554 175
554 185
554 206
554 210
554 299
554 300
554 306
554 316
554 370
554 515
555 0
555 1
555 2
555 62
555 299
556 1
556 52
556 62
556 65
556 153
556 218
556 294
556 302
556 331
557 1
557 61
557 62
557 66
557 69
557 70
557 72
557 162
557 178
557 224
557 253
557 321
557 356
557 379
558 65
559 0
559 1
559 61
559 65
559 122
559 160
559 297
559 405
559 506
559 572
560 1
560 61
560 62
560 65
560 66
560 172
560 174
560 183
560 196
560 283
560 288
560 300
560 340
560 376
560 572
561 1
561 2
561 5
561 51
561 65
561 68
561 70
561 79
561 94
561 120
561 125
561 139
561 140
561 227
561 233
561 244
561 246
561 312
561 330
561 335
561 414
561 423
561 524
562 0
562 2
562 3
562 6
562 65
562 352
563 1
563 51
563 52
563 62
563 65
563 71
563 307
563 340
564 0
564 2
564 3
564 35
564 48
564 50
564 51
564 62
564 65
564 93
564 96
564 103
564 117
564 162
564 163
564 214
564 221
564 303
564 401
564 500
564 572
565 0
565 1
565 2
565 4
565 48
565 52
565 57
565 61
565 63
565 65
565 66
565 68
565 69
565 71
565 79
565 82
565 90
565 103
565 133
565 144
565 160
565 174
565 175
565 185
565 217
565 294
565 300
565 303
565 324
565 329
565 379
565 451
565 482
565 572
566 0
566 1
566 2
566 36
566 48
566 52
566 61
566 62
566 65
566 68
566 70
566 71
566 81
566 90
566 114
566 154
566 164
566 165
566 181
566 197
566 202
566 215
566 218
566 224
566 226
566 288
566 302
566 307
566 321
566 331
566 354
566 400
566 516
567 1
567 34
567 48
567 50
567 52
567 56
567 61
567 65
567 66
567 71
567 340
567 516
567 572
568 1
568 2
568 48
568 52
568 61
568 62
568 65
568 68
568 70
568 71
568 89
568 90
568 114
568 154
568 175
568 181
568 202
568 224
568 294
568 307
568 354
568 587
569 0
569 1
569 2
569 48
569 52
569 62
569 65
569 66
569 97
569 112
569 120
569 128
569 134
569 143
569 162
569 169
569 175
569 177
569 180
569 196
569 200
569 214
569 237
569 303
569 305
569 324
569 390
569 400
569 423
569 572
570 0
570 1
570 2
570 32
570 65
570 164
570 246
570 572
571 0
571 3
571 5
571 11
571 41
571 54
571 55
571 61
571 68
571 73
571 110
571 152
571 165
571 178
571 181
571 303
571 308
571 350
571 357
571 371
571 394
571 409
571 412
571 413
571 419
571 477
571 478
571 501
571 503
571 529
572 0
572 1
572 2
572 3
572 4
572 5
572 7
572 9
572 22
572 24
572 31
572 32
572 43
572 48
572 50
572 51
572 52
572 54
572 55
572 61
572 62
572 63
572 65
572 66
572 68
572 69
572 70
572 71
572 78
572 106
572 119
572 122
572 138
572 169
572 171
572 175
572 202
572 209
572 214
572 224
572 240
572 246
572 247
572 269
572 278
572 280
572 285
572 303
572 316
572 321
572 322
572 326
572 381
572 386
572 396
572 415
572 470
572 546
572 559
572 560
572 564
572 565
572 567
572 569
572 570
572 572
573 1
573 2
573 3
573 34
573 50
573 61
573 62
573 65
573 69
573 126
573 164
573 175
573 202
573 251
573 273
573 279
573 299
573 306
573 308
573 311
573 351
573 358
573 574
573 581
574 0
574 1
574 2
574 3
574 164
574 214
574 273
574 279
574 548
574 573
575 0
575 1
575 2
575 3
575 7
575 36
575 40
575 50
575 51
575 69
575 164
575 202
575 251
575 289
575 306
575 324
575 338
575 351
575 470
575 479
576 0
576 1
576 2
576 3
576 4
576 8
576 48
576 52
576 126
576 269
576 353
576 538
577 0
577 1
577 2
577 3
577 10
577 14
577 20
578 0
578 1
578 199
579 0
579 1
579 2
579 3
579 62
579 164
579 176
580 0
580 1
580 2
580 4
580 112
580 174
581 0
581 1
581 2
581 4
581 6
581 24
581 61
581 65
581 162
581 164
581 170
581 175
581 176
581 187
581 202
581 214
581 224
581 281
581 283
581 306
581 307
581 336
581 351
581 430
581 573
582 1
582 169
583 1
583 3
583 5
583 29
583 50
583 91
583 117
583 130
583 162
583 202
583 205
583 214
583 246
583 299
583 310
583 311
583 422
584 62
584 65
584 224
585 43
585 48
585 129
585 164
585 224
585 490
586 0
586 1
586 2
586 3
586 32
586 50
586 234
586 292
587 0
587 1
587 2
587 4
587 202
587 568
588 0
588 1
588 2
588 3
588 31
588 36
588 51
588 59
588 66
588 421
589 143
589 234
589 447
589 455
589 465
589 468
589 469
589 471
589 472
590 50
590 77
590 84
590 143
590 178
590 209
590 227
590 234
590 313
590 330
590 410
590 447
590 448
590 455
590 461
590 465
590 466
590 468
590 469
590 471
590 472
590 497
590 508
591 0
591 1
591 2
591 4
592 0
592 1
592 3
592 4
592 5
592 6
592 7
592 9
592 11
592 17
592 27
592 52
592 68
592 108
592 219
592 220
592 267
592 348
592 410
592 463
592 513
592 521
593 0
593 1
593 2
593 4
593 317
593 430
