0 0
0 1
0 2
0 3
0 4
0 5
0 6
0 7
0 8
0 10
0 14
0 17
0 19
0 20
0 21
0 22
0 25
0 27
0 28
0 30
0 32
0 34
0 36
0 37
0 38
0 39
0 40
0 41
0 43
0 44
0 45
0 46
0 47
0 48
0 49
0 50
0 51
0 52
0 53
0 54
0 55
0 56
0 57
0 58
0 59
0 60
0 61
0 62
0 63
0 64
0 65
0 66
0 67
0 68
0 69
0 70
0 71
0 72
0 73
0 74
0 75
0 76
0 77
0 78
0 79
0 80
0 81
0 82
0 83
0 84
0 85
0 86
0 87
0 88
0 89
0 90
0 91
0 92
0 93
0 94
0 95
0 96
0 97
0 98
0 99
0 100
0 101
0 102
0 103
0 104
0 105
0 106
0 107
0 108
0 109
0 110
0 111
0 112
0 113
0 114
0 115
0 116
0 117
0 118
0 119
0 120
0 121
0 122
0 123
0 124
0 125
0 126
0 127
0 128
0 129
0 130
0 131
0 132
0 133
0 134
0 135
0 136
0 137
0 138
0 139
0 140
0 141
0 142
0 143
0 144
0 145
0 146
0 147
0 148
0 149
0 150
0 151
0 152
0 153
0 154
0 155
0 156
0 157
0 158
0 159
0 160
0 161
0 162
0 163
0 164
0 165
0 166
0 167
0 168
0 169
0 170
0 171
0 172
0 173
0 174
0 175
0 176
0 177
0 178
0 179
0 180
0 181
0 182
0 183
0 184
0 185
0 186
0 187
0 188
0 189
0 190
0 191
0 192
0 193
0 194
0 195
0 196
0 197
0 198
0 199
0 200
0 201
0 202
0 203
0 204
0 205
0 206
0 207
0 208
0 209
0 210
0 211
0 212
0 213
0 214
0 215
0 216
0 217
0 218
0 219
0 220
0 221
0 222
0 223
0 224
0 225
0 226
0 227
0 228
0 229
0 230
0 231
0 232
0 233
0 234
0 235
0 236
0 237
0 238
0 239
0 240
0 241
0 242
0 243
0 244
0 245
0 246
0 247
0 248
0 249
0 250
0 251
0 252
0 253
0 254
0 255
0 256
0 257
0 258
0 260
0 261
0 262
0 263
0 264
0 265
0 266
0 267
0 268
0 269
0 270
0 271
0 272
0 273
0 274
0 275
0 276
0 277
0 278
0 279
0 280
0 281
0 282
0 283
0 284
0 285
0 286
0 287
0 288
0 290
0 291
0 292
0 293
0 294
0 295
0 296
0 297
0 298
0 299
0 300
0 301
0 302
0 303
0 304
0 306
0 307
0 308
0 309
0 310
0 311
0 312
0 313
0 316
0 317
0 318
0 319
0 320
0 321
0 322
0 323
0 324
0 326
0 327
0 328
0 329
0 330
0 331
0 332
0 333
0 334
0 335
0 336
0 337
0 338
0 339
0 340
0 341
0 342
0 343
0 344
0 345
0 346
0 347
0 348
0 349
0 350
0 351
0 352
0 353
0 354
0 355
0 356
0 357
0 358
0 359
0 360
0 361
0 362
0 363
0 364
0 365
0 366
0 367
0 368
0 369
0 370
0 371
0 372
0 373
0 374
0 375
0 377
0 378
0 379
0 380
0 381
0 382
0 383
0 384
0 385
0 386
0 387
0 388
0 389
0 390
0 391
0 392
0 393
0 394
0 395
0 396
0 397
0 398
0 399
0 400
0 401
0 402
0 403
0 404
0 405
0 406
0 407
0 408
0 409
0 410
0 411
0 412
0 413
0 414
0 415
0 416
0 417
0 418
0 419
0 420
0 421
0 422
0 423
0 424
0 425
0 426
0 427
0 428
0 429
0 430
0 431
0 432
0 433
0 434
0 436
0 437
0 438
0 439
0 440
0 441
0 442
0 443
0 444
0 445
0 446
0 447
0 448
0 449
0 450
0 451
0 452
0 453
0 454
0 455
0 456
0 457
0 458
0 461
0 462
0 463
0 464
0 465
0 466
0 467
0 468
0 469
0 470
0 471
0 472
0 473
0 474
0 475
0 476
0 477
0 478
0 479
0 480
0 481
0 482
0 483
0 484
0 485
0 487
0 488
0 489
0 490
0 491
0 492
0 493
0 494
0 495
0 496
0 498
0 499
0 500
0 501
0 502
0 503
0 504
0 505
0 506
0 507
0 508
0 509
0 510
0 511
0 512
0 513
0 514
0 515
0 516
0 517
0 518
0 519
0 520
0 521
0 522
0 523
0 524
0 525
0 526
0 527
0 528
0 530
0 531
0 532
0 533
0 534
0 535
0 536
0 537
0 539
0 540
0 541
0 542
0 543
0 544
0 545
0 546
0 547
0 548
0 549
0 550
0 551
0 552
0 553
0 554
0 555
0 556
0 557
0 558
0 559
0 560
0 561
0 562
0 563
0 564
0 565
0 566
0 567
0 568
0 569
0 570
0 571
0 572
0 573
0 574
0 575
0 576
0 577
0 578
0 579
0 580
0 581
0 582
0 583
0 584
0 585
0 586
0 587
0 588
0 589
0 590
0 591
0 592
0 593
0 594
0 595
0 596
0 597
0 598
0 599
0 600
0 602
0 605
0 606
0 608
0 609
0 610
0 611
0 612
0 613
0 614
0 615
0 616
0 617
0 618
0 619
0 620
0 621
0 622
0 623
0 624
0 625
0 626
0 627
0 629
0 630
0 631
0 632
0 633
0 634
0 635
0 636
0 637
0 638
0 639
0 640
0 641
0 642
0 643
0 644
0 645
0 646
0 647
0 648
0 649
0 650
0 651
0 653
0 654
0 655
0 656
0 657
0 658
0 659
0 661
0 662
0 663
0 664
0 665
0 666
0 667
0 668
0 669
0 670
0 671
0 672
0 673
0 674
0 675
0 676
0 677
0 678
0 679
0 680
0 681
0 682
0 683
0 684
0 685
0 686
0 687
0 688
0 689
0 690
0 691
0 692
0 695
0 697
0 698
0 699
0 700
0 701
0 702
0 703
0 704
0 705
0 706
0 707
0 708
0 709
0 710
0 712
0 714
0 716
0 717
0 718
0 719
0 721
0 722
0 723
0 724
0 725
0 726
0 729
0 730
0 732
0 733
0 734
0 735
0 736
0 737
0 738
0 740
0 741
0 743
0 745
0 746
0 747
0 748
0 749
0 750
0 751
0 752
0 753
0 754
0 755
0 756
0 757
0 758
0 759
0 760
0 761
0 762
0 763
0 764
0 765
0 766
0 767
0 768
0 769
0 770
0 771
0 772
0 773
0 774
0 775
0 777
0 778
0 779
0 780
0 781
0 782
0 783
0 784
0 785
0 786
0 787
0 788
0 789
0 790
0 791
0 792
0 795
0 796
0 797
0 798
0 799
0 800
0 801
0 802
0 803
0 805
0 806
0 807
0 808
0 809
0 810
0 811
0 812
0 813
0 814
0 815
0 816
0 817
0 818
0 819
0 820
0 821
0 822
0 823
0 824
0 825
0 826
0 827
0 828
0 829
0 830
0 833
0 834
0 835
0 836
0 837
0 838
0 839
0 840
0 841
0 842
0 843
0 844
0 845
0 846
0 847
0 848
0 849
0 850
0 851
0 852
0 853
0 856
0 857
0 858
0 859
0 860
0 861
0 862
0 863
0 864
0 865
0 866
0 867
0 868
0 869
0 870
0 871
0 872
0 873
0 874
0 875
0 876
0 877
0 878
0 879
0 880
0 881
0 882
0 883
0 884
0 885
0 886
0 887
0 888
0 889
0 890
0 891
0 892
0 893
0 895
0 896
0 897
0 898
0 899
0 900
0 901
0 902
0 903
0 904
0 905
0 906
0 907
0 908
0 909
0 911
0 912
0 913
0 914
0 915
0 916
0 917
0 918
0 919
0 920
0 921
0 922
0 923
0 924
0 925
0 926
0 928
0 929
0 931
0 932
0 933
0 934
0 935
0 936
0 937
0 938
0 939
0 940
0 941
0 943
0 944
0 948
0 949
0 950
0 951
0 952
0 954
0 956
0 957
0 960
0 962
0 963
0 965
0 966
0 967
0 968
0 969
0 970
0 971
0 972
0 973
0 974
0 975
0 978
0 979
0 980
0 981
0 982
0 983
0 984
0 985
0 986
0 987
0 989
0 990
0 991
0 992
0 993
0 994
0 995
0 998
0 1000
0 1001
0 1002
0 1003
0 1004
0 1005
0 1006
0 1007
0 1008
0 1009
0 1010
0 1011
0 1012
0 1013
0 1014
0 1015
0 1016
0 1017
0 1018
0 1019
0 1020
0 1021
0 1022
0 1023
0 1025
0 1026
0 1027
0 1028
0 1031
0 1032
0 1033
0 1034
0 1035
0 1036
0 1037
0 1038
0 1040
0 1041
0 1043
0 1044
0 1045
0 1046
0 1047
0 1048
0 1052
0 1053
0 1054
0 1055
0 1058
0 1059
0 1060
0 1062
0 1063
0 1064
0 1065
0 1066
0 1067
0 1069
0 1070
0 1071
0 1073
0 1076
0 1077
0 1078
0 1079
0 1083
0 1084
0 1087
0 1088
0 1089
0 1090
0 1092
0 1093
0 1094
0 1095
0 1096
0 1097
0 1098
0 1099
0 1100
0 1101
0 1102
0 1103
0 1105
0 1106
0 1107
0 1108
0 1109
0 1110
0 1112
0 1114
0 1115
0 1116
0 1117
0 1118
0 1120
0 1121
0 1122
0 1123
0 1124
0 1125
0 1126
0 1127
0 1129
0 1131
0 1132
0 1133
0 1134
0 1135
0 1136
0 1137
0 1138
0 1142
0 1144
0 1147
0 1148
0 1149
0 1150
0 1151
0 1152
0 1153
0 1154
0 1155
0 1156
0 1157
0 1158
0 1159
0 1160
0 1161
0 1162
0 1163
0 1166
0 1167
0 1168
0 1172
0 1173
0 1174
0 1175
0 1176
0 1177
0 1179
0 1181
0 1185
0 1186
0 1187
0 1188
0 1189
0 1190
0 1191
0 1192
0 1193
0 1194
0 1195
0 1196
0 1197
0 1198
0 1199
0 1200
0 1201
0 1202
0 1203
0 1204
0 1205
0 1206
0 1207
0 1210
0 1212
0 1213
0 1215
0 1216
0 1218
0 1219
0 1221
0 1224
0 1226
0 1228
0 1229
0 1230
0 1232
0 1233
0 1234
0 1235
0 1236
0 1237
0 1238
0 1239
0 1241
0 1243
0 1244
0 1245
0 1246
0 1247
0 1250
0 1251
0 1252
0 1256
0 1257
0 1258
0 1259
0 1260
0 1262
0 1263
0 1264
0 1265
0 1266
0 1267
0 1268
0 1274
0 1276
0 1277
0 1278
0 1279
0 1280
0 1281
0 1282
0 1283
0 1285
0 1288
0 1289
0 1291
0 1292
0 1293
0 1295
0 1296
0 1297
0 1298
0 1299
0 1301
0 1302
0 1304
0 1306
0 1307
0 1308
0 1310
0 1313
0 1314
0 1315
0 1317
0 1318
0 1319
0 1322
0 1325
0 1327
0 1328
0 1329
0 1331
0 1332
0 1333
0 1334
0 1335
0 1336
0 1338
0 1339
0 1340
0 1341
0 1342
0 1343
0 1344
0 1345
0 1346
0 1348
0 1349
0 1350
0 1351
0 1354
0 1363
0 1364
0 1368
0 1371
0 1373
0 1374
0 1378
0 1380
0 1386
0 1387
0 1388
0 1389
0 1390
0 1391
0 1392
0 1394
0 1397
0 1403
0 1404
0 1405
0 1406
0 1411
0 1412
0 1414
0 1415
0 1416
0 1417
0 1418
0 1419
0 1420
0 1421
0 1422
0 1423
0 1424
0 1425
0 1426
0 1427
0 1428
0 1429
0 1430
0 1431
0 1432
0 1433
0 1437
0 1443
0 1444
0 1460
0 1464
0 1465
0 1466
0 1471
0 1477
0 1480
0 1481
0 1482
0 1483
0 1484
0 1485
0 1486
0 1487
0 1488
0 1489
0 1490
0 1491
0 1492
0 1494
0 1496
0 1497
0 1498
0 1499
0 1501
0 1503
0 1513
0 1519
0 1521
0 1525
0 1527
0 1528
0 1538
0 1541
0 1542
0 1543
0 1544
0 1545
0 1547
0 1551
0 1552
0 1558
0 1559
0 1561
0 1567
0 1572
0 1573
0 1574
0 1575
0 1576
0 1577
0 1578
0 1579
0 1580
0 1582
0 1584
0 1586
0 1587
0 1588
0 1593
0 1594
0 1595
0 1596
0 1597
0 1598
0 1599
0 1600
0 1601
0 1602
0 1604
0 1605
0 1606
0 1607
0 1608
0 1610
0 1614
0 1615
0 1616
0 1617
0 1618
0 1619
0 1620
0 1621
0 1622
0 1624
0 1626
1 0
1 1
1 2
1 3
1 4
1 5
1 6
1 7
1 8
1 9
1 10
1 11
1 13
1 14
1 16
1 17
1 22
1 27
1 28
1 31
1 32
1 33
1 34
1 36
1 37
1 38
1 39
1 40
1 41
1 42
1 43
1 44
1 46
1 47
1 48
1 49
1 50
1 52
1 54
1 55
1 56
1 57
1 58
1 59
1 60
1 61
1 62
1 64
1 65
1 66
1 67
1 68
1 69
1 72
1 74
1 75
1 76
1 77
1 78
1 79
1 80
1 81
1 82
1 83
1 84
1 86
1 87
1 88
1 89
1 90
1 92
1 93
1 94
1 96
1 97
1 98
1 99
1 100
1 101
1 102
1 104
1 105
1 106
1 107
1 108
1 109
1 110
1 112
1 114
1 116
1 117
1 118
1 119
1 120
1 121
1 122
1 123
1 124
1 126
1 127
1 128
1 129
1 130
1 131
1 132
1 133
1 134
1 135
1 136
1 137
1 138
1 139
1 141
1 142
1 143
1 144
1 145
1 146
1 147
1 148
1 149
1 150
1 151
1 152
1 153
1 154
1 155
1 156
1 157
1 158
1 159
1 160
1 161
1 162
1 163
1 164
1 165
1 167
1 168
1 169
1 170
1 171
1 172
1 173
1 176
1 177
1 178
1 179
1 180
1 181
1 182
1 183
1 184
1 185
1 186
1 187
1 188
1 189
1 190
1 191
1 192
1 193
1 194
1 195
1 196
1 197
1 198
1 199
1 200
1 201
1 202
1 203
1 205
1 206
1 207
1 208
1 209
1 210
1 211
1 212
1 213
1 214
1 215
1 216
1 217
1 218
1 219
1 221
1 222
1 223
1 224
1 225
1 226
1 227
1 228
1 229
1 230
1 231
1 232
1 233
1 234
1 235
1 236
1 237
1 238
1 239
1 240
1 241
1 242
1 243
1 244
1 245
1 246
1 247
1 248
1 249
1 250
1 251
1 253
1 254
1 255
1 256
1 257
1 258
1 260
1 261
1 262
1 263
1 264
1 265
1 266
1 267
1 268
1 269
1 270
1 271
1 272
1 273
1 274
1 275
1 276
1 277
1 278
1 279
1 280
1 281
1 282
1 283
1 284
1 286
1 287
1 288
1 289
1 290
1 291
1 292
1 293
1 294
1 295
1 296
1 297
1 298
1 299
1 300
1 301
1 302
1 303
1 304
1 306
1 307
1 308
1 309
1 310
1 311
1 312
1 313
1 314
1 315
1 316
1 317
1 318
1 319
1 320
1 321
1 322
1 323
1 324
1 325
1 326
1 327
1 328
1 329
1 330
1 331
1 332
1 333
1 334
1 335
1 336
1 337
1 338
1 339
1 340
1 341
1 342
1 343
1 345
1 346
1 347
1 348
1 349
1 350
1 351
1 352
1 353
1 354
1 355
1 356
1 357
1 358
1 359
1 360
1 361
1 362
1 363
1 364
1 365
1 366
1 367
1 368
1 369
1 370
1 371
1 372
1 373
1 374
1 375
1 376
1 377
1 378
1 379
1 381
1 382
1 383
1 384
1 385
1 386
1 387
1 388
1 389
1 390
1 391
1 392
1 393
1 394
1 395
1 396
1 397
1 398
1 399
1 400
1 401
1 402
1 403
1 404
1 405
1 406
1 407
1 408
1 409
1 410
1 411
1 412
1 413
1 414
1 415
1 416
1 417
1 418
1 419
1 420
1 421
1 422
1 423
1 424
1 425
1 426
1 427
1 428
1 429
1 430
1 431
1 432
1 433
1 434
1 435
1 436
1 437
1 438
1 439
1 440
1 441
1 442
1 443
1 444
1 445
1 446
1 447
1 448
1 449
1 450
1 451
1 452
1 453
1 454
1 455
1 456
1 457
1 458
1 459
1 460
1 461
1 462
1 463
1 464
1 465
1 466
1 467
1 468
1 469
1 470
1 471
1 472
1 473
1 474
1 475
1 476
1 477
1 478
1 479
1 480
1 481
1 482
1 483
1 484
1 485
1 486
1 487
1 488
1 489
1 490
1 491
1 492
1 493
1 494
1 495
1 496
1 497
1 498
1 499
1 500
1 501
1 502
1 503
1 504
1 505
1 506
1 507
1 508
1 509
1 510
1 511
1 512
1 513
1 514
1 515
1 516
1 517
1 518
1 519
1 520
1 521
1 522
1 523
1 526
1 527
1 528
1 530
1 531
1 532
1 533
1 534
1 535
1 536
1 537
1 539
1 540
1 541
1 542
1 543
1 544
1 545
1 546
1 547
1 548
1 549
1 550
1 551
1 552
1 553
1 554
1 555
1 556
1 557
1 558
1 559
1 560
1 561
1 562
1 563
1 564
1 565
1 566
1 567
1 568
1 569
1 570
1 572
1 573
1 574
1 575
1 576
1 577
1 578
1 579
1 580
1 582
1 583
1 584
1 585
1 586
1 587
1 588
1 590
1 591
1 592
1 593
1 594
1 595
1 597
1 599
1 600
1 601
1 603
1 604
1 605
1 606
1 608
1 609
1 610
1 611
1 612
1 613
1 614
1 615
1 616
1 617
1 618
1 619
1 620
1 621
1 622
1 623
1 624
1 625
1 626
1 627
1 628
1 629
1 630
1 631
1 632
1 633
1 634
1 635
1 636
1 637
1 638
1 639
1 640
1 641
1 642
1 643
1 644
1 645
1 646
1 647
1 648
1 649
1 650
1 651
1 652
1 653
1 654
1 655
1 656
1 657
1 658
1 659
1 660
1 661
1 662
1 663
1 664
1 665
1 666
1 667
1 668
1 669
1 670
1 671
1 672
1 673
1 674
1 675
1 676
1 677
1 678
1 679
1 680
1 681
1 682
1 683
1 684
1 685
1 686
1 687
1 688
1 689
1 690
1 691
1 692
1 693
1 694
1 695
1 697
1 698
1 699
1 700
1 701
1 702
1 703
1 704
1 705
1 706
1 707
1 708
1 709
1 710
1 712
1 713
1 714
1 715
1 717
1 718
1 719
1 722
1 724
1 725
1 726
1 727
1 729
1 730
1 732
1 733
1 734
1 735
1 736
1 737
1 738
1 739
1 740
1 741
1 742
1 743
1 746
1 747
1 748
1 749
1 750
1 751
1 753
1 754
1 755
1 757
1 758
1 759
1 760
1 761
1 762
1 763
1 764
1 765
1 766
1 767
1 768
1 769
1 772
1 773
1 774
1 775
1 777
1 778
1 779
1 780
1 781
1 783
1 784
1 785
1 787
1 788
1 789
1 791
1 793
1 795
1 796
1 797
1 798
1 799
1 801
1 803
1 804
1 805
1 806
1 807
1 808
1 809
1 810
1 811
1 812
1 813
1 814
1 815
1 816
1 817
1 818
1 819
1 820
1 821
1 822
1 823
1 825
1 826
1 827
1 828
1 830
1 832
1 833
1 834
1 835
1 836
1 837
1 838
1 839
1 840
1 842
1 843
1 844
1 845
1 846
1 847
1 848
1 849
1 850
1 851
1 852
1 853
1 856
1 857
1 858
1 859
1 860
1 861
1 862
1 863
1 864
1 865
1 867
1 868
1 870
1 871
1 872
1 873
1 874
1 875
1 876
1 877
1 878
1 879
1 880
1 881
1 882
1 884
1 885
1 886
1 887
1 888
1 889
1 890
1 891
1 892
1 893
1 896
1 897
1 898
1 899
1 900
1 901
1 902
1 903
1 904
1 905
1 906
1 907
1 908
1 909
1 910
1 912
1 913
1 914
1 915
1 916
1 917
1 918
1 919
1 920
1 922
1 923
1 924
1 925
1 926
1 928
1 930
1 931
1 932
1 933
1 934
1 935
1 936
1 937
1 938
1 939
1 940
1 941
1 943
1 945
1 948
1 949
1 950
1 951
1 952
1 953
1 954
1 955
1 956
1 957
1 963
1 965
1 966
1 968
1 969
1 970
1 971
1 972
1 973
1 974
1 975
1 977
1 978
1 979
1 980
1 981
1 982
1 983
1 984
1 985
1 986
1 987
1 988
1 989
1 990
1 991
1 993
1 994
1 995
1 996
1 998
1 1000
1 1001
1 1002
1 1003
1 1004
1 1005
1 1006
1 1008
1 1009
1 1010
1 1011
1 1012
1 1013
1 1015
1 1016
1 1017
1 1020
1 1021
1 1022
1 1023
1 1026
1 1027
1 1028
1 1029
1 1031
1 1032
1 1033
1 1034
1 1035
1 1037
1 1038
1 1040
1 1041
1 1042
1 1043
1 1044
1 1045
1 1046
1 1047
1 1049
1 1052
1 1053
1 1054
1 1055
1 1057
1 1058
1 1059
1 1060
1 1061
1 1062
1 1063
1 1065
1 1066
1 1067
1 1069
1 1071
1 1072
1 1073
1 1076
1 1077
1 1078
1 1079
1 1080
1 1081
1 1082
1 1083
1 1084
1 1085
1 1087
1 1089
1 1090
1 1091
1 1092
1 1093
1 1094
1 1095
1 1096
1 1097
1 1098
1 1099
1 1101
1 1102
1 1103
1 1104
1 1105
1 1106
1 1107
1 1108
1 1109
1 1110
1 1111
1 1112
1 1113
1 1114
1 1115
1 1116
1 1117
1 1118
1 1119
1 1120
1 1121
1 1122
1 1123
1 1124
1 1125
1 1127
1 1129
1 1130
1 1131
1 1132
1 1133
1 1134
1 1135
1 1137
1 1138
1 1140
1 1141
1 1142
1 1143
1 1144
1 1145
1 1147
1 1148
1 1149
1 1150
1 1151
1 1152
1 1153
1 1154
1 1156
1 1157
1 1158
1 1159
1 1162
1 1163
1 1164
1 1165
1 1166
1 1168
1 1169
1 1170
1 1171
1 1172
1 1173
1 1174
1 1175
1 1176
1 1177
1 1178
1 1179
1 1180
1 1182
1 1184
1 1185
1 1186
1 1187
1 1189
1 1190
1 1192
1 1193
1 1194
1 1195
1 1196
1 1197
1 1199
1 1200
1 1201
1 1202
1 1203
1 1204
1 1206
1 1207
1 1208
1 1209
1 1210
1 1211
1 1212
1 1214
1 1215
1 1216
1 1219
1 1223
1 1224
1 1225
1 1226
1 1228
1 1229
1 1230
1 1231
1 1232
1 1234
1 1235
1 1236
1 1237
1 1238
1 1239
1 1240
1 1241
1 1243
1 1244
1 1246
1 1247
1 1251
1 1252
1 1253
1 1254
1 1255
1 1256
1 1257
1 1258
1 1260
1 1262
1 1263
1 1264
1 1265
1 1266
1 1267
1 1271
1 1273
1 1274
1 1275
1 1276
1 1277
1 1278
1 1279
1 1280
1 1281
1 1282
1 1283
1 1285
1 1287
1 1288
1 1289
1 1290
1 1291
1 1293
1 1294
1 1295
1 1297
1 1298
1 1300
1 1302
1 1303
1 1304
1 1305
1 1306
1 1307
1 1308
1 1309
1 1312
1 1313
1 1315
1 1316
1 1318
1 1319
1 1320
1 1321
1 1322
1 1323
1 1325
1 1326
1 1327
1 1329
1 1331
1 1332
1 1333
1 1336
1 1339
1 1340
1 1341
1 1344
1 1345
1 1346
1 1348
1 1350
1 1355
1 1358
1 1368
1 1371
1 1372
1 1373
1 1374
1 1380
1 1387
1 1388
1 1389
1 1390
1 1391
1 1392
1 1394
1 1397
1 1400
1 1403
1 1404
1 1405
1 1407
1 1408
1 1411
1 1414
1 1415
1 1416
1 1417
1 1418
1 1419
1 1420
1 1421
1 1422
1 1423
1 1424
1 1425
1 1426
1 1427
1 1428
1 1429
1 1430
1 1433
1 1441
1 1443
1 1444
1 1446
1 1456
1 1464
1 1465
1 1466
1 1470
1 1472
1 1477
1 1480
1 1481
1 1482
1 1483
1 1484
1 1485
1 1486
1 1487
1 1489
1 1490
1 1491
1 1492
1 1493
1 1494
1 1495
1 1496
1 1497
1 1499
1 1500
1 1503
1 1504
1 1508
1 1513
1 1514
1 1525
1 1527
1 1528
1 1529
1 1532
1 1539
1 1540
1 1541
1 1543
1 1545
1 1551
1 1552
1 1559
1 1560
1 1567
1 1572
1 1573
1 1574
1 1575
1 1576
1 1577
1 1578
1 1581
1 1582
1 1584
1 1586
1 1588
1 1589
1 1592
1 1593
1 1594
1 1595
1 1596
1 1597
1 1598
1 1599
1 1600
1 1601
1 1602
1 1603
1 1604
1 1605
1 1606
1 1607
1 1608
1 1609
1 1610
1 1612
1 1613
1 1614
1 1615
1 1616
1 1617
1 1618
1 1619
1 1620
1 1621
1 1622
1 1624
1 1626
2 0
2 1
2 2
2 3
2 4
2 5
2 6
2 7
2 8
2 9
2 10
2 11
2 18
2 21
2 22
2 24
2 25
2 27
2 28
2 30
2 32
2 33
2 34
2 35
2 36
2 37
2 38
2 39
2 40
2 41
2 42
2 43
2 44
2 46
2 47
2 48
2 49
2 50
2 52
2 53
2 56
2 57
2 58
2 59
2 62
2 64
2 65
2 66
2 67
2 68
2 69
2 72
2 73
2 75
2 77
2 78
2 81
2 82
2 83
2 84
2 86
2 87
2 88
2 89
2 90
2 92
2 93
2 94
2 96
2 98
2 99
2 101
2 104
2 105
2 106
2 108
2 110
2 111
2 112
2 113
2 114
2 116
2 117
2 118
2 119
2 120
2 121
2 122
2 124
2 125
2 126
2 127
2 128
2 129
2 130
2 131
2 133
2 134
2 135
2 136
2 137
2 138
2 142
2 143
2 144
2 145
2 146
2 147
2 148
2 149
2 151
2 153
2 154
2 155
2 156
2 157
2 158
2 159
2 160
2 161
2 162
2 163
2 164
2 165
2 166
2 167
2 168
2 169
2 170
2 171
2 173
2 174
2 175
2 176
2 177
2 178
2 179
2 180
2 181
2 182
2 183
2 184
2 185
2 186
2 187
2 188
2 189
2 190
2 191
2 192
2 193
2 194
2 195
2 196
2 197
2 198
2 199
2 200
2 201
2 202
2 203
2 205
2 206
2 207
2 209
2 210
2 211
2 212
2 213
2 214
2 215
2 216
2 217
2 218
2 219
2 221
2 222
2 223
2 224
2 225
2 226
2 227
2 228
2 229
2 230
2 231
2 232
2 233
2 234
2 235
2 236
2 237
2 238
2 239
2 240
2 241
2 242
2 243
2 244
2 245
2 246
2 247
2 248
2 249
2 250
2 251
2 253
2 254
2 256
2 258
2 261
2 263
2 264
2 265
2 266
2 268
2 271
2 273
2 274
2 275
2 276
2 277
2 279
2 280
2 281
2 282
2 285
2 286
2 287
2 288
2 289
2 290
2 291
2 292
2 293
2 294
2 295
2 296
2 297
2 299
2 300
2 301
2 302
2 303
2 304
2 306
2 308
2 309
2 310
2 311
2 313
2 314
2 315
2 317
2 318
2 319
2 320
2 322
2 323
2 324
2 326
2 327
2 328
2 329
2 330
2 331
2 332
2 333
2 334
2 335
2 336
2 337
2 338
2 342
2 343
2 345
2 348
2 349
2 352
2 353
2 354
2 355
2 356
2 358
2 359
2 360
2 361
2 365
2 366
2 368
2 369
2 370
2 371
2 373
2 374
2 376
2 377
2 378
2 379
2 381
2 382
2 383
2 384
2 385
2 386
2 387
2 390
2 391
2 392
2 394
2 395
2 396
2 397
2 398
2 399
2 400
2 401
2 402
2 403
2 405
2 406
2 408
2 409
2 410
2 411
2 412
2 413
2 414
2 415
2 416
2 417
2 418
2 419
2 420
2 421
2 422
2 423
2 424
2 425
2 426
2 427
2 428
2 431
2 432
2 433
2 434
2 435
2 436
2 437
2 439
2 440
2 441
2 443
2 444
2 446
2 447
2 449
2 450
2 452
2 453
2 454
2 455
2 457
2 458
2 460
2 461
2 462
2 463
2 464
2 465
2 466
2 468
2 469
2 470
2 471
2 472
2 473
2 474
2 475
2 476
2 477
2 478
2 479
2 480
2 481
2 483
2 484
2 485
2 487
2 488
2 489
2 490
2 491
2 492
2 493
2 494
2 496
2 498
2 499
2 500
2 501
2 502
2 503
2 504
2 505
2 506
2 507
2 508
2 509
2 510
2 511
2 512
2 513
2 514
2 515
2 516
2 517
2 518
2 519
2 520
2 521
2 522
2 523
2 524
2 525
2 526
2 527
2 528
2 529
2 530
2 531
2 532
2 533
2 534
2 536
2 537
2 538
2 539
2 540
2 541
2 542
2 543
2 544
2 545
2 546
2 547
2 548
2 549
2 550
2 551
2 552
2 553
2 554
2 555
2 556
2 557
2 558
2 559
2 560
2 561
2 562
2 563
2 564
2 565
2 566
2 567
2 568
2 569
2 570
2 571
2 572
2 573
2 574
2 575
2 576
2 577
2 578
2 579
2 580
2 581
2 582
2 583
2 584
2 585
2 586
2 587
2 588
2 589
2 590
2 591
2 592
2 593
2 594
2 595
2 596
2 597
2 598
2 599
2 600
2 601
2 602
2 603
2 604
2 605
2 606
2 607
2 608
2 609
2 610
2 611
2 612
2 613
2 614
2 615
2 616
2 617
2 618
2 619
2 620
2 621
2 622
2 623
2 624
2 625
2 626
2 627
2 628
2 629
2 630
2 631
2 632
2 633
2 634
2 635
2 636
2 637
2 638
2 639
2 640
2 641
2 642
2 643
2 644
2 645
2 646
2 647
2 648
2 649
2 650
2 651
2 652
2 653
2 654
2 655
2 656
2 657
2 658
2 659
2 660
2 661
2 662
2 663
2 664
2 665
2 666
2 667
2 668
2 669
2 670
2 671
2 672
2 673
2 674
2 675
2 676
2 677
2 678
2 679
2 680
2 681
2 682
2 683
2 684
2 685
2 686
2 687
2 688
2 689
2 690
2 691
2 692
2 693
2 694
2 695
2 696
2 697
2 698
2 699
2 700
2 701
2 702
2 703
2 704
2 705
2 706
2 707
2 708
2 709
2 710
2 711
2 712
2 713
2 714
2 715
2 716
2 717
2 718
2 719
2 720
2 721
2 722
2 723
2 724
2 725
2 726
2 727
2 728
2 729
2 730
2 731
2 732
2 733
2 734
2 735
2 736
2 737
2 738
2 739
2 740
2 741
2 742
2 743
2 744
2 745
2 747
2 748
2 749
2 750
2 751
2 752
2 753
2 754
2 755
2 756
2 757
2 758
2 759
2 761
2 762
2 763
2 764
2 765
2 767
2 769
2 771
2 772
2 773
2 774
2 775
2 777
2 778
2 779
2 781
2 782
2 783
2 784
2 785
2 786
2 787
2 788
2 789
2 791
2 792
2 793
2 795
2 796
2 797
2 798
2 801
2 803
2 805
2 807
2 811
2 812
2 815
2 816
2 817
2 818
2 819
2 820
2 821
2 822
2 824
2 825
2 826
2 827
2 829
2 830
2 831
2 832
2 833
2 834
2 835
2 837
2 839
2 840
2 841
2 842
2 843
2 844
2 845
2 846
2 848
2 849
2 850
2 851
2 852
2 853
2 854
2 855
2 857
2 858
2 859
2 860
2 861
2 862
2 863
2 864
2 865
2 866
2 867
2 868
2 870
2 871
2 872
2 873
2 875
2 876
2 877
2 878
2 881
2 882
2 883
2 886
2 887
2 888
2 889
2 891
2 892
2 893
2 894
2 895
2 896
2 897
2 898
2 899
2 900
2 901
2 903
2 904
2 905
2 906
2 907
2 909
2 910
2 911
2 912
2 915
2 916
2 917
2 919
2 921
2 922
2 924
2 925
2 927
2 928
2 929
2 930
2 931
2 932
2 933
2 934
2 936
2 938
2 940
2 941
2 942
2 943
2 947
2 949
2 950
2 951
2 953
2 954
2 955
2 956
2 957
2 958
2 960
2 963
2 965
2 968
2 969
2 970
2 971
2 972
2 974
2 975
2 977
2 978
2 980
2 983
2 984
2 985
2 987
2 988
2 989
2 990
2 991
2 992
2 993
2 994
2 995
2 996
2 997
2 998
2 1000
2 1001
2 1002
2 1003
2 1004
2 1005
2 1006
2 1007
2 1008
2 1010
2 1011
2 1012
2 1013
2 1015
2 1018
2 1019
2 1020
2 1021
2 1022
2 1023
2 1024
2 1025
2 1026
2 1027
2 1028
2 1030
2 1031
2 1033
2 1034
2 1035
2 1036
2 1037
2 1038
2 1039
2 1042
2 1045
2 1046
2 1047
2 1050
2 1053
2 1054
2 1055
2 1057
2 1058
2 1059
2 1060
2 1062
2 1063
2 1065
2 1066
2 1067
2 1069
2 1071
2 1074
2 1076
2 1077
2 1078
2 1079
2 1080
2 1081
2 1082
2 1083
2 1084
2 1085
2 1086
2 1087
2 1089
2 1090
2 1092
2 1093
2 1094
2 1095
2 1096
2 1098
2 1100
2 1101
2 1102
2 1104
2 1105
2 1106
2 1107
2 1108
2 1109
2 1110
2 1113
2 1115
2 1117
2 1119
2 1120
2 1122
2 1123
2 1124
2 1125
2 1126
2 1127
2 1128
2 1129
2 1131
2 1132
2 1133
2 1134
2 1135
2 1136
2 1137
2 1138
2 1139
2 1140
2 1141
2 1142
2 1146
2 1147
2 1149
2 1150
2 1151
2 1152
2 1153
2 1155
2 1156
2 1158
2 1159
2 1160
2 1161
2 1162
2 1163
2 1164
2 1165
2 1166
2 1170
2 1172
2 1173
2 1174
2 1175
2 1176
2 1177
2 1178
2 1179
2 1180
2 1186
2 1188
2 1189
2 1192
2 1194
2 1195
2 1196
2 1199
2 1200
2 1203
2 1204
2 1205
2 1207
2 1208
2 1210
2 1211
2 1213
2 1214
2 1216
2 1219
2 1223
2 1224
2 1225
2 1226
2 1228
2 1229
2 1231
2 1232
2 1233
2 1234
2 1235
2 1238
2 1239
2 1241
2 1243
2 1244
2 1246
2 1247
2 1251
2 1253
2 1256
2 1257
2 1259
2 1260
2 1262
2 1265
2 1266
2 1267
2 1269
2 1274
2 1275
2 1277
2 1278
2 1279
2 1280
2 1281
2 1285
2 1287
2 1288
2 1289
2 1292
2 1294
2 1295
2 1296
2 1297
2 1298
2 1299
2 1300
2 1301
2 1303
2 1304
2 1306
2 1307
2 1308
2 1309
2 1311
2 1312
2 1313
2 1315
2 1316
2 1317
2 1318
2 1320
2 1322
2 1325
2 1326
2 1327
2 1329
2 1330
2 1331
2 1332
2 1334
2 1335
2 1338
2 1339
2 1340
2 1345
2 1346
2 1348
2 1353
2 1354
2 1356
2 1358
2 1365
2 1368
2 1373
2 1376
2 1380
2 1382
2 1387
2 1388
2 1389
2 1390
2 1395
2 1405
2 1406
2 1408
2 1411
2 1414
2 1415
2 1416
2 1417
2 1418
2 1420
2 1422
2 1423
2 1425
2 1426
2 1427
2 1428
2 1429
2 1430
2 1433
2 1434
2 1441
2 1443
2 1444
2 1446
2 1451
2 1460
2 1465
2 1472
2 1473
2 1480
2 1481
2 1482
2 1483
2 1484
2 1485
2 1486
2 1487
2 1488
2 1489
2 1490
2 1491
2 1492
2 1493
2 1494
2 1495
2 1496
2 1497
2 1500
2 1501
2 1513
2 1514
2 1519
2 1525
2 1527
2 1536
2 1539
2 1541
2 1543
2 1544
2 1545
2 1546
2 1547
2 1550
2 1551
2 1552
2 1553
2 1558
2 1559
2 1561
2 1572
2 1573
2 1574
2 1575
2 1577
2 1578
2 1582
2 1584
2 1588
2 1592
2 1594
2 1595
2 1596
2 1597
2 1598
2 1599
2 1600
2 1602
2 1604
2 1606
2 1607
2 1608
2 1610
2 1612
2 1613
2 1614
2 1615
2 1616
2 1617
2 1619
2 1620
2 1621
2 1622
3 0
3 1
3 2
3 3
3 4
3 5
3 6
3 7
3 8
3 9
3 10
3 12
3 19
3 22
3 24
3 26
3 27
3 31
3 34
3 35
3 36
3 37
3 38
3 39
3 40
3 41
3 42
3 44
3 46
3 47
3 48
3 49
3 51
3 53
3 54
3 55
3 56
3 57
3 58
3 59
3 62
3 64
3 65
3 66
3 67
3 68
3 69
3 73
3 75
3 76
3 77
3 81
3 82
3 83
3 84
3 86
3 87
3 88
3 90
3 92
3 93
3 94
3 96
3 97
3 98
3 99
3 100
3 101
3 102
3 104
3 105
3 106
3 107
3 109
3 110
3 111
3 112
3 116
3 117
3 118
3 119
3 120
3 121
3 122
3 123
3 125
3 126
3 128
3 129
3 130
3 131
3 133
3 134
3 135
3 136
3 137
3 138
3 142
3 144
3 145
3 147
3 149
3 153
3 156
3 157
3 158
3 159
3 160
3 161
3 162
3 163
3 164
3 165
3 166
3 167
3 168
3 169
3 173
3 174
3 175
3 176
3 179
3 181
3 182
3 183
3 184
3 185
3 186
3 187
3 188
3 189
3 190
3 191
3 192
3 193
3 194
3 196
3 197
3 198
3 200
3 201
3 203
3 205
3 206
3 207
3 209
3 210
3 211
3 212
3 215
3 216
3 217
3 218
3 219
3 220
3 221
3 222
3 223
3 224
3 225
3 227
3 228
3 229
3 230
3 231
3 232
3 233
3 234
3 235
3 236
3 237
3 238
3 239
3 240
3 241
3 242
3 243
3 244
3 245
3 246
3 247
3 248
3 249
3 250
3 251
3 253
3 254
3 258
3 260
3 261
3 263
3 264
3 265
3 266
3 267
3 271
3 272
3 273
3 274
3 275
3 276
3 277
3 280
3 281
3 282
3 284
3 285
3 286
3 287
3 289
3 291
3 292
3 293
3 294
3 295
3 296
3 298
3 300
3 301
3 303
3 308
3 309
3 310
3 311
3 312
3 313
3 315
3 317
3 318
3 320
3 321
3 322
3 324
3 325
3 327
3 328
3 329
3 330
3 331
3 332
3 333
3 334
3 337
3 338
3 339
3 340
3 341
3 342
3 347
3 348
3 350
3 351
3 352
3 353
3 354
3 355
3 356
3 357
3 358
3 359
3 360
3 361
3 366
3 368
3 369
3 371
3 374
3 375
3 376
3 377
3 378
3 379
3 381
3 383
3 384
3 386
3 387
3 388
3 391
3 392
3 393
3 394
3 395
3 396
3 397
3 398
3 399
3 400
3 402
3 403
3 407
3 408
3 409
3 410
3 411
3 412
3 413
3 414
3 416
3 418
3 419
3 420
3 421
3 422
3 423
3 424
3 425
3 426
3 427
3 428
3 431
3 433
3 435
3 438
3 439
3 441
3 444
3 445
3 446
3 449
3 450
3 453
3 455
3 457
3 458
3 459
3 461
3 463
3 464
3 465
3 466
3 467
3 468
3 470
3 471
3 472
3 473
3 475
3 476
3 479
3 480
3 483
3 484
3 485
3 488
3 489
3 490
3 491
3 492
3 493
3 494
3 496
3 498
3 499
3 500
3 501
3 502
3 503
3 504
3 507
3 508
3 509
3 511
3 512
3 515
3 516
3 517
3 519
3 521
3 522
3 526
3 527
3 529
3 530
3 532
3 539
3 540
3 542
3 543
3 545
3 546
3 548
3 549
3 550
3 551
3 552
3 554
3 556
3 557
3 558
3 559
3 561
3 562
3 564
3 565
3 566
3 567
3 568
3 570
3 571
3 572
3 573
3 574
3 576
3 577
3 578
3 579
3 580
3 582
3 583
3 584
3 585
3 586
3 588
3 590
3 592
3 595
3 596
3 604
3 605
3 606
3 607
3 609
3 610
3 616
3 617
3 618
3 619
3 620
3 621
3 622
3 624
3 625
3 626
3 627
3 628
3 629
3 631
3 632
3 635
3 636
3 640
3 641
3 642
3 643
3 645
3 646
3 647
3 648
3 649
3 651
3 652
3 654
3 655
3 656
3 657
3 659
3 661
3 662
3 663
3 665
3 668
3 669
3 670
3 671
3 672
3 674
3 678
3 679
3 680
3 682
3 686
3 687
3 688
3 689
3 693
3 694
3 696
3 698
3 700
3 701
3 702
3 703
3 704
3 710
3 712
3 714
3 715
3 716
3 717
3 720
3 722
3 723
3 726
3 727
3 729
3 730
3 731
3 732
3 733
3 734
3 735
3 738
3 742
3 745
3 746
3 747
3 748
3 749
3 750
3 751
3 752
3 753
3 754
3 755
3 756
3 757
3 758
3 759
3 760
3 761
3 762
3 763
3 764
3 765
3 766
3 767
3 768
3 769
3 770
3 771
3 772
3 773
3 774
3 775
3 777
3 778
3 779
3 780
3 781
3 782
3 783
3 784
3 785
3 786
3 787
3 788
3 789
3 790
3 791
3 792
3 793
3 794
3 795
3 796
3 797
3 798
3 799
3 800
3 801
3 802
3 803
3 804
3 805
3 806
3 807
3 808
3 809
3 810
3 811
3 812
3 813
3 814
3 815
3 816
3 817
3 818
3 819
3 820
3 821
3 822
3 823
3 824
3 825
3 826
3 827
3 828
3 829
3 830
3 831
3 832
3 833
3 834
3 835
3 836
3 837
3 838
3 839
3 840
3 841
3 842
3 843
3 844
3 845
3 846
3 847
3 848
3 849
3 850
3 851
3 852
3 853
3 854
3 855
3 856
3 857
3 858
3 859
3 860
3 861
3 862
3 863
3 864
3 865
3 866
3 867
3 868
3 869
3 870
3 871
3 872
3 873
3 874
3 875
3 876
3 877
3 878
3 879
3 880
3 881
3 882
3 883
3 884
3 885
3 886
3 887
3 888
3 889
3 890
3 891
3 892
3 893
3 894
3 895
3 896
3 897
3 898
3 899
3 900
3 901
3 902
3 903
3 904
3 905
3 906
3 907
3 908
3 909
3 910
3 911
3 912
3 913
3 914
3 915
3 916
3 917
3 918
3 919
3 920
3 921
3 922
3 923
3 924
3 925
3 926
3 927
3 928
3 929
3 930
3 931
3 932
3 933
3 934
3 935
3 936
3 937
3 938
3 939
3 940
3 941
3 942
3 943
3 944
3 945
3 946
3 947
3 948
3 951
3 953
3 954
3 955
3 956
3 957
3 959
3 963
3 964
3 965
3 966
3 967
3 968
3 969
3 971
3 974
3 975
3 978
3 981
3 983
3 984
3 988
3 989
3 992
3 993
3 995
3 998
3 999
3 1000
3 1001
3 1002
3 1005
3 1007
3 1010
3 1011
3 1012
3 1013
3 1015
3 1018
3 1021
3 1022
3 1025
3 1026
3 1030
3 1031
3 1032
3 1033
3 1036
3 1037
3 1038
3 1039
3 1041
3 1044
3 1045
3 1046
3 1048
3 1051
3 1053
3 1055
3 1056
3 1059
3 1062
3 1064
3 1066
3 1067
3 1070
3 1073
3 1076
3 1077
3 1078
3 1079
3 1085
3 1086
3 1087
3 1089
3 1092
3 1094
3 1096
3 1098
3 1099
3 1102
3 1103
3 1104
3 1106
3 1109
3 1111
3 1112
3 1118
3 1121
3 1123
3 1125
3 1126
3 1127
3 1128
3 1129
3 1130
3 1131
3 1133
3 1134
3 1135
3 1138
3 1139
3 1140
3 1142
3 1144
3 1145
3 1146
3 1147
3 1148
3 1150
3 1151
3 1155
3 1158
3 1159
3 1161
3 1177
3 1178
3 1180
3 1181
3 1187
3 1188
3 1190
3 1191
3 1193
3 1194
3 1195
3 1196
3 1199
3 1203
3 1204
3 1206
3 1208
3 1210
3 1212
3 1217
3 1218
3 1219
3 1221
3 1224
3 1225
3 1228
3 1231
3 1233
3 1236
3 1238
3 1239
3 1240
3 1241
3 1244
3 1246
3 1247
3 1253
3 1255
3 1257
3 1260
3 1262
3 1263
3 1267
3 1268
3 1269
3 1270
3 1275
3 1276
3 1278
3 1280
3 1281
3 1282
3 1283
3 1284
3 1285
3 1287
3 1289
3 1291
3 1292
3 1295
3 1296
3 1297
3 1298
3 1300
3 1305
3 1308
3 1310
3 1312
3 1313
3 1314
3 1315
3 1316
3 1320
3 1323
3 1325
3 1326
3 1327
3 1329
3 1333
3 1334
3 1335
3 1336
3 1342
3 1348
3 1354
3 1355
3 1360
3 1363
3 1370
3 1371
3 1380
3 1387
3 1388
3 1390
3 1392
3 1405
3 1408
3 1411
3 1414
3 1415
3 1416
3 1417
3 1418
3 1419
3 1420
3 1425
3 1426
3 1427
3 1430
3 1435
3 1441
3 1444
3 1450
3 1472
3 1473
3 1481
3 1482
3 1483
3 1484
3 1486
3 1487
3 1490
3 1495
3 1496
3 1497
3 1500
3 1501
3 1513
3 1519
3 1521
3 1525
3 1526
3 1527
3 1528
3 1529
3 1532
3 1539
3 1541
3 1542
3 1543
3 1545
3 1547
3 1552
3 1553
3 1558
3 1559
3 1562
3 1572
3 1574
3 1575
3 1576
3 1577
3 1578
3 1582
3 1585
3 1594
3 1595
3 1596
3 1597
3 1598
3 1599
3 1602
3 1603
3 1604
3 1606
3 1607
3 1608
3 1610
3 1614
3 1615
3 1616
3 1617
3 1618
3 1619
3 1620
3 1621
3 1622
4 0
4 1
4 2
4 3
4 4
4 5
4 6
4 7
4 8
4 9
4 10
4 11
4 14
4 16
4 19
4 22
4 27
4 28
4 32
4 33
4 34
4 36
4 40
4 41
4 42
4 43
4 44
4 46
4 47
4 48
4 49
4 54
4 55
4 56
4 58
4 59
4 62
4 64
4 65
4 66
4 67
4 68
4 69
4 72
4 73
4 74
4 75
4 79
4 81
4 82
4 83
4 84
4 86
4 87
4 88
4 89
4 90
4 92
4 93
4 94
4 96
4 97
4 98
4 99
4 101
4 102
4 104
4 105
4 106
4 107
4 108
4 110
4 111
4 112
4 116
4 117
4 118
4 119
4 121
4 124
4 126
4 128
4 129
4 133
4 134
4 135
4 136
4 137
4 138
4 141
4 142
4 143
4 144
4 145
4 146
4 147
4 153
4 155
4 156
4 157
4 158
4 159
4 160
4 161
4 162
4 163
4 164
4 165
4 166
4 167
4 168
4 170
4 171
4 176
4 178
4 181
4 182
4 183
4 186
4 187
4 189
4 191
4 192
4 193
4 195
4 196
4 197
4 200
4 203
4 205
4 206
4 209
4 210
4 211
4 212
4 214
4 216
4 219
4 220
4 222
4 223
4 224
4 225
4 227
4 230
4 232
4 233
4 234
4 235
4 236
4 237
4 238
4 240
4 241
4 243
4 244
4 245
4 246
4 247
4 249
4 250
4 251
4 253
4 258
4 264
4 270
4 272
4 273
4 274
4 276
4 279
4 280
4 281
4 282
4 284
4 286
4 287
4 288
4 289
4 290
4 292
4 293
4 295
4 296
4 297
4 299
4 302
4 303
4 304
4 308
4 309
4 311
4 313
4 315
4 316
4 318
4 319
4 320
4 322
4 324
4 327
4 328
4 329
4 333
4 335
4 337
4 338
4 339
4 342
4 343
4 348
4 350
4 351
4 352
4 355
4 357
4 358
4 359
4 361
4 365
4 368
4 370
4 373
4 374
4 375
4 376
4 377
4 378
4 379
4 381
4 384
4 385
4 386
4 387
4 389
4 391
4 394
4 395
4 397
4 401
4 402
4 403
4 409
4 412
4 413
4 414
4 416
4 417
4 419
4 420
4 421
4 422
4 423
4 424
4 426
4 433
4 434
4 435
4 437
4 439
4 440
4 442
4 443
4 445
4 446
4 448
4 449
4 452
4 454
4 455
4 457
4 459
4 460
4 461
4 463
4 464
4 468
4 469
4 472
4 473
4 474
4 475
4 476
4 477
4 480
4 481
4 484
4 487
4 488
4 489
4 490
4 491
4 493
4 494
4 496
4 500
4 505
4 507
4 510
4 511
4 512
4 513
4 515
4 516
4 517
4 518
4 519
4 522
4 525
4 528
4 530
4 532
4 533
4 536
4 537
4 540
4 543
4 544
4 546
4 547
4 548
4 549
4 551
4 552
4 553
4 554
4 560
4 561
4 562
4 565
4 566
4 567
4 570
4 573
4 574
4 576
4 578
4 579
4 580
4 582
4 583
4 584
4 587
4 588
4 589
4 590
4 592
4 594
4 595
4 596
4 601
4 602
4 603
4 604
4 606
4 610
4 611
4 617
4 618
4 619
4 621
4 624
4 626
4 627
4 629
4 631
4 634
4 637
4 641
4 642
4 643
4 645
4 648
4 649
4 652
4 653
4 655
4 659
4 661
4 662
4 666
4 668
4 669
4 670
4 671
4 674
4 678
4 682
4 683
4 686
4 689
4 691
4 692
4 699
4 700
4 701
4 703
4 704
4 705
4 707
4 708
4 711
4 712
4 713
4 714
4 715
4 716
4 717
4 720
4 723
4 727
4 729
4 730
4 732
4 733
4 735
4 736
4 738
4 742
4 743
4 747
4 751
4 754
4 755
4 756
4 757
4 758
4 762
4 766
4 767
4 772
4 773
4 774
4 775
4 777
4 779
4 780
4 781
4 785
4 788
4 792
4 793
4 794
4 795
4 796
4 797
4 798
4 799
4 800
4 801
4 802
4 803
4 804
4 806
4 807
4 808
4 810
4 811
4 815
4 816
4 817
4 818
4 820
4 822
4 825
4 826
4 828
4 830
4 831
4 834
4 839
4 841
4 842
4 843
4 846
4 848
4 849
4 850
4 852
4 854
4 855
4 856
4 858
4 862
4 865
4 868
4 869
4 872
4 876
4 877
4 878
4 880
4 883
4 886
4 887
4 892
4 894
4 895
4 898
4 899
4 900
4 904
4 906
4 909
4 914
4 916
4 919
4 920
4 921
4 922
4 923
4 924
4 925
4 927
4 928
4 929
4 930
4 932
4 936
4 937
4 938
4 939
4 941
4 947
4 949
4 950
4 951
4 952
4 953
4 954
4 955
4 957
4 958
4 959
4 960
4 961
4 963
4 964
4 965
4 966
4 967
4 968
4 969
4 970
4 971
4 972
4 973
4 974
4 975
4 976
4 977
4 978
4 979
4 980
4 981
4 982
4 983
4 984
4 985
4 986
4 987
4 988
4 989
4 990
4 991
4 992
4 993
4 994
4 995
4 996
4 997
4 998
4 999
4 1000
4 1001
4 1002
4 1003
4 1004
4 1005
4 1006
4 1008
4 1009
4 1010
4 1011
4 1012
4 1013
4 1014
4 1015
4 1016
4 1017
4 1018
4 1019
4 1020
4 1021
4 1022
4 1023
4 1024
4 1026
4 1027
4 1028
4 1029
4 1030
4 1031
4 1032
4 1033
4 1034
4 1035
4 1036
4 1037
4 1038
4 1039
4 1040
4 1041
4 1042
4 1043
4 1044
4 1045
4 1046
4 1047
4 1048
4 1049
4 1050
4 1051
4 1052
4 1053
4 1054
4 1055
4 1056
4 1057
4 1058
4 1059
4 1060
4 1061
4 1062
4 1063
4 1064
4 1065
4 1066
4 1067
4 1068
4 1069
4 1070
4 1071
4 1073
4 1074
4 1075
4 1076
4 1079
4 1082
4 1084
4 1086
4 1087
4 1094
4 1096
4 1097
4 1100
4 1101
4 1102
4 1103
4 1106
4 1108
4 1111
4 1112
4 1113
4 1114
4 1116
4 1123
4 1124
4 1126
4 1127
4 1128
4 1130
4 1131
4 1134
4 1136
4 1140
4 1141
4 1155
4 1161
4 1162
4 1164
4 1165
4 1166
4 1167
4 1169
4 1170
4 1174
4 1176
4 1177
4 1178
4 1179
4 1180
4 1184
4 1185
4 1186
4 1190
4 1191
4 1195
4 1196
4 1201
4 1203
4 1206
4 1213
4 1214
4 1217
4 1219
4 1223
4 1224
4 1226
4 1227
4 1228
4 1230
4 1231
4 1238
4 1239
4 1240
4 1247
4 1250
4 1252
4 1255
4 1256
4 1259
4 1260
4 1263
4 1265
4 1267
4 1268
4 1269
4 1271
4 1277
4 1279
4 1280
4 1285
4 1289
4 1291
4 1292
4 1294
4 1295
4 1297
4 1300
4 1302
4 1303
4 1304
4 1306
4 1308
4 1310
4 1318
4 1320
4 1321
4 1322
4 1327
4 1329
4 1331
4 1334
4 1335
4 1349
4 1364
4 1368
4 1373
4 1387
4 1390
4 1408
4 1412
4 1415
4 1416
4 1417
4 1420
4 1425
4 1427
4 1428
4 1429
4 1430
4 1433
4 1443
4 1446
4 1464
4 1466
4 1481
4 1482
4 1484
4 1487
4 1488
4 1496
4 1497
4 1501
4 1504
4 1512
4 1513
4 1526
4 1529
4 1532
4 1542
4 1543
4 1544
4 1545
4 1553
4 1558
4 1559
4 1566
4 1574
4 1575
4 1576
4 1577
4 1578
4 1594
4 1595
4 1597
4 1598
4 1599
4 1600
4 1603
4 1607
4 1608
4 1610
4 1616
4 1617
4 1619
4 1620
4 1621
4 1622
5 0
5 1
5 2
5 3
5 4
5 5
5 6
5 7
5 8
5 9
5 10
5 12
5 14
5 16
5 22
5 27
5 29
5 31
5 32
5 34
5 35
5 36
5 39
5 40
5 41
5 43
5 44
5 46
5 48
5 53
5 54
5 55
5 56
5 58
5 65
5 66
5 67
5 68
5 71
5 72
5 73
5 74
5 78
5 79
5 81
5 82
5 86
5 87
5 88
5 89
5 92
5 93
5 94
5 96
5 99
5 104
5 105
5 106
5 107
5 111
5 114
5 119
5 120
5 127
5 131
5 133
5 134
5 136
5 141
5 143
5 144
5 145
5 146
5 147
5 155
5 156
5 157
5 158
5 160
5 161
5 164
5 165
5 168
5 169
5 176
5 177
5 180
5 181
5 182
5 183
5 184
5 185
5 186
5 187
5 189
5 191
5 192
5 193
5 195
5 196
5 198
5 199
5 203
5 206
5 209
5 210
5 211
5 212
5 217
5 220
5 223
5 224
5 225
5 226
5 228
5 230
5 232
5 233
5 235
5 236
5 237
5 238
5 239
5 241
5 243
5 244
5 245
5 246
5 248
5 249
5 250
5 251
5 254
5 258
5 261
5 264
5 268
5 272
5 274
5 276
5 279
5 281
5 286
5 287
5 292
5 293
5 295
5 296
5 303
5 304
5 308
5 310
5 314
5 316
5 318
5 319
5 321
5 322
5 323
5 326
5 328
5 329
5 330
5 331
5 332
5 333
5 334
5 335
5 336
5 337
5 339
5 341
5 342
5 343
5 345
5 350
5 352
5 354
5 356
5 357
5 359
5 360
5 368
5 372
5 374
5 375
5 377
5 378
5 379
5 381
5 383
5 384
5 385
5 386
5 387
5 388
5 391
5 392
5 394
5 395
5 396
5 397
5 400
5 402
5 403
5 404
5 405
5 406
5 407
5 409
5 410
5 411
5 412
5 413
5 417
5 418
5 420
5 426
5 427
5 428
5 430
5 431
5 435
5 438
5 443
5 448
5 449
5 452
5 455
5 457
5 460
5 461
5 465
5 467
5 468
5 472
5 474
5 475
5 476
5 477
5 481
5 483
5 484
5 486
5 488
5 490
5 491
5 493
5 494
5 500
5 501
5 502
5 507
5 509
5 510
5 511
5 512
5 519
5 523
5 525
5 526
5 533
5 536
5 537
5 539
5 541
5 543
5 545
5 546
5 549
5 552
5 556
5 557
5 559
5 560
5 564
5 566
5 567
5 569
5 570
5 572
5 574
5 575
5 576
5 583
5 584
5 585
5 587
5 590
5 592
5 594
5 596
5 601
5 602
5 605
5 606
5 609
5 613
5 618
5 620
5 621
5 623
5 624
5 625
5 626
5 627
5 629
5 631
5 635
5 636
5 637
5 640
5 641
5 643
5 647
5 651
5 653
5 656
5 657
5 663
5 666
5 668
5 673
5 674
5 679
5 680
5 683
5 685
5 686
5 687
5 689
5 691
5 695
5 701
5 702
5 704
5 705
5 707
5 711
5 712
5 713
5 714
5 720
5 722
5 723
5 726
5 729
5 733
5 734
5 739
5 743
5 747
5 755
5 757
5 766
5 767
5 769
5 772
5 773
5 774
5 775
5 777
5 778
5 779
5 792
5 794
5 795
5 796
5 798
5 799
5 800
5 802
5 803
5 806
5 807
5 809
5 812
5 814
5 815
5 817
5 828
5 831
5 839
5 841
5 843
5 845
5 846
5 852
5 853
5 857
5 859
5 862
5 865
5 872
5 873
5 880
5 882
5 883
5 887
5 891
5 892
5 901
5 903
5 906
5 907
5 909
5 911
5 916
5 917
5 918
5 921
5 929
5 930
5 932
5 935
5 936
5 937
5 941
5 951
5 956
5 957
5 958
5 960
5 963
5 964
5 967
5 969
5 971
5 975
5 978
5 979
5 980
5 981
5 984
5 986
5 987
5 988
5 990
5 994
5 996
5 999
5 1006
5 1007
5 1008
5 1011
5 1013
5 1019
5 1020
5 1021
5 1022
5 1024
5 1026
5 1027
5 1029
5 1031
5 1033
5 1038
5 1040
5 1041
5 1042
5 1043
5 1047
5 1048
5 1050
5 1051
5 1054
5 1055
5 1057
5 1060
5 1061
5 1062
5 1063
5 1067
5 1070
5 1071
5 1073
5 1079
5 1080
5 1081
5 1082
5 1083
5 1084
5 1085
5 1086
5 1087
5 1088
5 1089
5 1090
5 1091
5 1092
5 1093
5 1094
5 1095
5 1096
5 1097
5 1098
5 1099
5 1100
5 1101
5 1102
5 1103
5 1104
5 1105
5 1106
5 1107
5 1108
5 1109
5 1110
5 1111
5 1112
5 1113
5 1114
5 1115
5 1116
5 1117
5 1118
5 1119
5 1120
5 1121
5 1122
5 1123
5 1124
5 1125
5 1126
5 1127
5 1128
5 1129
5 1130
5 1131
5 1132
5 1133
5 1134
5 1135
5 1136
5 1137
5 1138
5 1139
5 1140
5 1141
5 1142
5 1143
5 1144
5 1145
5 1146
5 1147
5 1151
5 1152
5 1154
5 1157
5 1158
5 1159
5 1161
5 1162
5 1167
5 1170
5 1173
5 1175
5 1182
5 1184
5 1186
5 1188
5 1190
5 1200
5 1201
5 1211
5 1216
5 1219
5 1228
5 1230
5 1231
5 1233
5 1238
5 1239
5 1241
5 1253
5 1255
5 1260
5 1272
5 1274
5 1277
5 1278
5 1279
5 1282
5 1284
5 1285
5 1288
5 1289
5 1290
5 1291
5 1294
5 1297
5 1298
5 1302
5 1303
5 1304
5 1306
5 1307
5 1308
5 1309
5 1312
5 1332
5 1333
5 1363
5 1387
5 1388
5 1389
5 1390
5 1391
5 1414
5 1415
5 1416
5 1417
5 1422
5 1425
5 1426
5 1427
5 1429
5 1449
5 1482
5 1487
5 1488
5 1492
5 1497
5 1513
5 1525
5 1528
5 1529
5 1535
5 1538
5 1543
5 1544
5 1547
5 1572
5 1575
5 1578
5 1585
5 1596
5 1597
5 1598
5 1602
5 1604
5 1607
5 1610
5 1615
6 0
6 1
6 2
6 3
6 4
6 5
6 6
6 7
6 9
6 10
6 11
6 12
6 14
6 15
6 17
6 18
6 21
6 24
6 25
6 27
6 32
6 36
6 37
6 39
6 40
6 41
6 42
6 46
6 48
6 53
6 56
6 57
6 64
6 65
6 66
6 68
6 71
6 73
6 74
6 81
6 82
6 83
6 86
6 87
6 88
6 89
6 90
6 92
6 93
6 97
6 98
6 99
6 101
6 104
6 105
6 107
6 109
6 116
6 118
6 119
6 120
6 122
6 124
6 133
6 134
6 135
6 138
6 141
6 145
6 146
6 153
6 155
6 156
6 157
6 158
6 160
6 161
6 162
6 163
6 165
6 166
6 168
6 174
6 178
6 181
6 182
6 183
6 184
6 185
6 187
6 188
6 189
6 192
6 195
6 196
6 200
6 203
6 205
6 209
6 210
6 211
6 212
6 216
6 220
6 221
6 222
6 223
6 224
6 225
6 226
6 227
6 230
6 232
6 233
6 236
6 238
6 240
6 241
6 242
6 244
6 245
6 251
6 253
6 258
6 261
6 264
6 265
6 270
6 274
6 275
6 278
6 279
6 281
6 287
6 290
6 296
6 299
6 303
6 304
6 308
6 317
6 319
6 328
6 329
6 333
6 335
6 336
6 341
6 342
6 348
6 351
6 352
6 354
6 356
6 357
6 359
6 360
6 366
6 368
6 370
6 374
6 376
6 377
6 378
6 381
6 385
6 386
6 391
6 394
6 400
6 403
6 408
6 411
6 416
6 426
6 430
6 433
6 435
6 436
6 437
6 439
6 443
6 446
6 448
6 452
6 457
6 460
6 461
6 464
6 469
6 471
6 474
6 475
6 476
6 477
6 484
6 485
6 486
6 488
6 490
6 492
6 494
6 496
6 500
6 504
6 507
6 509
6 511
6 512
6 517
6 518
6 519
6 520
6 524
6 525
6 528
6 530
6 532
6 536
6 543
6 544
6 546
6 552
6 553
6 554
6 556
6 557
6 559
6 564
6 566
6 570
6 573
6 577
6 578
6 579
6 583
6 584
6 586
6 587
6 592
6 594
6 595
6 600
6 601
6 602
6 604
6 605
6 606
6 607
6 609
6 611
6 614
6 620
6 621
6 623
6 625
6 626
6 627
6 629
6 636
6 641
6 643
6 646
6 649
6 651
6 657
6 659
6 665
6 666
6 669
6 670
6 671
6 674
6 680
6 683
6 684
6 686
6 687
6 693
6 699
6 705
6 711
6 712
6 715
6 720
6 723
6 725
6 726
6 727
6 729
6 730
6 734
6 749
6 750
6 753
6 757
6 763
6 764
6 765
6 766
6 771
6 772
6 774
6 776
6 777
6 778
6 786
6 791
6 794
6 795
6 797
6 800
6 801
6 802
6 803
6 808
6 809
6 811
6 814
6 817
6 818
6 820
6 826
6 829
6 830
6 832
6 842
6 848
6 854
6 859
6 867
6 872
6 883
6 885
6 889
6 892
6 893
6 899
6 900
6 901
6 902
6 903
6 905
6 906
6 907
6 911
6 914
6 918
6 927
6 934
6 936
6 947
6 958
6 960
6 963
6 967
6 979
6 980
6 981
6 982
6 984
6 985
6 988
6 990
6 991
6 993
6 995
6 998
6 1001
6 1004
6 1005
6 1006
6 1007
6 1013
6 1018
6 1025
6 1026
6 1031
6 1032
6 1033
6 1039
6 1049
6 1050
6 1051
6 1056
6 1057
6 1060
6 1061
6 1075
6 1076
6 1077
6 1078
6 1079
6 1084
6 1085
6 1087
6 1094
6 1097
6 1102
6 1104
6 1107
6 1108
6 1113
6 1115
6 1121
6 1124
6 1125
6 1126
6 1127
6 1129
6 1133
6 1134
6 1136
6 1145
6 1148
6 1149
6 1150
6 1151
6 1152
6 1153
6 1155
6 1156
6 1157
6 1158
6 1159
6 1160
6 1161
6 1162
6 1163
6 1164
6 1165
6 1167
6 1168
6 1169
6 1170
6 1171
6 1172
6 1173
6 1174
6 1175
6 1176
6 1177
6 1178
6 1179
6 1180
6 1181
6 1182
6 1183
6 1184
6 1185
6 1186
6 1187
6 1188
6 1189
6 1190
6 1191
6 1192
6 1193
6 1194
6 1195
6 1196
6 1197
6 1198
6 1199
6 1200
6 1201
6 1202
6 1203
6 1204
6 1205
6 1206
6 1207
6 1208
6 1209
6 1211
6 1212
6 1214
6 1216
6 1217
6 1218
6 1219
6 1220
6 1221
6 1226
6 1227
6 1228
6 1231
6 1232
6 1235
6 1246
6 1250
6 1253
6 1255
6 1258
6 1260
6 1275
6 1276
6 1278
6 1279
6 1281
6 1284
6 1286
6 1290
6 1291
6 1292
6 1294
6 1295
6 1299
6 1300
6 1301
6 1307
6 1309
6 1311
6 1318
6 1319
6 1321
6 1326
6 1334
6 1356
6 1363
6 1387
6 1390
6 1414
6 1415
6 1416
6 1417
6 1425
6 1427
6 1446
6 1480
6 1486
6 1495
6 1497
6 1513
6 1514
6 1521
6 1538
6 1541
6 1543
6 1551
6 1559
6 1572
6 1578
6 1586
6 1594
6 1599
6 1600
6 1603
6 1607
6 1616
6 1617
7 0
7 1
7 2
7 3
7 4
7 5
7 6
7 8
7 9
7 10
7 11
7 14
7 15
7 16
7 22
7 27
7 29
7 31
7 32
7 39
7 41
7 47
7 51
7 53
7 55
7 60
7 65
7 69
7 81
7 82
7 92
7 94
7 98
7 104
7 107
7 108
7 110
7 112
7 118
7 119
7 122
7 123
7 128
7 133
7 136
7 144
7 158
7 164
7 166
7 169
7 170
7 174
7 181
7 182
7 186
7 187
7 188
7 191
7 192
7 197
7 198
7 199
7 205
7 206
7 210
7 213
7 214
7 216
7 217
7 221
7 224
7 230
7 236
7 239
7 240
7 241
7 243
7 244
7 249
7 250
7 251
7 255
7 258
7 264
7 270
7 271
7 275
7 287
7 288
7 293
7 296
7 301
7 304
7 308
7 316
7 319
7 321
7 323
7 328
7 334
7 335
7 342
7 350
7 354
7 361
7 368
7 377
7 378
7 391
7 394
7 395
7 396
7 400
7 406
7 408
7 410
7 411
7 413
7 414
7 418
7 426
7 435
7 437
7 438
7 439
7 442
7 443
7 449
7 453
7 460
7 469
7 472
7 475
7 476
7 477
7 481
7 485
7 486
7 491
7 493
7 500
7 504
7 509
7 510
7 511
7 513
7 515
7 525
7 546
7 551
7 558
7 566
7 567
7 571
7 572
7 575
7 583
7 596
7 600
7 604
7 605
7 606
7 624
7 625
7 627
7 629
7 631
7 635
7 637
7 640
7 644
7 651
7 657
7 666
7 667
7 668
7 683
7 698
7 699
7 701
7 702
7 704
7 707
7 711
7 712
7 713
7 715
7 716
7 720
7 727
7 729
7 733
7 739
7 743
7 766
7 774
7 784
7 785
7 786
7 792
7 797
7 805
7 807
7 808
7 814
7 815
7 818
7 830
7 832
7 841
7 852
7 853
7 854
7 855
7 859
7 860
7 867
7 868
7 872
7 882
7 883
7 885
7 899
7 906
7 927
7 930
7 931
7 936
7 937
7 951
7 953
7 955
7 957
7 958
7 960
7 964
7 967
7 972
7 974
7 975
7 984
7 988
7 995
7 999
7 1000
7 1001
7 1006
7 1008
7 1014
7 1019
7 1027
7 1036
7 1037
7 1050
7 1057
7 1059
7 1061
7 1079
7 1082
7 1094
7 1096
7 1100
7 1101
7 1102
7 1103
7 1104
7 1108
7 1112
7 1113
7 1115
7 1118
7 1127
7 1128
7 1130
7 1139
7 1140
7 1141
7 1145
7 1147
7 1151
7 1152
7 1163
7 1168
7 1178
7 1179
7 1180
7 1183
7 1186
7 1188
7 1190
7 1221
7 1223
7 1224
7 1225
7 1226
7 1227
7 1228
7 1229
7 1230
7 1231
7 1232
7 1237
7 1238
7 1239
7 1240
7 1241
7 1243
7 1244
7 1250
7 1251
7 1252
7 1254
7 1255
7 1272
7 1278
7 1289
7 1296
7 1299
7 1300
7 1302
7 1303
7 1304
7 1305
7 1309
7 1310
7 1313
7 1331
7 1335
7 1336
7 1387
7 1390
7 1414
7 1416
7 1425
7 1426
7 1482
7 1484
7 1487
7 1527
7 1542
7 1544
7 1562
7 1603
7 1615
7 1622
8 0
8 1
8 2
8 3
8 4
8 5
8 7
8 10
8 11
8 36
8 39
8 41
8 47
8 51
8 53
8 55
8 57
8 60
8 74
8 81
8 83
8 87
8 92
8 93
8 96
8 98
8 104
8 109
8 125
8 126
8 133
8 135
8 141
8 153
8 158
8 159
8 164
8 165
8 168
8 175
8 181
8 182
8 183
8 184
8 186
8 188
8 192
8 195
8 196
8 205
8 206
8 210
8 213
8 221
8 230
8 236
8 237
8 239
8 244
8 247
8 248
8 249
8 250
8 251
8 258
8 271
8 281
8 287
8 288
8 296
8 303
8 308
8 313
8 321
8 325
8 326
8 329
8 331
8 350
8 373
8 374
8 376
8 378
8 383
8 387
8 394
8 395
8 401
8 405
8 409
8 417
8 422
8 423
8 431
8 438
8 442
8 443
8 455
8 457
8 461
8 469
8 471
8 474
8 476
8 477
8 483
8 486
8 489
8 490
8 494
8 517
8 539
8 543
8 558
8 559
8 565
8 567
8 572
8 574
8 583
8 601
8 605
8 606
8 623
8 625
8 627
8 640
8 641
8 645
8 657
8 659
8 671
8 674
8 687
8 695
8 696
8 702
8 704
8 711
8 712
8 727
8 728
8 731
8 735
8 736
8 739
8 749
8 762
8 766
8 780
8 784
8 785
8 788
8 789
8 792
8 793
8 794
8 803
8 806
8 807
8 817
8 818
8 843
8 865
8 883
8 889
8 899
8 903
8 912
8 916
8 918
8 923
8 927
8 930
8 931
8 934
8 952
8 957
8 965
8 975
8 981
8 982
8 985
8 1012
8 1017
8 1018
8 1030
8 1032
8 1047
8 1049
8 1050
8 1057
8 1061
8 1090
8 1101
8 1107
8 1115
8 1118
8 1124
8 1127
8 1128
8 1130
8 1133
8 1141
8 1145
8 1147
8 1151
8 1164
8 1165
8 1181
8 1201
8 1207
8 1211
8 1218
8 1225
8 1226
8 1231
8 1251
8 1252
8 1253
8 1254
8 1255
8 1256
8 1258
8 1259
8 1260
8 1261
8 1263
8 1264
8 1265
8 1266
8 1267
8 1268
8 1269
8 1270
8 1271
8 1272
8 1273
8 1274
8 1275
8 1276
8 1290
8 1291
8 1294
8 1302
8 1303
8 1305
8 1306
8 1363
8 1387
8 1390
8 1415
8 1427
8 1429
8 1430
8 1514
8 1529
8 1531
8 1543
8 1544
8 1572
8 1594
8 1595
8 1598
8 1607
9 1
9 2
9 3
9 4
9 5
9 6
9 7
9 10
9 12
9 14
9 18
9 20
9 21
9 26
9 35
9 37
9 39
9 53
9 56
9 57
9 65
9 66
9 72
9 81
9 87
9 88
9 92
9 96
9 97
9 98
9 99
9 106
9 107
9 109
9 117
9 121
9 124
9 133
9 134
9 136
9 150
9 153
9 157
9 158
9 159
9 165
9 181
9 182
9 183
9 184
9 186
9 188
9 193
9 195
9 196
9 205
9 210
9 212
9 213
9 221
9 226
9 231
9 232
9 240
9 246
9 248
9 250
9 258
9 281
9 287
9 288
9 292
9 296
9 301
9 303
9 304
9 318
9 319
9 321
9 326
9 330
9 333
9 342
9 343
9 352
9 356
9 359
9 373
9 374
9 376
9 377
9 387
9 394
9 395
9 412
9 420
9 421
9 433
9 435
9 436
9 438
9 442
9 448
9 449
9 452
9 455
9 457
9 472
9 476
9 477
9 481
9 488
9 493
9 498
9 501
9 509
9 525
9 526
9 530
9 533
9 536
9 539
9 547
9 552
9 558
9 561
9 566
9 568
9 572
9 574
9 583
9 584
9 587
9 594
9 600
9 602
9 604
9 607
9 624
9 625
9 627
9 634
9 651
9 666
9 669
9 675
9 679
9 684
9 693
9 694
9 711
9 715
9 720
9 727
9 729
9 733
9 742
9 743
9 746
9 751
9 755
9 762
9 765
9 766
9 767
9 773
9 777
9 780
9 785
9 792
9 794
9 797
9 800
9 801
9 803
9 805
9 806
9 809
9 817
9 846
9 855
9 865
9 869
9 872
9 876
9 882
9 885
9 889
9 891
9 892
9 900
9 904
9 905
9 911
9 917
9 920
9 921
9 922
9 923
9 927
9 930
9 937
9 951
9 953
9 957
9 969
9 970
9 971
9 987
9 995
9 997
9 1004
9 1032
9 1049
9 1066
9 1073
9 1076
9 1084
9 1087
9 1089
9 1091
9 1095
9 1096
9 1108
9 1112
9 1113
9 1126
9 1128
9 1129
9 1130
9 1139
9 1140
9 1141
9 1142
9 1158
9 1165
9 1168
9 1182
9 1190
9 1206
9 1207
9 1211
9 1214
9 1216
9 1217
9 1218
9 1219
9 1226
9 1227
9 1239
9 1240
9 1241
9 1251
9 1252
9 1254
9 1255
9 1259
9 1267
9 1272
9 1274
9 1277
9 1278
9 1279
9 1280
9 1281
9 1282
9 1283
9 1284
9 1285
9 1286
9 1287
9 1288
9 1289
9 1290
9 1291
9 1298
9 1301
9 1302
9 1303
9 1306
9 1307
9 1308
9 1317
9 1363
9 1387
9 1416
9 1417
9 1487
9 1514
9 1521
9 1529
9 1541
9 1544
9 1594
9 1603
10 0
10 1
10 2
10 3
10 4
10 5
10 6
10 7
10 8
10 9
10 10
10 11
10 12
10 14
10 25
10 32
10 35
10 36
10 37
10 46
10 53
10 57
10 62
10 64
10 67
10 68
10 81
10 82
10 87
10 88
10 92
10 93
10 94
10 96
10 98
10 99
10 104
10 106
10 119
10 127
10 133
10 137
10 141
10 145
10 153
10 155
10 157
10 160
10 161
10 162
10 168
10 169
10 178
10 183
10 184
10 192
10 193
10 195
10 205
10 212
10 219
10 227
10 233
10 237
10 238
10 240
10 244
10 249
10 263
10 264
10 268
10 272
10 281
10 308
10 320
10 325
10 326
10 328
10 334
10 336
10 337
10 359
10 368
10 379
10 391
10 394
10 396
10 402
10 403
10 411
10 417
10 418
10 430
10 435
10 437
10 442
10 443
10 446
10 449
10 453
10 458
10 464
10 469
10 471
10 474
10 480
10 481
10 484
10 486
10 488
10 493
10 504
10 510
10 512
10 517
10 520
10 522
10 525
10 566
10 567
10 572
10 576
10 578
10 579
10 581
10 584
10 590
10 602
10 605
10 606
10 609
10 611
10 621
10 627
10 635
10 641
10 657
10 662
10 689
10 692
10 695
10 705
10 707
10 714
10 717
10 726
10 734
10 743
10 767
10 772
10 778
10 779
10 781
10 784
10 803
10 807
10 809
10 818
10 823
10 828
10 831
10 841
10 842
10 846
10 853
10 862
10 877
10 883
10 885
10 886
10 898
10 903
10 909
10 910
10 912
10 922
10 929
10 936
10 960
10 973
10 988
10 989
10 990
10 991
10 993
10 994
10 999
10 1005
10 1013
10 1038
10 1044
10 1050
10 1057
10 1061
10 1068
10 1070
10 1079
10 1083
10 1084
10 1085
10 1102
10 1107
10 1111
10 1125
10 1127
10 1130
10 1144
10 1157
10 1159
10 1167
10 1181
10 1191
10 1199
10 1227
10 1228
10 1240
10 1241
10 1252
10 1266
10 1273
10 1288
10 1289
10 1290
10 1291
10 1292
10 1293
10 1299
10 1300
10 1303
10 1306
10 1308
10 1333
10 1374
10 1415
10 1427
10 1495
10 1528
10 1598
10 1617
11 1
11 2
11 4
11 6
11 7
11 8
11 10
11 14
11 18
11 27
11 37
11 54
11 55
11 56
11 67
11 71
11 73
11 74
11 81
11 88
11 92
11 93
11 104
11 119
11 133
11 136
11 158
11 159
11 165
11 166
11 167
11 169
11 174
11 175
11 181
11 182
11 183
11 186
11 187
11 192
11 194
11 199
11 210
11 212
11 213
11 216
11 227
11 230
11 231
11 233
11 236
11 237
11 247
11 248
11 249
11 250
11 258
11 280
11 292
11 296
11 316
11 321
11 324
11 352
11 355
11 356
11 359
11 376
11 394
11 395
11 396
11 401
11 413
11 424
11 427
11 430
11 438
11 446
11 448
11 460
11 472
11 474
11 475
11 476
11 480
11 481
11 483
11 486
11 489
11 493
11 494
11 498
11 501
11 507
11 518
11 525
11 539
11 540
11 546
11 551
11 570
11 572
11 574
11 577
11 578
11 583
11 601
11 602
11 637
11 674
11 679
11 693
11 716
11 727
11 733
11 767
11 780
11 791
11 792
11 807
11 815
11 828
11 837
11 854
11 855
11 861
11 872
11 906
11 921
11 923
11 930
11 935
11 957
11 975
11 982
11 983
11 987
11 991
11 993
11 997
11 998
11 1000
11 1001
11 1021
11 1057
11 1073
11 1079
11 1082
11 1085
11 1086
11 1101
11 1104
11 1108
11 1111
11 1115
11 1129
11 1130
11 1134
11 1139
11 1147
11 1150
11 1154
11 1168
11 1169
11 1173
11 1174
11 1207
11 1216
11 1219
11 1224
11 1226
11 1227
11 1239
11 1259
11 1264
11 1266
11 1267
11 1280
11 1287
11 1290
11 1294
11 1295
11 1296
11 1368
11 1387
11 1405
11 1429
11 1497
11 1531
11 1543
11 1551
11 1553
12 3
12 5
12 6
12 9
12 10
12 16
12 20
12 24
12 25
12 29
12 31
12 37
12 39
12 46
12 53
12 86
12 93
12 116
12 133
12 142
12 143
12 161
12 165
12 188
12 190
12 195
12 206
12 211
12 218
12 221
12 241
12 281
12 287
12 292
12 304
12 311
12 319
12 322
12 326
12 328
12 354
12 403
12 405
12 412
12 427
12 431
12 435
12 448
12 453
12 471
12 472
12 485
12 486
12 491
12 504
12 567
12 572
12 573
12 586
12 636
12 637
12 746
12 767
12 796
12 797
12 798
12 836
12 916
12 961
12 964
12 967
12 969
12 999
12 1028
12 1051
12 1056
12 1061
12 1076
12 1079
12 1081
12 1128
12 1138
12 1187
12 1233
12 1234
12 1238
12 1255
12 1314
12 1321
12 1322
12 1323
12 1326
12 1333
12 1387
12 1427
12 1484
12 1544
12 1596
13 1
13 82
13 160
13 162
13 163
13 193
13 237
13 238
13 239
13 352
13 359
13 569
13 580
13 627
13 641
13 654
13 662
13 665
13 791
13 842
13 887
13 1131
13 1135
13 1199
13 1297
13 1368
13 1427
14 0
14 1
14 4
14 5
14 6
14 7
14 9
14 10
14 11
14 26
14 29
14 31
14 32
14 35
14 37
14 39
14 81
14 92
14 98
14 112
14 141
14 143
14 145
14 153
14 163
14 189
14 195
14 205
14 211
14 217
14 220
14 227
14 233
14 237
14 238
14 240
14 244
14 246
14 247
14 249
14 281
14 287
14 292
14 316
14 319
14 328
14 351
14 354
14 359
14 405
14 413
14 414
14 427
14 439
14 477
14 479
14 485
14 488
14 494
14 500
14 557
14 567
14 572
14 575
14 578
14 604
14 606
14 611
14 625
14 640
14 641
14 662
14 683
14 688
14 712
14 715
14 720
14 730
14 743
14 797
14 801
14 805
14 807
14 817
14 841
14 842
14 872
14 875
14 885
14 903
14 943
14 960
14 985
14 988
14 989
14 990
14 996
14 1019
14 1023
14 1037
14 1050
14 1057
14 1061
14 1098
14 1125
14 1127
14 1131
14 1132
14 1140
14 1145
14 1199
14 1201
14 1203
14 1226
14 1227
14 1228
14 1231
14 1255
14 1281
14 1285
14 1286
14 1289
14 1298
14 1299
14 1300
14 1301
14 1302
14 1303
14 1304
14 1305
14 1306
14 1307
14 1333
14 1416
15 6
15 7
15 55
15 82
15 104
15 118
15 136
15 141
15 169
15 195
15 214
15 220
15 240
15 299
15 304
15 319
15 325
15 328
15 354
15 394
15 443
15 457
15 493
15 572
15 606
15 626
15 670
15 715
15 720
15 729
15 781
15 784
15 796
15 797
15 801
15 807
15 822
15 958
15 988
15 989
15 990
15 995
15 1003
15 1019
15 1027
15 1049
15 1050
15 1057
15 1061
15 1082
15 1111
15 1127
15 1191
15 1227
15 1228
15 1231
15 1274
15 1298
15 1299
15 1303
15 1310
15 1415
16 1
16 4
16 5
16 7
16 12
16 55
16 101
16 107
16 126
16 133
16 134
16 157
16 186
16 195
16 226
16 232
16 283
16 287
16 288
16 333
16 345
16 396
16 442
16 452
16 484
16 499
16 517
16 526
16 600
16 634
16 666
16 683
16 743
16 755
16 792
16 796
16 885
16 931
16 936
16 937
16 955
16 957
16 958
16 960
16 963
16 995
16 1004
16 1027
16 1079
16 1098
16 1112
16 1128
16 1130
16 1139
16 1147
16 1164
16 1169
16 1206
16 1241
16 1254
16 1255
16 1278
16 1279
16 1308
16 1309
16 1425
16 1427
17 0
17 1
17 6
17 27
17 41
17 55
17 81
17 96
17 104
17 117
17 126
17 133
17 156
17 158
17 182
17 186
17 210
17 212
17 230
17 236
17 248
17 251
17 264
17 281
17 282
17 354
17 376
17 381
17 387
17 394
17 413
17 442
17 443
17 449
17 474
17 481
17 494
17 572
17 587
17 601
17 602
17 629
17 729
17 739
17 781
17 807
17 809
17 878
17 960
17 989
17 1018
17 1079
17 1087
17 1089
17 1091
17 1111
17 1127
17 1129
17 1130
17 1139
17 1147
17 1150
17 1255
17 1272
17 1274
18 2
18 6
18 9
18 11
18 24
18 25
18 37
18 53
18 143
18 221
18 240
18 303
18 385
18 449
18 493
18 600
18 636
18 637
18 652
18 711
18 715
18 729
18 792
18 797
18 953
18 964
18 995
18 1006
18 1056
18 1112
18 1165
18 1169
18 1188
18 1473
18 1542
19 0
19 3
19 4
19 158
19 176
19 240
19 287
19 359
19 387
19 408
19 420
19 421
19 443
19 488
19 519
19 522
19 567
19 624
19 742
19 797
19 805
19 807
19 810
19 990
19 995
19 1039
19 1061
19 1083
19 1096
19 1188
19 1231
19 1255
19 1284
19 1285
19 1290
19 1307
19 1417
19 1545
20 0
20 9
20 12
20 66
20 114
20 124
20 137
20 143
20 165
20 205
20 220
20 240
20 245
20 281
20 288
20 309
20 328
20 352
20 368
20 373
20 385
20 391
20 397
20 436
20 443
20 448
20 449
20 477
20 484
20 485
20 606
20 629
20 634
20 636
20 666
20 669
20 707
20 713
20 715
20 720
20 739
20 795
20 797
20 800
20 801
20 802
20 807
20 953
20 955
20 957
20 1004
20 1008
20 1018
20 1031
20 1050
20 1061
20 1080
20 1096
20 1112
20 1113
20 1167
20 1182
20 1191
20 1206
20 1227
20 1239
20 1243
20 1273
20 1274
20 1290
20 1291
20 1307
20 1310
20 1311
20 1345
20 1405
20 1543
20 1544
20 1621
21 0
21 2
21 6
21 9
21 39
21 72
21 81
21 96
21 120
21 158
21 165
21 183
21 228
21 236
21 246
21 303
21 468
21 469
21 512
21 530
21 561
21 605
21 606
21 625
21 643
21 686
21 689
21 707
21 803
21 852
21 957
21 1006
21 1085
21 1126
21 1163
21 1175
21 1186
21 1188
21 1295
21 1302
21 1305
21 1306
21 1425
21 1493
22 0
22 1
22 2
22 3
22 4
22 5
22 7
22 41
22 45
22 81
22 196
22 198
22 248
22 251
22 290
22 455
22 530
22 552
22 583
22 620
22 627
22 651
22 663
22 701
22 739
22 962
22 970
22 996
22 1007
22 1106
22 1171
22 1217
22 1237
22 1259
22 1276
22 1363
22 1387
22 1417
22 1481
22 1539
23 64
23 66
23 86
23 116
23 142
23 144
23 177
23 188
23 242
23 278
23 284
23 287
23 311
23 326
23 402
23 412
23 472
23 572
23 574
23 702
23 893
23 925
23 951
23 969
23 986
23 1028
23 1029
23 1077
23 1078
23 1081
23 1102
23 1233
23 1234
23 1235
23 1236
23 1238
23 1246
23 1316
23 1321
23 1323
23 1326
23 1330
23 1333
23 1336
23 1561
24 2
24 3
24 6
24 12
24 18
24 55
24 96
24 118
24 143
24 186
24 240
24 328
24 400
24 435
24 448
24 485
24 493
24 530
24 576
24 606
24 671
24 729
24 797
24 807
24 852
24 903
24 981
24 995
24 999
24 1050
24 1061
24 1079
24 1130
24 1139
24 1164
24 1165
24 1169
24 1184
24 1201
24 1228
24 1231
24 1240
24 1254
24 1255
24 1300
24 1310
24 1416
24 1482
24 1542
25 0
25 2
25 6
25 10
25 12
25 18
25 37
25 221
25 236
25 258
25 283
25 303
25 356
25 400
25 435
25 448
25 460
25 477
25 559
25 572
25 576
25 605
25 606
25 720
25 729
25 762
25 792
25 797
25 808
25 852
25 953
25 957
25 963
25 995
25 1079
25 1128
25 1130
25 1163
25 1168
25 1169
25 1170
25 1188
25 1201
25 1254
25 1305
25 1405
25 1562
26 3
26 9
26 14
26 72
26 107
26 119
26 165
26 195
26 205
26 220
26 221
26 240
26 319
26 333
26 373
26 391
26 436
26 443
26 509
26 525
26 594
26 636
26 743
26 796
26 800
26 801
26 802
26 808
26 810
26 818
26 903
26 953
26 963
26 990
26 1004
26 1080
26 1095
26 1097
26 1113
26 1128
26 1141
26 1180
26 1182
26 1185
26 1191
26 1206
26 1227
26 1290
26 1300
26 1308
26 1311
26 1545
27 0
27 1
27 2
27 3
27 4
27 5
27 6
27 7
27 11
27 17
27 35
27 104
27 156
27 224
27 230
27 377
27 455
27 473
27 518
27 602
27 605
27 668
27 670
27 781
27 941
27 969
27 982
27 996
27 1048
27 1124
27 1129
27 1356
28 0
28 1
28 2
28 4
28 64
28 82
28 116
28 142
28 144
28 190
28 198
28 218
28 242
28 254
28 277
28 284
28 412
28 472
28 547
28 571
28 702
28 732
28 782
28 816
28 925
28 963
28 986
28 1078
28 1102
28 1125
28 1233
28 1238
28 1247
28 1268
28 1312
28 1313
28 1314
28 1315
28 1316
28 1317
28 1318
28 1319
28 1320
28 1321
28 1322
28 1323
28 1324
28 1325
28 1326
28 1327
28 1328
28 1329
28 1330
28 1331
28 1332
28 1333
28 1334
28 1335
28 1336
29 5
29 7
29 12
29 14
29 39
29 53
29 64
29 72
29 92
29 119
29 143
29 158
29 165
29 221
29 240
29 249
29 304
29 316
29 325
29 334
29 354
29 373
29 436
29 469
29 486
29 500
29 572
29 637
29 669
29 674
29 713
29 720
29 796
29 797
29 802
29 809
29 988
29 990
29 999
29 1019
29 1050
29 1082
29 1098
29 1130
29 1167
29 1178
29 1180
29 1201
29 1226
29 1231
29 1286
29 1289
29 1300
29 1306
29 1307
29 1543
29 1562
30 0
30 2
30 46
30 47
30 61
30 66
30 81
30 83
30 86
30 92
30 116
30 177
30 189
30 281
30 285
30 307
30 308
30 321
30 322
30 368
30 381
30 390
30 413
30 516
30 519
30 552
30 631
30 655
30 662
30 684
30 787
30 842
30 846
30 862
30 864
30 881
30 896
30 965
30 1029
30 1081
30 1142
30 1192
30 1210
30 1247
30 1312
30 1320
30 1387
30 1483
30 1497
30 1514
30 1572
30 1577
30 1578
30 1596
31 1
31 3
31 5
31 7
31 12
31 14
31 53
31 64
31 72
31 92
31 119
31 143
31 145
31 158
31 165
31 221
31 240
31 249
31 304
31 325
31 354
31 373
31 436
31 469
31 486
31 500
31 525
31 625
31 637
31 674
31 713
31 720
31 796
31 801
31 802
31 803
31 805
31 809
31 817
31 963
31 988
31 990
31 999
31 1006
31 1019
31 1050
31 1082
31 1130
31 1140
31 1167
31 1178
31 1180
31 1201
31 1226
31 1231
31 1284
31 1286
31 1300
31 1305
31 1306
31 1307
31 1543
31 1562
32 0
32 1
32 2
32 4
32 5
32 6
32 7
32 10
32 14
32 39
32 64
32 72
32 81
32 96
32 112
32 119
32 133
32 158
32 183
32 303
32 330
32 334
32 437
32 468
32 469
32 486
32 512
32 600
32 606
32 674
32 689
32 705
32 707
32 720
32 726
32 778
32 792
32 796
32 803
32 831
32 852
32 922
32 990
32 999
32 1060
32 1079
32 1082
32 1083
32 1084
32 1085
32 1086
32 1118
32 1126
32 1147
32 1157
32 1159
32 1178
32 1186
32 1255
32 1293
32 1302
32 1425
32 1496
32 1622
33 1
33 2
33 4
33 82
33 92
33 116
33 142
33 190
33 242
33 244
33 254
33 281
33 284
33 412
33 472
33 547
33 571
33 627
33 702
33 732
33 733
33 782
33 787
33 816
33 925
33 963
33 986
33 1015
33 1078
33 1102
33 1125
33 1233
33 1234
33 1238
33 1247
33 1265
33 1312
33 1313
33 1314
33 1315
33 1316
33 1317
33 1318
33 1320
33 1321
33 1322
33 1323
33 1324
33 1325
33 1326
33 1327
33 1328
33 1329
33 1330
33 1331
33 1332
33 1333
33 1334
33 1335
33 1336
33 1387
34 0
34 1
34 2
34 3
34 4
34 5
34 49
34 62
34 65
34 68
34 82
34 83
34 84
34 92
34 123
34 127
34 133
34 134
34 160
34 179
34 203
34 235
34 258
34 285
34 296
34 320
34 378
34 420
34 444
34 461
34 499
34 514
34 519
34 523
34 532
34 548
34 579
34 629
34 636
34 657
34 678
34 766
34 779
34 1026
34 1067
34 1225
34 1266
34 1297
34 1378
34 1387
34 1392
34 1408
34 1527
34 1594
34 1598
34 1614
35 2
35 3
35 5
35 9
35 10
35 14
35 27
35 41
35 55
35 104
35 122
35 156
35 186
35 191
35 195
35 214
35 230
35 236
35 251
35 283
35 287
35 299
35 315
35 316
35 376
35 378
35 381
35 383
35 394
35 442
35 473
35 481
35 513
35 530
35 572
35 602
35 605
35 636
35 666
35 667
35 668
35 670
35 691
35 712
35 713
35 755
35 779
35 792
35 796
35 804
35 805
35 859
35 941
35 963
35 985
35 995
35 996
35 1002
35 1003
35 1049
35 1079
35 1114
35 1143
35 1162
35 1169
35 1171
35 1175
35 1217
35 1231
35 1254
35 1255
36 0
36 1
36 2
36 3
36 4
36 5
36 6
36 8
36 10
36 42
36 231
36 496
36 652
36 694
36 697
36 725
36 947
36 1353
36 1470
36 1540
36 1589
37 0
37 1
37 2
37 3
37 6
37 9
37 10
37 11
37 12
37 14
37 18
37 25
37 55
37 96
37 98
37 118
37 143
37 145
37 186
37 236
37 240
37 293
37 328
37 356
37 400
37 433
37 435
37 448
37 449
37 485
37 493
37 529
37 530
37 559
37 576
37 605
37 636
37 652
37 671
37 711
37 715
37 729
37 762
37 797
37 807
37 852
37 953
37 964
37 981
37 989
37 995
37 999
37 1050
37 1061
37 1079
37 1127
37 1161
37 1164
37 1165
37 1168
37 1169
37 1184
37 1188
37 1189
37 1201
37 1228
37 1231
37 1254
37 1255
37 1286
37 1300
37 1306
37 1310
37 1482
37 1543
37 1597
38 0
38 1
38 2
38 3
38 545
38 1594
39 0
39 1
39 2
39 3
39 5
39 6
39 7
39 8
39 9
39 12
39 14
39 21
39 29
39 32
39 72
39 176
39 258
39 304
39 316
39 328
39 373
39 376
39 469
39 484
39 486
39 526
39 567
39 604
39 623
39 625
39 701
39 712
39 713
39 723
39 817
39 841
39 936
39 999
39 1032
39 1126
39 1298
39 1301
39 1306
39 1309
39 1427
40 0
40 1
40 2
40 3
40 4
40 5
40 6
40 92
40 190
40 210
40 329
40 436
40 517
40 729
40 767
40 784
40 808
40 822
40 883
40 958
40 980
40 995
40 1279
40 1355
40 1382
40 1427
40 1541
40 1558
41 0
41 1
41 2
41 3
41 4
41 5
41 6
41 7
41 8
41 17
41 22
41 35
41 45
41 117
41 156
41 230
41 315
41 323
41 356
41 538
41 558
41 605
41 606
41 651
41 668
41 687
41 704
41 739
41 838
41 859
41 866
41 943
41 1063
41 1124
41 1356
41 1471
41 1484
41 1512
41 1566
42 1
42 2
42 3
42 4
42 6
42 36
42 44
42 47
42 57
42 62
42 65
42 66
42 67
42 81
42 82
42 92
42 108
42 109
42 125
42 134
42 152
42 153
42 162
42 168
42 177
42 181
42 184
42 193
42 203
42 281
42 287
42 296
42 301
42 317
42 322
42 343
42 359
42 368
42 369
42 388
42 390
42 391
42 396
42 424
42 447
42 453
42 471
42 496
42 508
42 518
42 532
42 540
42 548
42 559
42 565
42 566
42 568
42 578
42 584
42 592
42 614
42 627
42 629
42 631
42 636
42 655
42 672
42 680
42 684
42 708
42 725
42 750
42 765
42 766
42 777
42 785
42 795
42 836
42 842
42 862
42 865
42 872
42 892
42 946
42 947
42 950
42 987
42 1009
42 1025
42 1029
42 1055
42 1142
42 1251
42 1252
42 1262
42 1320
42 1321
42 1387
42 1389
42 1416
42 1417
42 1423
42 1427
42 1495
42 1507
42 1514
42 1575
42 1577
42 1619
43 0
43 1
43 2
43 4
43 5
43 66
43 76
43 81
43 82
43 88
43 89
43 92
43 94
43 98
43 99
43 101
43 106
43 108
43 121
43 127
43 131
43 135
43 154
43 160
43 184
43 202
43 203
43 207
43 209
43 225
43 233
43 234
43 243
43 253
43 258
43 259
43 261
43 272
43 281
43 286
43 287
43 291
43 296
43 308
43 329
43 345
43 350
43 358
43 375
43 378
43 384
43 396
43 397
43 408
43 410
43 417
43 430
43 446
43 480
43 490
43 499
43 505
43 506
43 546
43 561
43 581
43 592
43 605
43 608
43 609
43 610
43 614
43 627
43 638
43 642
43 717
43 745
43 767
43 774
43 777
43 862
43 872
43 874
43 888
43 909
43 910
43 917
43 919
43 932
43 972
43 974
43 978
43 980
43 994
43 1044
43 1067
43 1109
43 1134
43 1137
43 1171
43 1172
43 1173
43 1174
43 1252
43 1318
43 1387
43 1390
43 1412
43 1416
43 1417
43 1426
43 1427
43 1497
43 1513
43 1525
43 1545
43 1574
43 1577
43 1594
43 1595
43 1598
43 1617
44 0
44 1
44 2
44 3
44 4
44 5
44 42
44 62
44 64
44 65
44 68
44 81
44 82
44 83
44 87
44 88
44 89
44 92
44 93
44 98
44 99
44 108
44 127
44 134
44 135
44 136
44 147
44 160
44 163
44 168
44 181
44 184
44 192
44 193
44 194
44 203
44 209
44 223
44 225
44 233
44 234
44 235
44 237
44 241
44 244
44 247
44 254
44 258
44 259
44 272
44 281
44 296
44 301
44 308
44 320
44 341
44 358
44 369
44 378
44 384
44 391
44 392
44 396
44 397
44 411
44 417
44 430
44 453
44 463
44 480
44 499
44 505
44 506
44 514
44 516
44 523
44 532
44 548
44 557
44 558
44 575
44 579
44 581
44 584
44 592
44 605
44 611
44 614
44 629
44 636
44 641
44 657
44 662
44 704
44 766
44 772
44 789
44 811
44 842
44 862
44 870
44 874
44 883
44 888
44 951
44 974
44 987
44 994
44 1010
44 1026
44 1044
44 1073
44 1092
44 1109
44 1125
44 1131
44 1177
44 1225
44 1252
44 1315
44 1318
44 1368
44 1378
44 1387
44 1408
44 1417
44 1427
44 1527
44 1545
44 1574
44 1598
44 1607
44 1617
45 0
45 22
45 41
45 196
45 198
45 248
45 251
45 290
45 309
45 455
45 572
45 627
45 969
45 971
45 1171
45 1237
45 1276
45 1539
46 0
46 1
46 2
46 3
46 4
46 5
46 6
46 10
46 12
46 30
46 93
46 105
46 116
46 161
46 211
46 341
46 366
46 445
46 459
46 554
46 559
46 579
46 714
46 767
46 1428
46 1543
47 0
47 1
47 2
47 3
47 4
47 7
47 8
47 30
47 42
47 96
47 159
47 174
47 271
47 582
47 756
47 854
47 894
47 920
47 995
47 1030
47 1435
47 1446
47 1519
48 0
48 1
48 2
48 3
48 4
48 5
48 6
48 75
48 99
48 101
48 248
48 251
48 699
48 868
48 1363
48 1416
48 1442
48 1526
48 1539
48 1580
48 1581
48 1582
48 1603
49 0
49 1
49 2
49 3
49 4
49 34
49 129
49 155
49 496
49 603
49 751
49 923
49 1589
50 0
50 1
50 2
50 89
50 268
50 1387
51 0
51 3
51 7
51 8
51 1435
51 1558
52 0
52 1
52 2
52 83
53 0
53 2
53 3
53 5
53 6
53 7
53 8
53 9
53 10
53 12
53 18
53 29
53 31
53 96
53 165
53 220
53 240
53 435
53 477
53 493
53 711
53 720
53 797
53 1076
53 1128
53 1145
53 1183
53 1305
53 1473
53 1543
54 0
54 1
54 3
54 4
54 5
54 11
54 181
54 213
54 250
54 281
54 287
54 292
54 395
54 402
54 438
54 474
54 476
54 539
54 727
54 930
54 951
54 1021
54 1078
54 1270
54 1420
54 1427
55 0
55 1
55 3
55 4
55 5
55 7
55 8
55 11
55 15
55 16
55 17
55 24
55 35
55 37
55 391
55 529
55 794
55 911
55 927
55 964
55 1145
55 1146
55 1356
55 1427
56 0
56 1
56 2
56 3
56 4
56 5
56 6
56 9
56 11
56 498
56 501
56 606
56 728
56 731
57 0
57 1
57 2
57 3
57 6
57 8
57 9
57 10
57 42
57 496
57 682
57 947
57 1349
57 1514
58 0
58 1
58 2
58 3
58 4
58 5
58 358
58 938
58 1042
59 0
59 1
59 2
59 3
59 4
59 608
59 1404
60 0
60 1
60 7
60 8
60 704
61 0
61 1
61 30
61 359
61 1349
61 1350
61 1387
61 1388
61 1530
61 1568
61 1569
61 1570
62 0
62 1
62 2
62 3
62 4
62 10
62 34
62 42
62 44
62 71
62 83
62 84
62 87
62 92
62 102
62 203
62 245
62 267
62 354
62 590
62 627
62 694
62 771
62 808
62 811
62 898
62 912
62 964
62 1358
62 1359
62 1384
62 1387
62 1392
62 1476
62 1484
62 1488
62 1549
62 1555
62 1571
62 1572
62 1575
62 1595
62 1596
62 1624
63 0
64 0
64 1
64 2
64 3
64 4
64 6
64 10
64 23
64 28
64 29
64 31
64 32
64 44
64 81
64 82
64 86
64 92
64 116
64 134
64 156
64 159
64 203
64 205
64 215
64 258
64 281
64 292
64 312
64 356
64 373
64 433
64 468
64 574
64 657
64 702
64 705
64 726
64 800
64 866
64 872
64 941
64 956
64 976
64 1028
64 1029
64 1031
64 1056
64 1184
64 1234
64 1255
64 1256
64 1360
64 1387
64 1408
64 1417
64 1427
64 1435
64 1471
64 1472
64 1519
64 1535
64 1562
64 1563
64 1564
64 1565
64 1620
65 0
65 1
65 2
65 3
65 4
65 5
65 6
65 7
65 9
65 34
65 42
65 44
65 96
65 203
65 248
65 251
65 434
65 447
65 532
65 603
65 621
65 694
65 720
65 808
65 995
65 1286
65 1352
65 1363
65 1382
65 1507
66 0
66 1
66 2
66 3
66 4
66 5
66 6
66 9
66 20
66 23
66 30
66 42
66 43
66 133
66 175
66 214
66 231
66 258
66 328
66 375
66 444
66 448
66 530
66 584
66 629
66 793
66 801
66 911
66 942
66 1005
66 1203
66 1251
66 1361
66 1397
66 1415
66 1508
66 1560
66 1611
67 0
67 1
67 2
67 3
67 4
67 5
67 10
67 11
67 42
67 281
67 287
67 360
67 418
67 496
67 609
67 877
67 946
67 1053
67 1071
67 1109
67 1348
67 1367
67 1383
67 1417
67 1426
67 1460
67 1549
67 1607
68 0
68 1
68 2
68 3
68 4
68 5
68 6
68 10
68 34
68 44
68 82
68 84
68 88
68 94
68 181
68 235
68 243
68 391
68 476
68 872
68 1154
68 1338
68 1349
68 1355
68 1362
68 1367
68 1552
69 0
69 1
69 2
69 3
69 4
69 7
69 89
69 350
69 395
69 461
69 490
69 647
69 1339
70 0
71 0
71 5
71 6
71 11
71 62
71 98
71 130
71 134
71 168
71 187
71 270
71 274
71 275
71 365
71 428
71 475
71 553
71 627
71 799
71 995
71 998
71 1155
71 1389
71 1550
71 1573
72 0
72 1
72 2
72 4
72 5
72 9
72 21
72 26
72 29
72 31
72 32
72 39
72 240
72 373
72 637
72 814
72 990
72 999
72 1126
72 1141
72 1250
72 1275
73 0
73 2
73 3
73 4
73 5
73 6
73 11
73 81
73 82
73 166
73 170
73 187
73 475
73 637
73 815
73 868
73 1154
73 1551
73 1552
73 1553
74 0
74 1
74 4
74 5
74 6
74 8
74 11
74 133
74 182
74 212
74 230
74 583
74 602
74 793
74 1115
74 1276
74 1356
75 0
75 1
75 2
75 3
75 4
75 48
75 648
75 868
75 1603
76 0
76 1
76 3
76 43
76 209
76 286
76 291
76 375
76 430
76 461
76 490
76 545
77 0
77 1
77 2
77 3
77 81
77 203
77 534
77 548
77 1417
77 1421
78 0
78 1
78 2
78 5
78 92
78 923
78 932
78 1372
78 1387
78 1497
79 0
79 1
79 4
79 5
79 281
79 1367
80 0
80 1
81 0
81 1
81 2
81 3
81 4
81 5
81 6
81 7
81 8
81 9
81 10
81 11
81 14
81 17
81 21
81 22
81 30
81 32
81 42
81 43
81 44
81 64
81 73
81 77
81 81
81 82
81 83
81 87
81 89
81 92
81 93
81 98
81 104
81 126
81 148
81 159
81 168
81 170
81 203
81 207
81 215
81 234
81 235
81 248
81 251
81 258
81 264
81 265
81 271
81 290
81 293
81 308
81 320
81 322
81 330
81 359
81 368
81 391
81 395
81 408
81 441
81 487
81 496
81 521
81 530
81 532
81 538
81 542
81 559
81 567
81 571
81 590
81 597
81 602
81 627
81 629
81 630
81 636
81 639
81 644
81 645
81 657
81 661
81 679
81 697
81 734
81 741
81 762
81 789
81 795
81 805
81 809
81 811
81 822
81 858
81 860
81 868
81 872
81 894
81 946
81 947
81 948
81 995
81 1025
81 1070
81 1146
81 1150
81 1155
81 1157
81 1164
81 1287
81 1336
81 1338
81 1339
81 1363
81 1364
81 1383
81 1387
81 1390
81 1403
81 1407
81 1414
81 1416
81 1417
81 1436
81 1443
81 1450
81 1516
81 1519
81 1523
81 1525
81 1526
81 1540
81 1553
81 1560
81 1575
81 1584
81 1585
81 1594
81 1602
81 1614
81 1617
81 1620
82 0
82 1
82 2
82 3
82 4
82 5
82 6
82 7
82 10
82 13
82 15
82 28
82 33
82 34
82 42
82 43
82 44
82 64
82 68
82 73
82 81
82 87
82 89
82 92
82 137
82 165
82 203
82 209
82 235
82 274
82 281
82 296
82 308
82 326
82 330
82 355
82 487
82 490
82 501
82 592
82 652
82 680
82 696
82 702
82 795
82 894
82 923
82 980
82 1019
82 1097
82 1139
82 1154
82 1204
82 1215
82 1318
82 1346
82 1351
82 1365
82 1366
82 1376
82 1377
82 1383
82 1387
82 1390
82 1416
82 1420
82 1427
82 1428
82 1435
82 1507
82 1532
82 1550
82 1563
82 1574
82 1598
83 0
83 1
83 2
83 3
83 4
83 6
83 8
83 30
83 34
83 44
83 52
83 62
83 81
83 87
83 89
83 93
83 101
83 123
83 136
83 193
83 235
83 268
83 310
83 367
83 396
83 407
83 414
83 438
83 487
83 533
83 548
83 572
83 603
83 780
83 830
83 850
83 935
83 946
83 980
83 1017
83 1066
83 1136
83 1367
83 1387
83 1390
83 1392
83 1414
83 1432
83 1439
83 1550
83 1588
84 0
84 1
84 2
84 3
84 4
84 34
84 62
84 68
84 94
84 203
84 1219
84 1577
85 0
86 0
86 1
86 2
86 3
86 4
86 5
86 6
86 12
86 23
86 30
86 64
86 88
86 116
86 137
86 143
86 225
86 281
86 325
86 448
86 532
86 606
86 678
86 696
86 720
86 728
86 731
86 795
86 826
86 963
86 965
86 983
86 1029
86 1044
86 1127
86 1166
86 1213
86 1234
86 1307
86 1427
86 1501
86 1525
86 1558
87 0
87 1
87 2
87 3
87 4
87 5
87 6
87 8
87 9
87 10
87 44
87 62
87 81
87 82
87 83
87 88
87 92
87 96
87 153
87 203
87 235
87 238
87 281
87 282
87 284
87 301
87 359
87 375
87 377
87 413
87 432
87 507
87 537
87 572
87 582
87 592
87 641
87 653
87 665
87 696
87 725
87 749
87 828
87 848
87 868
87 875
87 909
87 935
87 946
87 1024
87 1120
87 1207
87 1253
87 1346
87 1368
87 1369
87 1383
87 1387
87 1439
87 1442
87 1490
87 1492
87 1507
88 0
88 1
88 2
88 3
88 4
88 5
88 6
88 9
88 10
88 11
88 43
88 44
88 68
88 86
88 87
88 92
88 134
88 165
88 209
88 281
88 290
88 320
88 359
88 364
88 375
88 430
88 510
88 532
88 551
88 553
88 627
88 682
88 898
88 948
88 982
88 1077
88 1134
88 1351
88 1370
88 1371
88 1373
88 1387
88 1427
88 1429
88 1437
88 1453
88 1519
88 1588
88 1603
88 1614
89 0
89 1
89 2
89 4
89 5
89 6
89 43
89 44
89 50
89 69
89 81
89 82
89 83
89 92
89 93
89 99
89 173
89 209
89 235
89 296
89 318
89 366
89 391
89 736
89 753
89 772
89 785
89 851
89 897
89 1359
89 1387
89 1416
89 1470
89 1543
89 1572
89 1574
90 0
90 1
90 2
90 3
90 4
90 6
90 549
90 577
90 1387
90 1426
90 1546
91 0
92 0
92 1
92 2
92 3
92 4
92 5
92 6
92 7
92 8
92 9
92 10
92 11
92 14
92 29
92 30
92 31
92 33
92 34
92 40
92 42
92 43
92 44
92 62
92 64
92 78
92 81
92 82
92 87
92 88
92 89
92 106
92 109
92 133
92 159
92 175
92 203
92 235
92 243
92 250
92 253
92 258
92 261
92 281
92 285
92 292
92 293
92 317
92 322
92 368
92 391
92 461
92 485
92 496
92 548
92 549
92 553
92 559
92 566
92 597
92 603
92 607
92 610
92 621
92 654
92 680
92 696
92 697
92 711
92 753
92 755
92 762
92 782
92 793
92 795
92 797
92 827
92 889
92 905
92 920
92 934
92 946
92 947
92 951
92 983
92 984
92 1155
92 1203
92 1205
92 1271
92 1303
92 1340
92 1345
92 1358
92 1359
92 1370
92 1372
92 1373
92 1374
92 1375
92 1376
92 1377
92 1378
92 1384
92 1387
92 1389
92 1416
92 1417
92 1418
92 1460
92 1479
92 1508
92 1544
92 1557
92 1572
92 1590
92 1598
92 1599
93 0
93 1
93 2
93 3
93 4
93 5
93 6
93 8
93 10
93 11
93 12
93 44
93 46
93 81
93 83
93 89
93 125
93 134
93 169
93 190
93 199
93 203
93 218
93 220
93 261
93 271
93 281
93 282
93 392
93 432
93 459
93 487
93 519
93 530
93 532
93 584
93 654
93 753
93 787
93 795
93 799
93 837
93 847
93 895
93 1001
93 1026
93 1070
93 1318
93 1359
93 1377
93 1379
93 1380
93 1381
93 1382
93 1383
93 1384
93 1387
93 1389
93 1416
93 1430
93 1434
93 1441
93 1456
93 1549
93 1566
93 1572
93 1598
94 0
94 1
94 2
94 3
94 4
94 5
94 7
94 10
94 43
94 68
94 84
94 130
94 134
94 281
94 320
94 459
94 461
94 545
94 725
94 872
94 873
94 926
94 1358
94 1383
94 1385
94 1386
94 1387
94 1420
95 0
96 0
96 1
96 2
96 3
96 4
96 5
96 8
96 9
96 10
96 17
96 21
96 24
96 32
96 37
96 47
96 53
96 65
96 87
96 159
96 288
96 443
96 486
96 507
96 532
96 600
96 699
96 794
96 918
96 972
96 984
96 995
96 1049
96 1076
96 1145
96 1168
96 1220
96 1253
96 1387
96 1417
96 1425
96 1473
97 0
97 1
97 3
97 4
97 6
97 9
97 98
97 258
97 314
97 329
97 609
97 794
97 1416
98 0
98 1
98 2
98 3
98 4
98 6
98 7
98 8
98 9
98 10
98 14
98 37
98 43
98 44
98 71
98 81
98 97
98 98
98 141
98 148
98 170
98 199
98 202
98 209
98 234
98 240
98 243
98 261
98 306
98 314
98 368
98 375
98 379
98 381
98 386
98 389
98 403
98 432
98 437
98 576
98 627
98 714
98 742
98 773
98 805
98 874
98 906
98 929
98 978
98 980
98 995
98 1001
98 1145
98 1227
98 1293
98 1338
98 1355
98 1358
98 1469
98 1550
98 1553
98 1555
98 1556
98 1607
99 0
99 1
99 2
99 3
99 4
99 5
99 6
99 9
99 10
99 43
99 44
99 48
99 89
99 165
99 171
99 209
99 366
99 396
99 480
99 703
99 847
99 1195
99 1196
99 1436
99 1479
99 1579
99 1598
100 0
100 1
100 3
100 258
100 871
100 1377
100 1407
101 0
101 1
101 2
101 3
101 4
101 6
101 16
101 43
101 48
101 83
101 381
101 1355
101 1387
101 1469
102 0
102 1
102 3
102 4
102 62
102 1501
103 0
103 1577
104 0
104 1
104 2
104 3
104 4
104 5
104 6
104 7
104 8
104 10
104 11
104 15
104 17
104 27
104 35
104 81
104 118
104 426
104 442
104 460
104 544
104 711
104 797
104 911
104 941
104 960
104 964
104 1056
104 1111
104 1139
104 1356
105 0
105 1
105 2
105 3
105 4
105 5
105 6
105 46
105 161
105 1387
106 0
106 1
106 2
106 3
106 4
106 5
106 9
106 10
106 43
106 92
106 530
106 1589
106 1606
107 0
107 1
107 3
107 4
107 5
107 6
107 7
107 9
107 16
107 26
107 711
107 712
107 800
107 937
107 1018
107 1080
107 1096
107 1206
107 1508
108 0
108 1
108 2
108 4
108 7
108 42
108 43
108 44
108 235
108 375
108 496
108 725
108 946
108 947
108 1507
109 0
109 1
109 3
109 6
109 8
109 9
109 42
109 92
109 496
109 848
109 938
109 947
109 1389
109 1436
109 1540
110 0
110 1
110 2
110 3
110 4
110 7
110 185
110 359
110 576
110 626
110 872
110 1027
110 1170
110 1355
111 0
111 2
111 3
111 4
111 5
111 345
111 379
111 459
111 487
111 1441
111 1502
112 0
112 1
112 2
112 3
112 4
112 7
112 14
112 32
112 922
112 1195
112 1497
112 1599
113 0
113 2
113 546
113 585
113 1387
113 1444
113 1504
114 0
114 1
114 2
114 5
114 20
114 258
115 0
115 115
116 0
116 1
116 2
116 3
116 4
116 6
116 12
116 23
116 28
116 30
116 33
116 46
116 64
116 86
116 142
116 208
116 287
116 311
116 431
116 472
116 491
116 652
116 893
116 942
116 1029
116 1078
116 1246
116 1249
116 1321
116 1330
116 1333
116 1518
116 1561
116 1564
116 1565
117 0
117 1
117 2
117 3
117 4
117 9
117 17
117 41
117 182
117 214
117 230
117 236
117 387
117 394
117 401
117 455
117 601
117 644
117 687
117 781
117 900
117 965
117 969
117 971
117 1063
117 1087
117 1129
117 1150
117 1271
117 1272
117 1276
117 1427
117 1543
118 0
118 1
118 2
118 3
118 4
118 6
118 7
118 15
118 24
118 37
118 104
118 439
118 469
118 488
118 604
118 669
118 671
118 683
118 701
118 797
118 901
118 943
118 974
118 996
118 1037
118 1127
118 1130
118 1226
118 1231
118 1620
119 0
119 1
119 2
119 3
119 4
119 5
119 6
119 7
119 10
119 11
119 26
119 29
119 31
119 32
119 183
119 376
119 520
119 590
119 911
119 1183
119 1220
119 1356
119 1425
119 1473
120 0
120 1
120 2
120 3
120 5
120 6
120 21
120 314
120 532
120 652
120 776
120 943
120 948
120 1476
120 1477
120 1479
120 1628
121 0
121 1
121 2
121 3
121 4
121 9
121 43
121 603
121 923
121 1359
121 1439
122 0
122 1
122 2
122 3
122 6
122 7
122 35
122 315
122 572
122 668
122 1244
123 0
123 1
123 3
123 7
123 34
123 83
123 1354
123 1359
123 1384
123 1387
123 1439
123 1460
124 0
124 1
124 2
124 4
124 6
124 9
124 20
124 145
124 245
124 258
124 293
124 333
124 391
124 452
124 566
124 666
124 882
124 957
124 1112
124 1152
124 1277
125 0
125 2
125 3
125 8
125 42
125 93
125 135
125 159
125 241
125 244
125 281
125 288
125 298
125 496
125 652
125 756
125 947
125 1435
125 1519
125 1598
126 0
126 1
126 2
126 3
126 4
126 8
126 16
126 17
126 81
126 156
126 215
126 387
126 1472
127 0
127 1
127 2
127 5
127 10
127 34
127 43
127 44
127 137
127 235
127 263
127 322
127 432
127 584
127 680
127 695
127 778
127 1377
127 1387
127 1407
127 1449
127 1513
127 1583
127 1594
127 1606
128 0
128 1
128 2
128 3
128 4
128 7
128 174
128 222
128 830
128 975
128 1059
128 1442
129 0
129 1
129 2
129 3
129 4
129 49
129 489
129 1267
130 0
130 1
130 2
130 3
130 71
130 94
130 138
130 199
130 305
130 553
130 906
130 1001
130 1155
130 1223
130 1434
130 1553
130 1598
131 0
131 1
131 2
131 3
131 5
131 43
131 267
131 384
131 1417
131 1434
131 1449
131 1584
132 0
132 1
132 1502
132 1550
133 0
133 1
133 2
133 3
133 4
133 5
133 6
133 7
133 8
133 9
133 10
133 11
133 12
133 16
133 17
133 32
133 34
133 66
133 74
133 92
133 134
133 159
133 182
133 212
133 230
133 231
133 292
133 320
133 437
133 481
133 520
133 572
133 581
133 766
133 793
133 922
133 942
133 960
133 967
133 1049
133 1079
133 1115
133 1157
133 1159
133 1177
133 1217
133 1297
133 1378
133 1435
133 1519
133 1585
134 0
134 1
134 2
134 3
134 4
134 5
134 6
134 9
134 16
134 34
134 42
134 44
134 64
134 71
134 88
134 93
134 94
134 133
134 157
134 253
134 258
134 385
134 403
134 416
134 484
134 487
134 496
134 526
134 530
134 541
134 553
134 588
134 603
134 627
134 708
134 753
134 820
134 936
134 946
134 947
134 1026
134 1155
134 1353
134 1389
134 1392
134 1399
134 1420
134 1507
134 1577
135 0
135 1
135 2
135 3
135 4
135 6
135 8
135 43
135 44
135 125
135 159
135 209
135 235
135 655
135 785
135 912
135 1287
135 1427
135 1449
135 1482
135 1506
135 1513
135 1594
136 0
136 1
136 2
136 3
136 4
136 5
136 7
136 9
136 11
136 15
136 44
136 83
136 282
136 530
136 577
136 661
136 946
136 1416
136 1553
136 1586
137 0
137 1
137 2
137 3
137 4
137 10
137 20
137 82
137 86
137 127
137 224
137 258
137 296
137 432
137 592
137 724
137 1449
137 1546
137 1583
137 1598
138 0
138 1
138 2
138 3
138 4
138 6
138 130
138 170
138 475
138 1223
139 0
139 1
139 1260
139 1508
140 0
141 0
141 1
141 4
141 5
141 6
141 8
141 10
141 14
141 15
141 98
141 326
141 328
141 488
141 606
141 671
141 807
141 903
141 1050
141 1057
141 1061
141 1141
141 1144
141 1545
142 0
142 1
142 2
142 3
142 4
142 12
142 23
142 28
142 33
142 116
142 732
142 942
142 969
142 1028
142 1215
142 1222
142 1233
142 1245
142 1248
142 1249
142 1321
142 1566
143 0
143 1
143 2
143 4
143 5
143 12
143 14
143 18
143 20
143 24
143 29
143 31
143 37
143 86
143 145
143 165
143 387
143 433
143 1006
143 1076
143 1127
144 0
144 1
144 2
144 3
144 4
144 5
144 7
144 23
144 28
144 208
144 311
144 326
144 400
144 459
144 491
144 942
144 1247
144 1249
144 1312
145 0
145 1
145 2
145 3
145 4
145 5
145 6
145 10
145 14
145 31
145 37
145 124
145 143
145 671
145 802
145 1182
145 1306
146 0
146 1
146 2
146 4
146 5
146 6
146 287
146 314
146 594
146 853
146 1136
146 1240
147 0
147 1
147 2
147 3
147 4
147 5
147 44
147 828
148 0
148 1
148 2
148 81
148 98
148 170
148 261
148 1338
149 0
149 1
149 2
149 3
149 1387
149 1575
150 0
150 1
150 9
150 1546
151 0
151 1
151 2
151 296
152 0
152 1
152 42
152 1388
153 0
153 1
153 2
153 3
153 4
153 6
153 8
153 9
153 10
153 14
153 42
153 87
153 177
153 209
153 231
153 317
153 322
153 354
153 431
153 496
153 680
153 684
153 725
153 766
153 785
153 947
153 1029
153 1366
153 1376
153 1427
153 1514
154 0
154 1
154 2
154 43
154 268
154 456
154 1119
154 1387
154 1397
154 1415
155 0
155 1
155 2
155 4
155 5
155 6
155 10
155 49
155 178
155 424
155 697
155 1354
155 1414
155 1436
156 0
156 1
156 2
156 3
156 4
156 5
156 6
156 17
156 27
156 35
156 41
156 64
156 126
156 158
156 191
156 224
156 230
156 316
156 377
156 387
156 442
156 473
156 518
156 555
156 574
156 583
156 596
156 624
156 636
156 667
156 668
156 691
156 779
156 781
156 805
156 866
156 1091
156 1102
156 1158
156 1471
156 1472
156 1481
156 1534
156 1535
157 0
157 1
157 2
157 3
157 4
157 5
157 6
157 9
157 10
157 16
157 134
157 209
157 226
157 232
157 375
157 421
157 484
157 500
157 526
157 564
157 566
157 701
157 712
157 931
157 936
157 937
157 943
157 1006
157 1309
157 1427
157 1543
158 0
158 1
158 2
158 3
158 4
158 5
158 6
158 7
158 8
158 9
158 11
158 17
158 19
158 21
158 29
158 31
158 32
158 156
158 303
158 314
158 726
158 1006
158 1128
158 1158
158 1356
158 1430
159 0
159 1
159 2
159 3
159 4
159 8
159 9
159 11
159 47
159 64
159 81
159 92
159 96
159 125
159 133
159 135
159 175
159 281
159 298
159 324
159 392
159 395
159 566
159 585
159 679
159 702
159 755
159 756
159 785
159 787
159 860
159 1238
159 1287
160 0
160 1
160 2
160 3
160 4
160 5
160 6
160 10
160 13
160 34
160 43
160 44
160 209
160 235
160 430
160 487
160 532
160 603
160 946
161 0
161 1
161 2
161 3
161 4
161 5
161 6
161 10
161 12
161 46
161 105
161 211
161 556
161 905
161 1387
161 1585
162 0
162 1
162 2
162 3
162 4
162 6
162 10
162 13
162 42
162 487
162 627
162 868
162 946
162 1352
162 1442
162 1501
162 1560
163 0
163 1
163 2
163 3
163 4
163 6
163 13
163 14
163 44
163 235
163 253
163 558
164 0
164 1
164 2
164 3
164 4
164 5
164 7
164 8
164 206
164 755
164 1611
165 0
165 1
165 2
165 3
165 4
165 5
165 6
165 8
165 9
165 11
165 12
165 20
165 21
165 26
165 29
165 31
165 53
165 82
165 88
165 99
165 143
165 170
165 190
165 220
165 287
165 322
165 330
165 391
165 420
165 432
165 435
165 468
165 485
165 600
165 616
165 631
165 689
165 722
165 903
165 955
165 984
165 1026
165 1076
165 1084
165 1128
165 1183
165 1220
165 1253
165 1295
165 1425
165 1544
165 1573
165 1574
165 1577
166 0
166 2
166 3
166 4
166 6
166 7
166 11
166 73
166 187
166 475
166 577
166 716
166 1001
166 1154
166 1550
166 1553
166 1555
166 1556
167 0
167 1
167 2
167 3
167 4
167 11
167 308
167 409
167 423
167 540
167 572
167 780
167 923
167 975
167 1417
167 1437
167 1532
168 0
168 1
168 2
168 3
168 4
168 5
168 6
168 8
168 10
168 42
168 44
168 71
168 81
168 188
168 209
168 231
168 235
168 359
168 459
168 510
168 566
168 590
168 654
168 682
168 822
168 947
168 1366
168 1513
168 1599
169 0
169 1
169 2
169 3
169 5
169 7
169 10
169 11
169 15
169 93
169 175
169 187
169 296
169 335
169 712
169 1001
169 1191
169 1224
169 1279
169 1383
169 1490
169 1502
169 1508
169 1553
170 0
170 1
170 2
170 4
170 7
170 73
170 81
170 98
170 138
170 148
170 165
170 187
170 475
170 551
170 672
170 777
170 1001
170 1224
170 1505
170 1553
171 0
171 1
171 2
171 4
171 99
171 263
171 586
171 592
172 0
172 1
172 1011
172 1424
173 0
173 1
173 2
173 3
173 89
173 258
173 261
173 542
173 765
173 858
173 898
174 0
174 2
174 3
174 6
174 7
174 11
174 47
174 128
174 222
174 515
174 582
174 699
174 786
174 854
174 855
174 894
174 975
174 995
174 1059
174 1442
174 1446
174 1503
175 0
175 2
175 3
175 8
175 11
175 66
175 92
175 159
175 169
175 181
175 287
175 438
175 483
175 539
175 606
175 727
175 728
175 731
175 733
175 795
175 930
175 1030
175 1270
175 1313
175 1356
175 1427
175 1430
176 0
176 1
176 2
176 3
176 4
176 5
176 19
176 39
176 314
176 355
176 379
176 409
176 469
176 486
176 606
176 713
176 841
176 1032
176 1062
176 1094
176 1102
176 1128
177 0
177 1
177 2
177 5
177 23
177 30
177 42
177 153
177 281
177 308
177 317
177 491
177 496
177 680
177 684
177 942
177 947
177 1029
177 1514
178 0
178 1
178 2
178 4
178 6
178 10
178 155
178 209
178 842
178 1369
178 1599
179 0
179 1
179 2
179 3
179 34
179 1066
180 0
180 1
180 2
180 5
180 309
180 313
180 850
180 1107
180 1420
181 0
181 1
181 2
181 3
181 4
181 5
181 6
181 7
181 8
181 9
181 11
181 42
181 44
181 54
181 68
181 175
181 213
181 287
181 321
181 402
181 438
181 483
181 539
181 727
181 728
181 731
181 793
181 925
181 930
181 942
181 957
181 1078
181 1104
181 1270
181 1271
182 0
182 1
182 2
182 3
182 4
182 5
182 6
182 7
182 8
182 9
182 11
182 17
182 74
182 117
182 133
182 212
182 572
182 583
182 699
182 781
182 1091
182 1115
182 1217
182 1276
182 1356
182 1594
183 0
183 1
183 2
183 3
183 4
183 5
183 6
183 8
183 9
183 10
183 11
183 21
183 32
183 119
183 197
183 303
183 437
183 520
183 532
183 604
183 625
183 674
183 704
183 1006
183 1085
183 1220
183 1603
184 0
184 1
184 2
184 3
184 5
184 6
184 8
184 9
184 10
184 42
184 43
184 44
184 193
184 235
184 309
184 459
184 496
184 946
184 947
184 1390
185 0
185 1
185 2
185 3
185 5
185 6
185 110
185 338
185 375
185 403
185 499
185 500
185 941
185 1126
185 1355
185 1427
185 1508
186 0
186 1
186 2
186 3
186 4
186 5
186 7
186 8
186 9
186 11
186 16
186 17
186 24
186 35
186 37
186 442
186 443
186 460
186 485
186 600
186 636
186 797
186 959
186 961
186 964
186 995
186 1056
186 1079
186 1128
186 1130
186 1141
187 0
187 1
187 2
187 3
187 4
187 5
187 6
187 7
187 11
187 71
187 73
187 166
187 169
187 170
187 216
187 275
187 335
187 389
187 475
187 637
187 661
187 716
187 815
187 995
187 1000
187 1001
187 1546
187 1550
187 1553
187 1556
188 0
188 1
188 2
188 3
188 6
188 7
188 8
188 9
188 12
188 23
188 168
188 190
188 231
188 324
188 410
188 412
188 459
188 491
188 510
188 558
188 669
188 1333
188 1501
188 1519
188 1607
189 0
189 1
189 2
189 3
189 4
189 5
189 6
189 14
189 30
189 235
189 774
189 1366
190 0
190 1
190 2
190 3
190 12
190 28
190 33
190 40
190 93
190 165
190 188
190 208
190 218
190 767
190 1166
190 1249
190 1429
190 1501
190 1558
191 0
191 1
191 2
191 3
191 4
191 5
191 7
191 35
191 156
191 511
191 555
191 636
191 667
191 670
191 734
191 804
191 805
191 859
191 1046
191 1091
191 1620
192 0
192 1
192 2
192 3
192 4
192 5
192 6
192 7
192 8
192 10
192 11
192 44
192 946
192 1160
192 1292
193 0
193 1
193 2
193 3
193 4
193 5
193 9
193 10
193 13
193 42
193 44
193 83
193 184
193 258
193 496
193 652
193 697
193 785
193 946
193 947
193 1367
193 1514
193 1578
194 0
194 1
194 2
194 3
194 11
194 44
194 231
194 235
194 309
194 445
194 697
195 0
195 1
195 2
195 4
195 5
195 6
195 8
195 9
195 10
195 12
195 14
195 15
195 16
195 26
195 35
195 236
195 304
195 373
195 436
195 457
195 460
195 792
195 959
195 961
195 964
195 1049
195 1051
195 1056
195 1079
195 1114
195 1139
195 1145
195 1250
195 1255
195 1356
196 0
196 1
196 2
196 3
196 4
196 5
196 6
196 8
196 9
196 22
196 45
196 251
196 319
196 377
196 401
196 538
196 734
196 976
196 977
196 996
196 1007
196 1508
197 0
197 1
197 2
197 3
197 4
197 7
197 183
197 246
197 336
197 351
197 433
197 439
197 604
197 623
197 625
197 634
197 669
197 686
197 712
197 957
197 1060
197 1080
197 1291
197 1301
197 1520
198 0
198 1
198 2
198 3
198 5
198 7
198 22
198 28
198 45
198 251
198 323
198 406
198 538
198 739
198 962
198 971
198 1007
198 1481
198 1512
198 1595
199 0
199 1
199 2
199 5
199 7
199 11
199 93
199 98
199 130
199 286
199 365
199 389
199 613
199 815
199 868
199 995
199 1001
200 0
200 1
200 2
200 3
200 4
200 6
200 210
200 293
200 308
200 354
200 369
200 445
200 1094
201 0
201 1
201 2
201 3
201 621
201 629
202 0
202 1
202 2
202 43
202 98
202 375
203 0
203 1
203 2
203 3
203 4
203 5
203 6
203 34
203 42
203 43
203 44
203 62
203 64
203 65
203 77
203 81
203 82
203 84
203 87
203 92
203 93
203 203
203 214
203 235
203 258
203 268
203 269
203 286
203 320
203 322
203 330
203 403
203 456
203 459
203 519
203 525
203 532
203 534
203 563
203 603
203 636
203 731
203 732
203 788
203 821
203 823
203 911
203 1206
203 1343
203 1353
203 1355
203 1362
203 1377
203 1381
203 1387
203 1390
203 1394
203 1395
203 1396
203 1397
203 1426
203 1427
203 1431
203 1432
203 1447
203 1459
203 1469
203 1543
203 1559
203 1606
203 1623
204 0
205 0
205 1
205 2
205 3
205 4
205 6
205 7
205 8
205 9
205 10
205 14
205 20
205 26
205 64
205 240
205 319
205 333
205 408
205 433
205 436
205 627
205 669
205 730
205 800
205 801
205 802
205 808
205 822
205 963
205 985
205 1062
205 1080
205 1113
205 1127
205 1136
205 1145
205 1183
205 1188
205 1191
205 1206
205 1250
205 1290
205 1299
205 1300
205 1301
205 1311
206 0
206 1
206 2
206 3
206 4
206 5
206 7
206 8
206 12
206 164
206 231
206 292
206 294
206 322
206 324
206 400
206 431
206 793
206 942
206 957
206 1054
206 1074
206 1104
206 1233
206 1238
206 1271
206 1620
207 0
207 1
207 2
207 3
207 43
207 81
207 819
207 948
207 1404
207 1406
207 1479
208 0
208 1
208 116
208 144
208 190
208 218
208 242
208 244
208 254
208 284
208 287
208 298
208 412
208 468
208 491
208 547
208 571
208 627
208 702
208 732
208 782
208 816
208 872
208 925
208 963
208 1028
208 1102
208 1233
208 1234
208 1238
208 1247
208 1312
208 1313
208 1314
208 1316
208 1317
208 1318
208 1321
208 1322
208 1323
208 1324
208 1325
208 1326
208 1327
208 1329
208 1330
208 1331
208 1332
208 1333
208 1334
208 1335
208 1336
208 1572
209 0
209 1
209 2
209 3
209 4
209 5
209 6
209 43
209 44
209 76
209 82
209 88
209 89
209 98
209 99
209 135
209 153
209 157
209 160
209 168
209 178
209 233
209 272
209 308
209 337
209 375
209 378
209 396
209 408
209 411
209 430
209 490
209 510
209 546
209 619
209 627
209 717
209 751
209 774
209 883
209 978
209 983
209 1038
209 1109
209 1172
209 1252
209 1367
209 1497
209 1599
210 0
210 1
210 2
210 3
210 4
210 5
210 6
210 7
210 8
210 9
210 11
210 17
210 40
210 200
210 230
210 394
210 538
210 668
210 712
210 1355
210 1387
211 0
211 1
211 2
211 3
211 4
211 5
211 6
211 12
211 14
211 46
211 161
211 529
211 665
211 1205
211 1451
212 0
212 1
212 2
212 3
212 4
212 5
212 6
212 9
212 10
212 11
212 17
212 74
212 133
212 182
212 214
212 230
212 258
212 401
212 442
212 481
212 602
212 930
212 1356
212 1417
213 0
213 1
213 2
213 7
213 8
213 9
213 11
213 54
213 181
213 250
213 321
213 395
213 400
213 438
213 476
213 483
213 507
213 539
213 606
213 727
213 728
213 731
213 733
213 930
213 952
213 957
213 1071
213 1104
213 1125
213 1270
213 1313
213 1317
214 0
214 1
214 2
214 4
214 7
214 15
214 35
214 66
214 117
214 203
214 212
214 230
214 401
214 442
214 474
214 584
214 605
214 645
214 941
214 969
214 971
214 996
214 1123
214 1481
215 0
215 1
215 2
215 3
215 64
215 81
215 126
215 312
215 356
215 387
215 394
215 761
215 789
215 804
215 838
215 1360
215 1471
215 1472
215 1535
215 1620
216 0
216 1
216 2
216 3
216 4
216 6
216 7
216 11
216 187
216 270
216 332
216 475
216 661
216 716
216 815
216 995
216 1001
216 1154
216 1383
216 1550
216 1553
217 0
217 1
217 2
217 3
217 5
217 7
217 14
217 314
217 486
217 853
217 933
217 1019
217 1062
217 1096
217 1102
218 0
218 1
218 2
218 3
218 12
218 28
218 93
218 190
218 208
218 459
218 773
218 922
218 1381
219 0
219 1
219 2
219 3
219 4
219 10
219 233
219 235
219 296
219 414
219 1369
219 1599
220 0
220 3
220 4
220 5
220 6
220 14
220 15
220 20
220 26
220 53
220 93
220 165
220 240
220 435
220 517
220 606
220 784
220 903
220 912
220 953
220 999
220 1128
220 1141
220 1145
220 1181
220 1206
220 1227
220 1250
220 1286
220 1450
221 0
221 1
221 2
221 3
221 6
221 7
221 8
221 9
221 12
221 18
221 25
221 26
221 29
221 31
221 240
221 792
221 808
221 959
221 961
221 1049
221 1051
221 1079
221 1128
221 1143
221 1145
221 1170
221 1240
222 0
222 1
222 2
222 3
222 4
222 6
222 128
222 174
222 296
222 309
222 532
222 546
222 744
222 777
222 820
222 830
222 832
222 854
222 855
222 968
222 975
222 1162
222 1195
222 1348
222 1442
222 1504
222 1544
223 0
223 1
223 2
223 3
223 4
223 5
223 6
223 44
223 235
223 487
223 697
223 1354
224 0
224 1
224 2
224 3
224 4
224 5
224 6
224 7
224 27
224 137
224 156
224 394
224 572
224 596
224 859
224 941
224 1123
225 0
225 1
225 2
225 3
225 4
225 5
225 6
225 43
225 44
225 86
225 446
225 767
226 0
226 1
226 2
226 5
226 6
226 9
226 16
226 157
226 375
226 512
226 1520
227 0
227 1
227 2
227 3
227 4
227 6
227 10
227 11
227 14
227 1585
228 0
228 1
228 2
228 3
228 5
228 21
228 561
228 1367
228 1387
228 1479
228 1491
229 0
229 1
229 2
229 3
229 468
230 0
230 1
230 2
230 3
230 4
230 5
230 6
230 7
230 8
230 11
230 17
230 27
230 35
230 41
230 74
230 117
230 133
230 156
230 210
230 212
230 214
230 236
230 264
230 391
230 413
230 473
230 583
230 602
230 781
230 1003
230 1089
230 1091
230 1115
230 1124
230 1259
230 1272
230 1356
230 1430
230 1595
231 0
231 1
231 2
231 3
231 9
231 11
231 36
231 66
231 133
231 153
231 168
231 188
231 194
231 206
231 241
231 381
231 387
231 563
231 568
231 574
231 627
231 665
231 696
231 697
231 816
231 894
231 1030
231 1187
231 1200
231 1233
231 1262
231 1526
231 1558
231 1560
231 1610
232 0
232 1
232 2
232 3
232 4
232 5
232 6
232 9
232 16
232 157
232 955
232 1476
232 1479
232 1506
233 0
233 1
233 2
233 3
233 4
233 5
233 6
233 10
233 11
233 14
233 43
233 44
233 209
233 219
233 1369
234 0
234 1
234 2
234 3
234 4
234 43
234 44
234 81
234 98
234 300
234 1358
235 0
235 1
235 2
235 3
235 4
235 5
235 34
235 44
235 68
235 81
235 82
235 83
235 87
235 89
235 92
235 108
235 127
235 135
235 160
235 163
235 168
235 184
235 189
235 194
235 203
235 219
235 223
235 237
235 238
235 239
235 281
235 320
235 378
235 396
235 417
235 420
235 446
235 489
235 502
235 505
235 506
235 514
235 575
235 578
235 584
235 586
235 611
235 614
235 647
235 700
235 842
235 909
235 946
235 972
235 1292
235 1387
235 1416
235 1497
235 1602
235 1606
236 0
236 1
236 2
236 3
236 4
236 5
236 6
236 7
236 8
236 11
236 17
236 21
236 25
236 35
236 37
236 117
236 195
236 230
236 485
236 494
236 841
236 1141
236 1153
236 1356
236 1512
237 0
237 1
237 2
237 3
237 4
237 5
237 8
237 10
237 11
237 13
237 14
237 44
237 235
237 238
237 627
237 946
237 1365
237 1366
238 0
238 1
238 2
238 3
238 4
238 5
238 6
238 10
238 13
238 14
238 87
238 235
238 237
239 0
239 1
239 2
239 3
239 5
239 7
239 8
239 13
239 235
239 410
239 584
239 820
239 1359
239 1366
239 1384
239 1577
240 0
240 1
240 2
240 3
240 4
240 6
240 7
240 9
240 10
240 14
240 15
240 18
240 19
240 20
240 24
240 26
240 29
240 31
240 37
240 53
240 72
240 98
240 205
240 220
240 221
240 319
240 333
240 385
240 433
240 435
240 436
240 606
240 729
240 801
240 802
240 903
240 912
240 1004
240 1006
240 1031
240 1039
240 1057
240 1128
240 1136
240 1180
240 1183
240 1206
240 1227
240 1286
240 1290
240 1542
241 0
241 1
241 2
241 3
241 4
241 5
241 6
241 7
241 12
241 44
241 125
241 231
241 1166
242 0
242 1
242 2
242 3
242 6
242 23
242 28
242 33
242 208
242 459
242 1029
242 1077
242 1242
242 1563
242 1564
242 1565
243 0
243 1
243 2
243 3
243 4
243 5
243 7
243 43
243 68
243 92
243 98
243 572
243 889
243 931
243 1355
243 1476
243 1477
243 1577
243 1617
244 0
244 1
244 2
244 3
244 4
244 5
244 6
244 7
244 8
244 10
244 14
244 33
244 44
244 125
244 208
244 288
244 597
244 652
244 655
244 665
244 682
244 694
244 766
244 784
244 872
244 1312
244 1335
244 1366
244 1435
244 1443
244 1523
245 0
245 1
245 2
245 3
245 4
245 5
245 6
245 20
245 62
245 124
245 313
245 325
245 342
245 369
245 385
245 452
245 492
245 500
245 606
245 626
245 666
245 801
245 885
245 955
245 963
245 1004
245 1008
245 1113
245 1128
245 1190
245 1243
245 1309
245 1541
245 1543
246 0
246 1
246 2
246 3
246 4
246 5
246 9
246 14
246 21
246 197
246 328
246 336
246 376
246 397
246 405
246 469
246 484
246 500
246 567
246 604
246 623
246 625
246 712
246 817
246 937
246 964
246 1019
246 1126
246 1127
246 1132
246 1214
246 1275
246 1291
246 1301
246 1306
247 0
247 1
247 2
247 3
247 4
247 8
247 11
247 14
247 44
247 258
247 516
247 627
248 0
248 1
248 2
248 3
248 5
248 8
248 9
248 11
248 17
248 22
248 45
248 48
248 65
248 81
248 251
248 538
248 739
248 969
248 970
248 971
248 977
248 1007
248 1091
248 1124
248 1363
248 1539
248 1604
248 1615
249 0
249 1
249 2
249 3
249 4
249 5
249 7
249 8
249 10
249 11
249 14
249 29
249 31
249 304
249 473
249 485
249 486
249 636
249 859
249 999
249 1127
249 1231
249 1356
250 0
250 1
250 2
250 3
250 4
250 5
250 7
250 8
250 9
250 11
250 54
250 92
250 213
250 395
250 483
250 728
250 762
250 793
250 942
250 1104
250 1270
250 1460
250 1620
251 0
251 1
251 2
251 3
251 4
251 5
251 6
251 7
251 8
251 17
251 22
251 35
251 45
251 48
251 65
251 81
251 196
251 198
251 248
251 287
251 323
251 538
251 739
251 962
251 969
251 971
251 977
251 996
251 1007
251 1124
251 1276
251 1363
251 1481
251 1484
251 1512
251 1539
251 1604
251 1615
252 0
252 658
252 1339
252 1398
252 1401
252 1402
252 1403
252 1404
252 1406
252 1591
253 0
253 1
253 2
253 3
253 4
253 6
253 43
253 92
253 134
253 163
253 267
253 349
253 382
253 567
254 0
254 1
254 2
254 3
254 5
254 28
254 33
254 44
254 208
254 322
254 375
254 384
254 387
254 463
254 510
254 530
254 843
254 951
254 1187
254 1550
255 0
255 1
255 7
255 306
255 716
255 995
255 1447
255 1553
256 0
256 1
256 2
256 1415
256 1604
257 0
257 1
257 1426
258 0
258 1
258 2
258 3
258 4
258 5
258 6
258 7
258 8
258 9
258 11
258 25
258 34
258 39
258 43
258 44
258 64
258 66
258 81
258 92
258 97
258 100
258 114
258 124
258 134
258 137
258 173
258 193
258 203
258 212
258 247
258 267
258 293
258 296
258 314
258 329
258 338
258 356
258 359
258 362
258 381
258 391
258 414
258 417
258 500
258 503
258 542
258 588
258 603
258 609
258 616
258 628
258 640
258 712
258 718
258 753
258 765
258 767
258 805
258 823
258 858
258 946
258 1053
258 1119
258 1137
258 1251
258 1258
258 1356
258 1377
258 1387
258 1390
258 1401
258 1407
258 1408
258 1415
258 1416
258 1417
258 1426
258 1427
258 1433
258 1473
258 1479
258 1489
258 1491
258 1574
258 1617
259 43
259 44
259 1359
259 1409
259 1410
259 1411
259 1412
259 1413
260 0
260 1
260 3
260 1441
261 0
261 1
261 2
261 3
261 5
261 6
261 43
261 92
261 93
261 98
261 148
261 173
261 584
261 694
261 789
261 1355
261 1358
261 1359
261 1387
261 1437
261 1585
261 1608
262 0
262 1
263 0
263 1
263 2
263 3
263 10
263 127
263 171
263 322
263 642
263 1588
264 0
264 1
264 2
264 3
264 4
264 5
264 6
264 7
264 10
264 17
264 81
264 230
264 274
264 282
264 407
264 414
264 572
264 584
264 609
264 751
264 778
264 1584
265 0
265 1
265 2
265 3
265 6
265 81
265 491
265 696
265 793
265 925
265 942
265 1455
265 1469
265 1584
266 0
266 1
266 2
266 3
267 0
267 1
267 3
267 62
267 131
267 253
267 258
267 267
267 310
267 419
267 1426
267 1431
267 1433
267 1592
267 1593
268 0
268 1
268 2
268 5
268 10
268 50
268 83
268 154
268 203
268 286
268 381
268 1416
268 1426
268 1431
268 1490
268 1614
269 0
269 1
269 203
270 0
270 1
270 4
270 6
270 7
270 71
270 216
270 637
270 661
270 1416
270 1417
270 1428
271 0
271 1
271 2
271 3
271 7
271 8
271 47
271 81
271 93
271 327
271 755
271 975
271 1387
271 1442
271 1603
272 0
272 1
272 3
272 4
272 5
272 10
272 43
272 44
272 209
272 980
272 1369
273 0
273 1
273 2
273 3
273 4
273 276
273 410
273 754
273 843
273 1608
274 0
274 1
274 2
274 3
274 4
274 5
274 6
274 71
274 82
274 264
274 281
274 368
274 596
274 1026
274 1372
275 0
275 1
275 2
275 3
275 6
275 7
275 71
275 187
275 456
275 545
275 703
275 906
275 1001
275 1502
276 0
276 1
276 2
276 3
276 4
276 5
276 273
276 384
276 463
276 843
277 0
277 1
277 2
277 3
277 28
277 659
277 812
278 0
278 1
278 6
278 23
278 1029
278 1318
278 1319
278 1326
278 1563
278 1564
278 1565
278 1585
279 0
279 1
279 2
279 4
279 5
279 6
279 428
279 432
279 716
279 995
279 1553
279 1588
280 0
280 1
280 2
280 3
280 4
280 11
280 489
280 780
280 1280
281 0
281 1
281 2
281 3
281 4
281 5
281 6
281 8
281 9
281 10
281 12
281 14
281 17
281 20
281 30
281 33
281 42
281 43
281 44
281 54
281 64
281 67
281 79
281 82
281 86
281 87
281 88
281 92
281 93
281 94
281 125
281 159
281 177
281 235
281 274
281 282
281 296
281 317
281 359
281 368
281 394
281 403
281 416
281 419
281 459
281 461
281 487
281 489
281 499
281 512
281 559
281 566
281 628
281 680
281 702
281 767
281 784
281 805
281 811
281 851
281 872
281 894
281 898
281 942
281 946
281 1118
281 1155
281 1177
281 1195
281 1196
281 1230
281 1256
281 1352
281 1358
281 1367
281 1375
281 1376
281 1377
281 1400
281 1414
281 1416
281 1417
281 1426
281 1434
281 1435
281 1436
281 1437
281 1479
281 1489
281 1508
281 1519
281 1520
281 1599
281 1607
281 1616
282 0
282 1
282 2
282 3
282 4
282 17
282 87
282 93
282 136
282 264
282 281
282 329
282 377
282 432
282 456
282 875
282 1426
282 1469
283 0
283 1
283 16
283 25
283 35
283 330
283 442
283 460
283 530
283 600
283 607
283 636
283 805
283 911
283 964
283 1056
283 1079
283 1127
284 0
284 1
284 3
284 4
284 23
284 28
284 33
284 87
284 208
284 326
284 431
284 732
284 1029
284 1312
284 1353
285 0
285 2
285 3
285 30
285 34
285 92
285 697
285 1590
286 0
286 1
286 2
286 3
286 4
286 5
286 43
286 76
286 199
286 203
286 268
286 795
286 1355
286 1387
286 1420
286 1533
287 0
287 1
287 2
287 3
287 4
287 5
287 6
287 7
287 8
287 9
287 12
287 14
287 16
287 19
287 23
287 35
287 42
287 43
287 54
287 67
287 116
287 146
287 165
287 175
287 181
287 208
287 251
287 290
287 322
287 368
287 400
287 403
287 432
287 477
287 530
287 532
287 568
287 572
287 578
287 696
287 709
287 767
287 820
287 942
287 958
287 959
287 962
287 964
287 975
287 996
287 1029
287 1030
287 1057
287 1078
287 1240
287 1317
287 1319
287 1387
287 1451
287 1481
287 1512
287 1563
287 1564
287 1565
288 0
288 1
288 2
288 4
288 7
288 8
288 9
288 16
288 20
288 96
288 125
288 244
288 756
288 784
288 797
288 1253
288 1281
288 1286
288 1435
289 1
289 2
289 3
289 4
289 314
289 391
289 1427
290 0
290 1
290 2
290 4
290 6
290 22
290 45
290 81
290 88
290 287
290 296
290 330
290 349
290 808
290 996
290 1063
290 1610
291 0
291 1
291 2
291 3
291 43
291 76
291 490
291 1404
292 0
292 1
292 2
292 3
292 4
292 5
292 9
292 11
292 12
292 14
292 54
292 64
292 92
292 133
292 206
292 391
292 458
292 483
292 539
292 572
292 603
292 652
292 657
292 679
292 761
292 781
292 822
292 866
292 921
292 976
292 1117
292 1305
292 1306
292 1360
292 1387
292 1417
292 1423
292 1431
292 1471
292 1472
292 1525
292 1535
292 1575
292 1604
292 1606
292 1620
293 0
293 1
293 2
293 3
293 4
293 5
293 7
293 37
293 81
293 92
293 124
293 200
293 258
293 302
293 309
293 341
293 354
293 369
293 606
293 642
293 696
293 762
293 795
293 946
293 965
293 1021
293 1040
293 1094
293 1110
294 0
294 1
294 2
294 3
294 206
294 1611
295 0
295 1
295 2
295 3
295 4
295 5
295 416
295 592
296 0
296 1
296 2
296 3
296 4
296 5
296 6
296 7
296 8
296 9
296 11
296 34
296 42
296 43
296 44
296 82
296 89
296 137
296 151
296 169
296 219
296 222
296 258
296 281
296 290
296 330
296 360
296 368
296 369
296 370
296 391
296 396
296 407
296 413
296 425
296 459
296 496
296 545
296 563
296 597
296 605
296 629
296 685
296 736
296 793
296 845
296 943
296 948
296 951
296 1155
296 1262
296 1270
296 1354
296 1387
296 1390
296 1426
296 1427
296 1429
296 1440
296 1441
296 1468
296 1580
296 1581
296 1598
296 1602
296 1607
297 0
297 1
297 2
297 4
297 369
297 478
298 0
298 1
298 3
298 125
298 159
298 208
298 553
298 679
298 732
298 755
298 1233
298 1519
298 1566
299 0
299 1
299 2
299 4
299 6
299 15
299 35
299 315
299 670
299 985
299 1056
300 0
300 1
300 2
300 3
300 234
300 558
300 632
300 1338
301 0
301 1
301 2
301 3
301 7
301 9
301 42
301 44
301 87
301 308
301 343
301 629
301 725
301 766
301 923
301 1507
302 0
302 1
302 2
302 4
302 293
302 434
302 548
302 582
302 699
302 894
302 975
302 995
302 1069
302 1442
302 1443
302 1444
302 1445
302 1446
302 1504
302 1526
302 1603
303 0
303 1
303 2
303 3
303 4
303 5
303 6
303 8
303 9
303 18
303 21
303 25
303 32
303 158
303 183
303 354
303 421
303 494
303 572
303 882
303 1291
303 1304
303 1305
303 1306
303 1425
303 1473
303 1603
304 0
304 1
304 2
304 4
304 5
304 6
304 7
304 9
304 12
304 15
304 29
304 31
304 39
304 195
304 249
304 354
304 961
304 999
304 1051
304 1056
304 1141
304 1301
305 130
305 637
305 661
305 1224
305 1431
306 0
306 1
306 2
306 98
306 255
306 306
306 1447
307 0
307 1
307 30
308 0
308 1
308 2
308 3
308 4
308 5
308 6
308 7
308 8
308 10
308 30
308 43
308 44
308 81
308 82
308 167
308 177
308 200
308 209
308 301
308 354
308 414
308 491
308 540
308 594
308 616
308 629
308 657
308 794
308 898
308 911
308 918
308 942
308 946
308 947
308 975
308 1094
308 1119
308 1164
308 1170
308 1417
308 1423
308 1448
308 1449
308 1450
308 1469
308 1516
308 1527
308 1588
309 0
309 1
309 2
309 3
309 4
309 20
309 45
309 180
309 184
309 194
309 222
309 293
309 314
309 342
309 459
309 616
309 635
309 965
309 1200
309 1309
309 1451
309 1574
309 1614
310 0
310 1
310 2
310 3
310 5
310 83
310 267
310 329
310 350
310 1347
310 1372
310 1420
311 0
311 1
311 2
311 3
311 4
311 12
311 23
311 116
311 144
311 942
311 1029
311 1077
311 1563
311 1564
311 1565
312 0
312 1
312 3
312 64
312 215
312 315
312 356
312 387
312 761
312 789
312 838
312 866
312 956
312 1175
312 1360
312 1471
312 1472
312 1620
313 0
313 1
313 2
313 3
313 4
313 8
313 180
313 245
313 1541
314 1
314 2
314 5
314 97
314 98
314 120
314 146
314 158
314 176
314 217
314 258
314 289
314 309
314 355
314 437
314 486
314 530
314 617
314 618
314 620
314 635
314 669
314 767
314 853
314 933
314 995
314 1046
315 1
315 2
315 3
315 4
315 35
315 41
315 122
315 299
315 312
315 457
315 507
315 530
315 555
315 572
315 607
315 667
315 668
315 779
315 805
315 1162
315 1254
315 1255
315 1525
316 0
316 1
316 4
316 5
316 7
316 11
316 14
316 29
316 35
316 39
316 156
316 334
316 437
316 439
316 486
316 520
316 604
316 698
316 841
316 941
316 959
316 984
316 1178
316 1415
316 1450
317 0
317 1
317 2
317 3
317 6
317 42
317 92
317 153
317 177
317 281
317 322
317 391
317 559
317 636
317 652
317 680
317 684
317 725
317 947
317 987
317 1025
317 1427
317 1514
318 0
318 1
318 2
318 3
318 4
318 5
318 9
318 89
318 508
318 864
318 872
319 0
319 1
319 2
319 4
319 5
319 6
319 7
319 9
319 12
319 14
319 15
319 26
319 196
319 205
319 240
319 328
319 373
319 426
319 435
319 730
319 964
319 976
319 985
319 1004
319 1056
319 1145
319 1183
320 0
320 1
320 2
320 3
320 4
320 10
320 34
320 44
320 81
320 88
320 94
320 133
320 203
320 235
320 489
320 499
320 514
320 584
320 678
320 709
320 768
320 842
320 1297
320 1387
320 1392
320 1416
321 0
321 1
321 3
321 5
321 7
321 8
321 9
321 11
321 30
321 181
321 213
321 395
321 438
321 483
321 728
321 731
321 762
321 793
321 1104
321 1270
322 0
322 1
322 2
322 3
322 4
322 5
322 12
322 30
322 42
322 81
322 92
322 127
322 153
322 165
322 203
322 206
322 254
322 263
322 287
322 317
322 384
322 414
322 431
322 432
322 496
322 572
322 680
322 684
322 779
322 888
322 947
322 1573
323 0
323 1
323 2
323 5
323 7
323 41
323 198
323 251
323 455
323 687
323 962
323 1336
324 0
324 1
324 2
324 3
324 4
324 11
324 159
324 188
324 206
324 392
324 395
324 459
324 529
324 679
324 929
324 1435
325 1
325 3
325 8
325 10
325 15
325 29
325 31
325 86
325 245
325 326
325 328
325 368
325 606
325 807
325 912
325 1450
326 0
326 1
326 2
326 5
326 8
326 9
326 10
326 12
326 23
326 82
326 141
326 144
326 284
326 325
326 476
326 606
326 893
326 942
326 948
326 1039
326 1061
326 1127
326 1221
326 1235
326 1273
326 1335
326 1382
326 1415
327 0
327 1
327 2
327 3
327 4
327 271
327 391
327 672
327 940
327 1151
328 0
328 1
328 2
328 3
328 4
328 5
328 6
328 7
328 10
328 12
328 14
328 15
328 20
328 24
328 37
328 39
328 66
328 141
328 246
328 319
328 325
328 408
328 439
328 443
328 683
328 801
328 990
328 1004
328 1050
328 1051
328 1061
328 1062
328 1126
328 1127
328 1139
328 1141
328 1145
328 1214
328 1228
328 1299
328 1301
328 1545
329 0
329 1
329 2
329 3
329 4
329 5
329 6
329 8
329 40
329 43
329 97
329 258
329 282
329 310
329 374
329 386
329 519
329 609
329 794
329 980
329 1011
329 1134
329 1174
329 1345
329 1416
329 1427
329 1545
329 1617
330 0
330 1
330 2
330 3
330 5
330 9
330 32
330 81
330 82
330 165
330 203
330 283
330 290
330 296
330 527
330 753
330 778
330 803
330 872
330 1188
330 1577
331 0
331 1
331 2
331 3
331 5
331 8
331 367
331 664
331 716
331 835
331 1362
331 1452
331 1453
331 1469
331 1520
332 0
332 1
332 2
332 3
332 5
332 216
332 339
332 1093
332 1117
332 1380
332 1492
333 0
333 1
333 2
333 3
333 4
333 5
333 6
333 9
333 16
333 26
333 124
333 205
333 240
333 336
333 391
333 436
333 500
333 566
333 711
333 801
333 802
333 937
333 953
333 1182
333 1279
333 1308
334 0
334 1
334 2
334 3
334 5
334 7
334 10
334 29
334 32
334 316
334 437
334 486
334 698
334 705
334 713
334 778
334 831
334 886
334 1083
334 1085
334 1159
334 1293
335 0
335 1
335 2
335 4
335 5
335 6
335 7
335 169
335 187
335 637
335 661
335 716
335 868
335 1553
335 1555
335 1610
336 0
336 1
336 2
336 5
336 6
336 10
336 197
336 246
336 333
336 357
336 376
336 377
336 469
336 484
336 673
337 0
337 1
337 2
337 3
337 4
337 5
337 10
337 209
337 698
337 704
337 1387
337 1401
337 1404
337 1478
338 0
338 1
338 2
338 3
338 4
338 185
338 258
338 374
338 396
338 559
338 767
339 0
339 1
339 3
339 4
339 5
339 332
339 428
340 0
340 1
340 3
340 1047
340 1331
341 0
341 1
341 3
341 5
341 6
341 44
341 46
341 293
341 354
341 369
341 391
341 445
341 459
341 1094
341 1166
341 1540
342 0
342 1
342 2
342 3
342 4
342 5
342 6
342 7
342 9
342 245
342 309
342 378
342 666
342 1004
342 1387
342 1519
343 0
343 1
343 2
343 4
343 5
343 9
343 42
343 301
343 355
343 388
343 496
343 536
343 574
343 703
343 889
343 1378
343 1516
343 1574
344 0
344 344
344 1454
344 1455
345 0
345 1
345 2
345 5
345 16
345 43
345 111
346 0
346 1
346 362
346 459
347 0
347 1
347 3
347 463
347 1624
348 0
348 1
348 2
348 3
348 4
348 6
348 1387
348 1401
348 1404
348 1457
348 1458
348 1459
348 1468
348 1591
349 0
349 1
349 2
349 253
349 290
349 419
349 1416
349 1606
350 0
350 1
350 3
350 4
350 5
350 7
350 8
350 43
350 69
350 310
350 382
350 431
350 472
350 490
350 533
350 793
350 957
350 1026
350 1030
350 1134
350 1271
350 1513
351 0
351 1
351 3
351 4
351 6
351 14
351 197
351 457
351 715
351 1076
351 1128
351 1294
352 0
352 1
352 2
352 3
352 4
352 5
352 6
352 9
352 11
352 13
352 20
352 1435
353 0
353 1
353 2
353 3
354 0
354 1
354 2
354 3
354 5
354 6
354 7
354 12
354 14
354 15
354 17
354 29
354 31
354 62
354 153
354 200
354 293
354 303
354 304
354 308
354 341
354 369
354 457
354 582
354 637
354 720
354 961
354 985
354 1069
354 1094
354 1201
354 1251
354 1356
354 1417
355 0
355 1
355 2
355 3
355 4
355 11
355 82
355 176
355 314
355 343
355 388
355 437
355 469
355 536
355 574
355 703
355 853
355 995
355 1056
355 1487
355 1574
356 0
356 1
356 2
356 3
356 5
356 6
356 9
356 11
356 25
356 37
356 41
356 64
356 215
356 258
356 312
356 389
356 1001
356 1051
356 1347
356 1387
356 1471
356 1472
356 1550
356 1556
356 1620
357 0
357 1
357 3
357 4
357 5
357 6
357 336
357 686
357 886
357 928
358 0
358 1
358 2
358 3
358 4
358 43
358 44
358 58
358 459
358 728
358 932
358 1625
359 0
359 1
359 2
359 3
359 4
359 5
359 6
359 9
359 10
359 11
359 13
359 14
359 19
359 42
359 61
359 81
359 87
359 88
359 110
359 168
359 258
359 281
359 408
359 496
359 518
359 532
359 548
359 549
359 584
359 720
359 855
359 860
359 872
359 894
359 909
359 1012
359 1076
359 1128
359 1162
359 1286
359 1366
359 1387
359 1417
359 1461
359 1504
359 1508
359 1599
359 1616
360 0
360 1
360 2
360 3
360 5
360 6
360 67
360 296
360 507
360 546
360 868
360 877
360 940
360 1153
360 1444
360 1504
360 1599
361 0
361 1
361 2
361 3
361 4
361 7
361 597
361 872
361 1020
361 1347
362 0
362 1
362 258
362 346
362 593
362 697
363 0
363 1
364 0
364 1
364 88
365 0
365 1
365 2
365 4
365 71
365 199
365 428
365 530
365 906
365 1436
365 1530
365 1550
365 1577
365 1583
366 0
366 1
366 2
366 3
366 6
366 46
366 89
366 99
366 629
366 1094
366 1453
366 1597
367 0
367 1
367 83
367 331
367 1610
368 0
368 1
368 2
368 3
368 4
368 5
368 6
368 7
368 10
368 20
368 30
368 42
368 81
368 92
368 98
368 274
368 281
368 287
368 296
368 325
368 368
368 496
368 518
368 532
368 596
368 766
368 767
368 795
368 801
368 805
368 865
368 895
368 907
368 947
368 965
368 982
368 1019
368 1027
368 1035
368 1040
368 1042
368 1130
368 1417
368 1430
368 1462
368 1463
368 1464
368 1465
368 1466
368 1624
369 0
369 1
369 2
369 3
369 42
369 44
369 200
369 245
369 293
369 296
369 297
369 341
369 354
369 459
369 478
369 487
369 496
369 947
369 1417
369 1458
370 0
370 1
370 2
370 4
370 6
370 296
370 563
370 1441
371 0
371 1
371 2
371 3
371 664
371 1452
372 0
372 1
372 5
373 0
373 1
373 2
373 4
373 8
373 9
373 20
373 26
373 29
373 31
373 39
373 64
373 72
373 195
373 319
373 443
373 457
373 620
373 637
373 792
373 961
373 964
373 1056
373 1141
374 0
374 1
374 2
374 3
374 4
374 5
374 6
374 8
374 9
374 329
374 338
374 396
374 529
374 532
374 776
374 918
374 927
374 1521
374 1529
375 0
375 1
375 3
375 4
375 5
375 43
375 66
375 76
375 87
375 88
375 98
375 108
375 157
375 185
375 202
375 209
375 226
375 254
375 384
375 411
375 430
375 490
375 514
375 546
375 627
375 717
375 1134
375 1172
375 1449
375 1513
376 1
376 2
376 3
376 4
376 6
376 8
376 9
376 11
376 17
376 35
376 39
376 119
376 246
376 336
376 469
376 484
376 500
376 555
376 590
376 625
376 713
376 814
376 859
376 941
376 1356
377 0
377 1
377 2
377 3
377 4
377 5
377 6
377 7
377 9
377 27
377 87
377 156
377 196
377 282
377 336
377 436
377 455
377 538
377 605
377 629
377 801
377 996
377 1018
377 1136
377 1227
377 1286
377 1311
377 1472
377 1508
377 1541
378 0
378 1
378 2
378 3
378 4
378 5
378 6
378 7
378 8
378 34
378 35
378 43
378 44
378 209
378 235
378 342
378 532
378 559
378 603
378 623
378 1003
378 1211
378 1237
378 1376
379 0
379 1
379 2
379 3
379 4
379 5
379 10
379 98
379 111
379 176
379 432
379 486
379 532
379 699
379 1216
379 1426
379 1477
379 1490
379 1546
380 0
380 380
380 1467
380 1624
381 0
381 1
381 2
381 3
381 4
381 5
381 6
381 17
381 30
381 35
381 98
381 101
381 231
381 258
381 268
381 473
381 603
381 747
381 939
381 1108
381 1119
381 1431
381 1451
381 1469
381 1470
381 1584
381 1611
382 0
382 1
382 2
382 253
382 350
383 0
383 1
383 2
383 3
383 5
383 8
383 35
383 699
383 907
383 961
383 1356
383 1435
384 0
384 1
384 2
384 3
384 4
384 5
384 43
384 44
384 131
384 254
384 276
384 322
384 375
384 463
384 596
384 1404
384 1494
385 0
385 1
385 2
385 4
385 5
385 6
385 18
385 20
385 134
385 240
385 245
385 436
385 477
385 572
385 963
385 1075
385 1094
385 1136
385 1310
385 1543
386 0
386 1
386 2
386 3
386 4
386 5
386 6
386 98
386 329
386 476
386 490
386 705
386 980
386 1404
386 1520
387 0
387 1
387 2
387 3
387 4
387 5
387 8
387 9
387 17
387 19
387 117
387 126
387 143
387 156
387 215
387 231
387 254
387 312
387 421
387 507
387 621
387 720
387 755
387 838
387 866
387 878
387 937
387 942
387 995
387 1071
387 1128
387 1307
387 1471
387 1472
387 1534
387 1535
387 1536
387 1537
387 1562
388 0
388 1
388 3
388 5
388 42
388 343
388 355
388 487
388 664
388 1427
388 1574
389 0
389 1
389 4
389 98
389 187
389 199
389 356
389 906
389 1431
390 0
390 1
390 2
390 30
390 42
390 400
390 697
390 987
391 0
391 1
391 2
391 3
391 4
391 5
391 6
391 7
391 10
391 20
391 26
391 42
391 44
391 55
391 68
391 81
391 89
391 92
391 124
391 165
391 230
391 258
391 289
391 292
391 296
391 317
391 327
391 333
391 341
391 496
391 596
391 668
391 680
391 703
391 762
391 770
391 918
391 947
391 964
391 988
391 996
391 1025
391 1047
391 1051
391 1058
391 1124
391 1142
391 1211
391 1227
391 1355
391 1378
391 1481
391 1521
391 1540
391 1594
391 1620
392 0
392 1
392 2
392 3
392 5
392 44
392 93
392 159
392 324
392 551
392 854
392 1436
392 1533
393 0
393 1
393 3
393 1369
394 0
394 1
394 2
394 3
394 4
394 5
394 6
394 7
394 8
394 9
394 10
394 11
394 15
394 17
394 35
394 117
394 210
394 215
394 224
394 281
394 596
394 859
394 990
394 1006
394 1087
394 1091
394 1147
394 1356
395 0
395 1
395 2
395 3
395 4
395 5
395 7
395 8
395 9
395 11
395 54
395 69
395 81
395 159
395 213
395 250
395 321
395 324
395 438
395 476
395 483
395 702
395 727
395 758
395 860
395 930
395 1270
395 1435
395 1519
396 0
396 1
396 2
396 3
396 5
396 7
396 10
396 11
396 16
396 42
396 43
396 44
396 83
396 99
396 209
396 235
396 296
396 338
396 374
396 435
396 460
396 842
396 848
396 1051
396 1270
396 1369
396 1377
396 1589
396 1628
397 0
397 1
397 2
397 3
397 4
397 5
397 20
397 43
397 44
397 246
397 1019
397 1038
397 1060
398 0
398 1
398 2
398 3
398 912
398 1518
398 1559
399 0
399 1
399 2
399 3
399 611
399 694
399 747
399 864
399 919
399 1468
400 0
400 1
400 2
400 3
400 5
400 6
400 7
400 24
400 25
400 37
400 144
400 206
400 213
400 287
400 390
400 472
400 491
400 624
400 636
400 652
400 753
400 762
400 930
400 943
400 995
400 1051
400 1169
400 1215
400 1238
400 1289
400 1312
400 1424
400 1473
400 1474
401 0
401 1
401 2
401 4
401 8
401 11
401 117
401 196
401 212
401 214
401 601
401 1356
402 0
402 1
402 2
402 3
402 4
402 5
402 10
402 23
402 54
402 181
402 572
402 621
402 1130
402 1286
403 0
403 1
403 2
403 3
403 4
403 5
403 6
403 10
403 12
403 98
403 134
403 185
403 203
403 281
403 287
403 416
403 607
403 767
403 937
403 995
403 1032
403 1359
403 1383
403 1384
403 1387
403 1480
403 1524
404 0
404 1
404 5
404 627
404 1427
404 1607
405 0
405 1
405 2
405 5
405 8
405 12
405 14
405 246
405 469
405 712
405 796
405 963
405 964
405 988
405 1006
405 1132
405 1306
406 0
406 1
406 2
406 5
406 7
406 198
406 538
406 601
406 739
406 962
406 1481
406 1512
406 1594
407 0
407 1
407 3
407 5
407 83
407 264
407 296
407 572
407 778
407 1358
407 1387
407 1438
407 1594
408 0
408 1
408 2
408 3
408 6
408 7
408 19
408 43
408 81
408 205
408 209
408 328
408 359
408 413
408 436
408 509
408 654
408 825
408 1137
408 1420
408 1492
408 1618
409 0
409 1
409 2
409 3
409 4
409 5
409 8
409 167
409 176
409 423
409 788
409 889
409 1062
409 1094
409 1532
410 0
410 1
410 2
410 3
410 5
410 7
410 43
410 188
410 239
410 273
410 629
410 664
410 722
410 754
410 1415
410 1428
410 1430
410 1604
411 0
411 1
411 2
411 3
411 5
411 6
411 7
411 10
411 44
411 209
411 375
411 1369
412 0
412 1
412 2
412 3
412 4
412 5
412 9
412 12
412 23
412 28
412 33
412 188
412 208
412 438
412 476
412 483
412 696
412 929
412 1215
412 1249
412 1332
413 0
413 1
413 2
413 3
413 4
413 5
413 7
413 11
413 14
413 17
413 30
413 87
413 230
413 296
413 408
413 413
413 494
413 694
413 795
413 920
413 947
413 1243
413 1275
413 1417
413 1475
413 1476
413 1477
413 1478
413 1479
413 1574
414 0
414 1
414 2
414 3
414 4
414 7
414 14
414 83
414 219
414 258
414 264
414 308
414 322
414 563
414 722
414 1426
414 1530
414 1559
414 1588
414 1610
415 0
415 1
415 2
416 0
416 1
416 2
416 3
416 4
416 6
416 134
416 281
416 295
416 403
416 645
416 753
416 860
416 872
416 877
416 1258
417 0
417 1
417 2
417 4
417 5
417 8
417 10
417 43
417 44
417 235
417 258
417 700
418 0
418 1
418 2
418 3
418 5
418 7
418 10
418 67
418 584
418 661
418 664
418 868
418 1594
418 1607
419 0
419 1
419 2
419 3
419 4
419 267
419 281
419 349
419 422
420 0
420 1
420 2
420 3
420 4
420 5
420 9
420 19
420 34
420 165
420 235
420 581
420 590
420 697
420 764
420 881
420 999
420 1076
420 1128
420 1140
420 1227
420 1253
420 1284
420 1290
420 1602
421 0
421 1
421 2
421 3
421 4
421 9
421 19
421 157
421 303
421 387
421 882
421 1032
421 1128
421 1305
421 1307
422 0
422 1
422 2
422 3
422 4
422 8
422 419
422 487
422 532
422 603
422 735
423 0
423 1
423 2
423 3
423 4
423 8
423 167
423 409
423 525
423 543
423 788
423 889
423 935
423 1531
423 1532
424 0
424 1
424 2
424 3
424 4
424 11
424 42
424 155
424 487
424 584
424 795
425 0
425 1
425 2
425 3
425 296
425 465
425 587
425 1453
426 0
426 1
426 2
426 3
426 4
426 5
426 6
426 7
426 104
426 319
426 801
426 960
426 988
426 1004
426 1141
426 1508
427 0
427 1
427 2
427 3
427 5
427 11
427 12
427 14
427 946
428 0
428 1
428 2
428 3
428 5
428 71
428 279
428 339
428 365
428 467
428 1492
429 0
429 1
430 0
430 1
430 5
430 6
430 10
430 11
430 43
430 44
430 76
430 88
430 160
430 209
430 375
430 490
430 546
430 717
430 765
430 880
430 946
430 1172
430 1173
430 1367
430 1617
431 0
431 1
431 2
431 3
431 5
431 8
431 12
431 116
431 153
431 206
431 284
431 322
431 350
431 459
431 747
431 793
431 942
431 1029
431 1335
431 1395
431 1540
432 0
432 1
432 2
432 87
432 93
432 98
432 127
432 137
432 165
432 279
432 282
432 287
432 322
432 379
432 812
432 1423
432 1434
432 1544
433 0
433 1
433 2
433 3
433 4
433 6
433 9
433 37
433 64
433 143
433 197
433 205
433 240
433 436
433 594
433 730
433 985
433 995
433 1062
433 1191
434 0
434 1
434 2
434 4
434 65
434 302
434 515
434 692
434 837
434 995
434 1348
434 1442
434 1443
434 1444
434 1445
434 1503
435 1
435 2
435 3
435 4
435 5
435 6
435 7
435 9
435 10
435 12
435 24
435 25
435 37
435 53
435 165
435 220
435 240
435 319
435 396
435 448
435 529
435 530
435 595
435 600
435 743
435 794
435 797
435 903
435 953
435 975
435 989
435 1056
435 1473
436 0
436 1
436 2
436 6
436 9
436 20
436 26
436 29
436 31
436 40
436 195
436 205
436 240
436 333
436 377
436 385
436 408
436 433
436 443
436 594
436 666
436 669
436 883
436 885
436 963
436 976
436 1183
436 1191
436 1203
436 1299
436 1622
437 0
437 1
437 2
437 4
437 6
437 7
437 10
437 32
437 98
437 133
437 183
437 314
437 316
437 334
437 355
437 486
437 520
437 620
437 705
437 778
437 831
437 1084
437 1085
437 1159
437 1425
438 0
438 1
438 3
438 5
438 7
438 8
438 9
438 11
438 54
438 83
438 175
438 181
438 213
438 321
438 395
438 412
438 472
438 476
438 483
438 540
438 547
438 727
438 733
438 1036
438 1104
438 1270
438 1287
438 1317
438 1324
438 1420
438 1483
439 0
439 1
439 2
439 3
439 4
439 6
439 7
439 14
439 118
439 197
439 316
439 328
439 469
439 567
439 604
439 623
439 625
439 683
439 817
439 1306
440 0
440 1
440 2
440 4
440 1404
441 0
441 1
441 2
441 3
441 81
441 697
441 821
441 1387
441 1400
441 1594
441 1595
442 0
442 1
442 4
442 7
442 8
442 9
442 10
442 16
442 17
442 35
442 104
442 156
442 186
442 212
442 214
442 283
442 460
442 481
442 808
442 846
442 960
442 961
442 964
442 988
442 995
442 1056
442 1057
442 1130
442 1139
442 1164
442 1170
442 1255
442 1356
442 1541
443 0
443 1
443 2
443 4
443 5
443 6
443 7
443 8
443 10
443 15
443 17
443 19
443 20
443 26
443 96
443 186
443 328
443 373
443 436
443 530
443 730
443 964
443 976
443 985
443 995
443 1111
444 0
444 1
444 2
444 3
444 34
444 66
444 532
444 1397
445 0
445 1
445 3
445 4
445 46
445 194
445 200
445 341
445 939
445 1451
445 1558
446 0
446 1
446 2
446 3
446 4
446 6
446 10
446 11
446 43
446 225
446 235
446 506
446 811
447 0
447 1
447 2
447 42
447 65
447 496
447 597
447 694
447 947
447 1387
447 1423
447 1589
447 1598
448 0
448 1
448 4
448 5
448 6
448 9
448 11
448 12
448 20
448 24
448 25
448 37
448 66
448 86
448 435
448 457
448 808
448 955
448 1076
448 1127
448 1128
448 1145
448 1170
448 1253
448 1450
449 0
449 1
449 2
449 3
449 4
449 5
449 7
449 9
449 10
449 17
449 18
449 20
449 37
449 460
449 652
449 711
449 729
449 792
449 964
449 990
449 995
449 1049
449 1127
449 1139
449 1254
450 0
450 1
450 2
450 3
450 1352
450 1438
451 0
451 1
452 0
452 1
452 2
452 4
452 5
452 6
452 9
452 16
452 124
452 245
452 477
452 711
452 963
452 1136
452 1310
452 1508
453 0
453 1
453 2
453 3
453 7
453 10
453 12
453 42
453 44
453 766
454 0
454 1
454 2
454 4
454 459
454 755
454 1608
455 0
455 1
455 2
455 3
455 4
455 5
455 8
455 9
455 22
455 27
455 45
455 117
455 323
455 377
455 538
455 559
455 623
455 712
455 977
455 996
455 1214
456 0
456 1
456 154
456 203
456 275
456 282
457 0
457 1
457 2
457 3
457 4
457 5
457 6
457 8
457 9
457 15
457 195
457 315
457 351
457 354
457 373
457 448
457 792
457 961
457 964
457 1051
457 1056
457 1141
457 1145
457 1355
458 0
458 1
458 2
458 3
458 10
458 292
458 1404
458 1468
459 1
459 3
459 4
459 46
459 93
459 94
459 111
459 144
459 168
459 184
459 188
459 203
459 218
459 242
459 281
459 296
459 309
459 324
459 341
459 346
459 358
459 369
459 431
459 454
459 479
459 504
459 536
459 574
459 584
459 590
459 598
459 755
459 798
459 847
459 938
459 1009
459 1125
459 1387
459 1578
460 1
460 2
460 4
460 5
460 6
460 7
460 11
460 25
460 104
460 186
460 195
460 283
460 396
460 442
460 449
460 481
460 529
460 600
460 636
460 755
460 792
460 805
460 809
460 911
460 963
460 964
460 995
460 1079
460 1130
460 1139
460 1146
460 1164
460 1189
460 1219
460 1254
460 1255
460 1620
461 0
461 1
461 2
461 3
461 4
461 5
461 6
461 8
461 34
461 69
461 76
461 92
461 94
461 281
461 519
461 596
461 609
461 699
461 1359
461 1362
461 1479
461 1575
461 1577
462 0
462 1
462 2
463 0
463 1
463 2
463 3
463 4
463 44
463 254
463 276
463 347
463 384
463 754
463 843
463 844
463 1513
464 0
464 1
464 2
464 3
464 4
464 6
464 10
464 1369
464 1387
464 1436
465 0
465 1
465 2
465 3
465 5
465 425
465 558
465 587
465 632
465 1453
466 0
466 1
466 2
466 3
467 0
467 1
467 3
467 5
467 428
468 0
468 1
468 2
468 3
468 4
468 5
468 21
468 32
468 64
468 165
468 208
468 229
468 571
468 600
468 670
468 1126
468 1220
468 1336
468 1425
468 1508
468 1520
469 0
469 1
469 2
469 4
469 6
469 7
469 8
469 10
469 21
469 29
469 31
469 32
469 39
469 118
469 176
469 246
469 336
469 355
469 376
469 405
469 439
469 486
469 500
469 572
469 590
469 604
469 797
469 817
469 943
469 1032
469 1079
469 1143
470 0
470 1
470 2
470 3
470 822
470 827
470 1559
471 0
471 1
471 2
471 3
471 6
471 8
471 10
471 12
471 42
471 496
471 627
471 947
471 1387
472 0
472 1
472 2
472 3
472 4
472 5
472 7
472 9
472 11
472 12
472 23
472 28
472 33
472 116
472 350
472 400
472 438
472 476
472 483
472 732
472 793
472 930
472 942
472 963
472 969
472 1028
472 1029
472 1104
472 1215
472 1234
472 1245
472 1249
472 1356
472 1566
473 0
473 1
473 2
473 3
473 4
473 27
473 35
473 156
473 230
473 249
473 381
473 555
473 605
473 636
473 667
473 668
473 755
473 805
473 859
473 941
473 1046
473 1056
473 1525
474 0
474 1
474 2
474 4
474 5
474 6
474 8
474 10
474 11
474 17
474 54
474 214
474 481
474 601
474 699
474 781
474 1356
475 0
475 1
475 2
475 3
475 4
475 5
475 6
475 7
475 11
475 71
475 73
475 138
475 166
475 170
475 187
475 216
475 631
475 716
475 815
475 995
475 1001
475 1553
476 0
476 1
476 2
476 3
476 4
476 5
476 6
476 7
476 8
476 9
476 11
476 54
476 68
476 213
476 326
476 386
476 395
476 412
476 438
476 472
476 483
476 539
476 540
476 547
476 697
476 727
476 733
476 747
476 793
476 930
476 942
476 952
476 1054
476 1104
476 1270
476 1331
476 1356
476 1596
477 0
477 1
477 2
477 4
477 5
477 6
477 7
477 8
477 9
477 14
477 20
477 25
477 53
477 287
477 385
477 452
477 594
477 720
477 959
477 961
477 963
477 1075
477 1076
477 1128
477 1253
477 1286
477 1543
478 0
478 1
478 2
478 297
478 369
479 0
479 1
479 2
479 3
479 14
479 459
480 0
480 1
480 2
480 3
480 4
480 10
480 11
480 43
480 44
480 99
481 0
481 1
481 2
481 4
481 5
481 7
481 9
481 10
481 11
481 17
481 35
481 133
481 212
481 442
481 460
481 474
481 572
481 960
481 964
481 1056
481 1079
481 1091
481 1130
481 1139
481 1147
481 1356
482 0
482 1
483 0
483 1
483 2
483 3
483 5
483 8
483 11
483 175
483 181
483 213
483 250
483 292
483 321
483 395
483 412
483 438
483 472
483 476
483 539
483 547
483 727
483 728
483 731
483 733
483 930
483 957
483 1028
483 1081
483 1100
483 1104
483 1270
483 1317
483 1356
483 1420
483 1427
483 1578
484 0
484 1
484 2
484 3
484 4
484 5
484 6
484 10
484 16
484 20
484 39
484 134
484 157
484 246
484 336
484 376
484 526
484 566
484 567
484 635
484 683
484 701
484 730
484 801
484 841
484 885
484 936
484 1241
484 1282
484 1308
484 1309
485 0
485 1
485 2
485 3
485 6
485 7
485 12
485 14
485 20
485 24
485 37
485 92
485 165
485 186
485 236
485 249
485 713
485 720
485 814
485 859
485 961
485 1039
485 1079
485 1228
485 1231
485 1356
486 1
486 5
486 6
486 7
486 8
486 10
486 11
486 12
486 29
486 31
486 32
486 39
486 96
486 176
486 217
486 249
486 314
486 316
486 334
486 379
486 437
486 469
486 494
486 509
486 606
486 620
486 624
486 674
486 841
486 1079
486 1178
486 1239
486 1243
486 1293
486 1307
487 0
487 1
487 2
487 4
487 81
487 82
487 83
487 93
487 111
487 134
487 160
487 162
487 223
487 281
487 369
487 388
487 422
487 424
487 510
487 532
487 549
487 566
487 575
487 579
487 649
487 897
487 1204
487 1390
487 1416
487 1427
487 1430
487 1572
487 1598
488 0
488 1
488 2
488 3
488 4
488 5
488 6
488 9
488 10
488 14
488 19
488 118
488 141
488 797
488 853
488 1057
488 1062
488 1128
488 1140
488 1214
488 1227
488 1253
489 0
489 1
489 2
489 3
489 4
489 8
489 11
489 129
489 235
489 280
489 281
489 320
489 525
489 603
489 923
489 1359
489 1384
489 1439
489 1531
490 0
490 1
490 2
490 3
490 4
490 5
490 6
490 8
490 43
490 69
490 76
490 82
490 209
490 291
490 350
490 375
490 386
490 430
490 546
490 574
490 627
490 1067
490 1134
490 1172
490 1367
490 1390
491 0
491 1
491 2
491 3
491 4
491 5
491 7
491 12
491 116
491 144
491 177
491 188
491 208
491 265
491 308
491 400
491 1030
491 1249
491 1469
491 1483
491 1611
492 0
492 1
492 2
492 3
492 6
492 245
492 1409
493 0
493 1
493 2
493 3
493 4
493 5
493 7
493 9
493 10
493 11
493 15
493 18
493 24
493 37
493 53
493 605
493 846
493 918
493 1529
493 1603
494 0
494 1
494 2
494 3
494 4
494 5
494 6
494 8
494 11
494 14
494 17
494 236
494 303
494 413
494 486
494 572
494 817
494 1079
495 0
495 1
496 0
496 1
496 2
496 3
496 4
496 6
496 36
496 42
496 49
496 57
496 67
496 81
496 92
496 108
496 109
496 125
496 134
496 153
496 177
496 184
496 193
496 296
496 322
496 343
496 359
496 368
496 369
496 391
496 447
496 471
496 508
496 518
496 532
496 540
496 548
496 559
496 565
496 568
496 584
496 588
496 597
496 627
496 636
496 672
496 684
496 708
496 766
496 777
496 785
496 795
496 856
496 862
496 865
496 872
496 892
496 981
496 987
496 1251
496 1252
496 1321
496 1389
496 1416
496 1417
496 1495
496 1514
497 1
498 0
498 1
498 2
498 3
498 9
498 11
498 56
498 679
498 1030
498 1283
498 1451
499 0
499 1
499 2
499 3
499 16
499 34
499 43
499 44
499 185
499 281
499 320
499 848
499 1355
499 1390
500 0
500 1
500 2
500 3
500 4
500 5
500 6
500 7
500 14
500 29
500 31
500 157
500 185
500 245
500 246
500 258
500 333
500 376
500 469
500 594
500 652
500 666
500 802
500 937
500 953
500 995
500 1008
500 1032
500 1152
500 1214
501 0
501 1
501 2
501 3
501 5
501 9
501 11
501 56
501 82
501 679
501 795
501 883
501 1030
501 1451
501 1560
502 0
502 1
502 2
502 3
502 5
502 235
503 0
503 1
503 2
503 3
503 258
503 728
503 731
503 921
503 948
504 0
504 1
504 2
504 3
504 6
504 7
504 10
504 12
504 459
504 977
504 1334
505 0
505 1
505 2
505 4
505 43
505 44
505 235
505 946
505 1005
506 0
506 1
506 2
506 43
506 44
506 235
506 446
506 1005
507 0
507 1
507 2
507 3
507 4
507 5
507 6
507 11
507 87
507 96
507 213
507 315
507 360
507 387
507 548
507 552
507 572
507 607
507 733
507 859
507 868
507 918
507 972
507 1128
507 1312
507 1321
507 1356
507 1390
507 1442
507 1472
507 1566
507 1595
507 1603
508 0
508 1
508 2
508 3
508 42
508 318
508 496
508 864
508 947
509 0
509 1
509 2
509 3
509 5
509 6
509 7
509 9
509 26
509 408
509 486
509 762
509 1062
509 1096
509 1250
510 0
510 1
510 2
510 4
510 5
510 7
510 10
510 88
510 168
510 188
510 209
510 254
510 487
510 566
510 575
510 654
510 682
510 1543
511 0
511 1
511 2
511 3
511 4
511 5
511 6
511 7
511 191
511 513
511 734
511 941
511 1520
512 0
512 1
512 2
512 3
512 4
512 5
512 6
512 10
512 21
512 32
512 226
512 281
512 520
512 643
512 707
512 723
512 886
512 1086
512 1232
512 1520
512 1594
513 0
513 1
513 2
513 4
513 7
513 35
513 511
514 0
514 1
514 2
514 34
514 44
514 235
514 320
514 375
514 532
514 603
514 1408
514 1598
515 0
515 1
515 2
515 3
515 4
515 7
515 174
515 434
515 582
515 837
515 975
516 0
516 1
516 2
516 3
516 4
516 30
516 44
516 247
516 946
516 1569
517 0
517 1
517 2
517 3
517 4
517 6
517 8
517 10
517 16
517 40
517 220
517 784
517 1230
517 1382
517 1513
517 1559
517 1620
518 0
518 1
518 2
518 4
518 6
518 11
518 27
518 42
518 156
518 359
518 368
518 496
518 532
518 538
518 947
518 996
518 1353
519 0
519 1
519 2
519 3
519 4
519 5
519 6
519 19
519 30
519 34
519 93
519 203
519 329
519 461
519 546
519 585
519 592
519 603
519 728
519 731
519 1019
519 1128
519 1196
519 1427
519 1599
519 1602
520 0
520 1
520 2
520 6
520 10
520 119
520 133
520 183
520 316
520 437
520 512
520 689
520 705
520 713
520 734
520 831
520 1079
520 1082
520 1083
520 1084
520 1157
520 1159
520 1176
520 1186
520 1216
520 1293
520 1628
521 0
521 1
521 2
521 3
521 81
521 521
521 531
521 532
521 699
521 736
521 848
521 1417
521 1498
521 1499
521 1628
522 0
522 1
522 2
522 3
522 4
522 10
522 19
522 529
522 532
522 696
522 1417
523 0
523 1
523 2
523 5
523 34
523 44
523 762
523 1491
524 0
524 2
524 6
524 794
524 927
524 943
524 948
525 0
525 2
525 4
525 5
525 6
525 7
525 9
525 10
525 11
525 26
525 31
525 203
525 423
525 489
525 543
525 623
525 712
525 788
525 898
525 961
525 975
525 984
525 990
525 1012
525 1073
525 1183
525 1264
525 1268
525 1429
525 1608
526 0
526 1
526 2
526 3
526 5
526 9
526 16
526 39
526 134
526 157
526 484
526 841
527 0
527 1
527 2
527 3
527 330
528 0
528 1
528 2
528 4
528 6
528 957
528 1540
529 2
529 3
529 37
529 55
529 211
529 324
529 374
529 435
529 460
529 522
529 576
529 714
529 762
529 767
529 794
529 909
529 916
529 918
529 927
529 929
529 948
529 1144
529 1208
529 1212
529 1279
529 1288
530 0
530 1
530 2
530 3
530 4
530 6
530 9
530 21
530 22
530 24
530 35
530 37
530 66
530 81
530 93
530 106
530 134
530 136
530 254
530 283
530 287
530 314
530 315
530 365
530 435
530 443
530 540
530 549
530 559
530 566
530 572
530 739
530 747
530 773
530 804
530 810
530 823
530 922
530 943
530 957
530 967
530 981
530 1071
530 1075
530 1076
530 1082
530 1144
530 1409
530 1484
530 1491
530 1493
530 1500
530 1543
531 0
531 1
531 2
531 521
531 736
531 1498
532 0
532 1
532 2
532 3
532 4
532 6
532 34
532 42
532 44
532 65
532 81
532 86
532 88
532 93
532 96
532 120
532 160
532 183
532 203
532 222
532 287
532 359
532 368
532 374
532 378
532 379
532 422
532 444
532 487
532 496
532 514
532 518
532 521
532 522
532 546
532 582
532 590
532 627
532 694
532 696
532 767
532 834
532 839
532 854
532 894
532 911
532 914
532 947
532 968
532 989
532 1108
532 1118
532 1209
532 1211
532 1216
532 1352
532 1354
532 1364
532 1373
532 1374
532 1387
532 1415
532 1417
532 1501
532 1504
532 1526
532 1538
533 0
533 1
533 2
533 4
533 5
533 9
533 83
533 350
533 559
533 596
533 1163
533 1387
533 1491
534 0
534 1
534 2
534 77
534 203
534 1417
535 0
535 1
535 660
535 1612
536 0
536 1
536 2
536 4
536 5
536 6
536 9
536 343
536 355
536 459
536 703
536 1387
536 1436
536 1577
537 0
537 1
537 2
537 4
537 5
537 87
537 1389
538 2
538 41
538 81
538 196
538 198
538 210
538 248
538 251
538 377
538 406
538 455
538 518
538 558
538 627
538 651
538 663
538 739
538 1007
538 1144
538 1221
538 1237
538 1259
538 1272
538 1274
538 1276
538 1387
538 1547
538 1615
539 0
539 1
539 2
539 3
539 5
539 8
539 9
539 11
539 54
539 175
539 181
539 213
539 292
539 476
539 483
539 793
539 930
539 957
539 1104
539 1270
539 1460
539 1620
540 0
540 1
540 2
540 3
540 4
540 11
540 42
540 167
540 308
540 438
540 476
540 496
540 530
540 694
540 696
540 947
540 984
540 1069
540 1234
540 1264
540 1532
541 0
541 1
541 2
541 5
541 134
541 596
541 1345
541 1387
542 0
542 1
542 2
542 3
542 81
542 173
542 258
542 601
542 703
542 848
542 858
543 0
543 1
543 2
543 3
543 4
543 5
543 6
543 8
543 423
543 525
543 581
543 932
543 1134
543 1594
543 1607
544 0
544 1
544 2
544 4
544 6
544 104
544 573
544 852
545 0
545 1
545 2
545 3
545 5
545 38
545 76
545 94
545 275
545 296
545 1154
545 1502
545 1550
545 1577
545 1594
546 0
546 1
546 2
546 3
546 4
546 5
546 6
546 7
546 11
546 43
546 113
546 209
546 222
546 360
546 375
546 430
546 490
546 519
546 532
546 553
546 582
546 696
546 747
546 830
546 832
546 837
546 854
546 894
546 968
546 995
546 1134
546 1173
546 1348
546 1367
546 1442
546 1445
546 1449
546 1491
546 1503
546 1504
546 1598
547 0
547 1
547 2
547 4
547 9
547 28
547 33
547 208
547 438
547 476
547 483
547 1222
547 1249
548 0
548 1
548 2
548 3
548 4
548 34
548 42
548 44
548 77
548 83
548 92
548 302
548 359
548 496
548 507
548 627
548 680
548 699
548 822
548 889
548 947
548 1376
548 1389
548 1419
548 1480
549 0
549 1
549 2
549 3
549 4
549 5
549 90
549 92
549 359
549 487
549 530
549 1366
549 1504
549 1549
549 1550
549 1608
550 0
550 1
550 2
550 3
551 0
551 1
551 2
551 3
551 4
551 7
551 11
551 88
551 170
551 392
551 553
551 603
551 608
551 637
551 652
551 692
551 777
551 877
551 929
551 1270
551 1505
551 1553
551 1578
552 0
552 1
552 2
552 3
552 4
552 5
552 6
552 9
552 22
552 30
552 507
552 607
552 795
552 1355
553 0
553 1
553 2
553 4
553 6
553 71
553 88
553 92
553 130
553 134
553 298
553 546
553 551
553 582
553 696
553 854
553 860
553 982
554 0
554 1
554 2
554 3
554 4
554 6
554 46
554 556
555 0
555 1
555 2
555 156
555 191
555 315
555 376
555 473
555 670
555 1002
555 1048
555 1091
555 1123
556 0
556 1
556 2
556 3
556 5
556 6
556 161
556 554
556 557
556 1413
556 1557
557 0
557 1
557 2
557 3
557 5
557 6
557 14
557 44
557 556
557 946
558 0
558 1
558 2
558 3
558 7
558 8
558 9
558 41
558 44
558 163
558 188
558 300
558 465
558 538
558 584
558 587
558 632
558 812
559 0
559 1
559 2
559 3
559 5
559 6
559 8
559 25
559 37
559 42
559 46
559 81
559 92
559 281
559 317
559 338
559 378
559 455
559 496
559 530
559 533
559 636
559 652
559 659
559 680
559 684
559 755
559 762
559 770
559 794
559 805
559 806
559 907
559 916
559 918
559 941
559 947
559 957
559 964
559 979
559 981
559 1025
559 1491
559 1528
559 1529
560 0
560 1
560 2
560 4
560 5
560 989
560 997
560 1174
561 0
561 1
561 2
561 3
561 4
561 9
561 21
561 43
561 228
561 948
561 1417
561 1506
561 1578
562 0
562 1
562 2
562 3
562 4
562 943
562 981
563 0
563 1
563 2
563 203
563 231
563 296
563 370
563 414
563 1606
564 0
564 1
564 2
564 3
564 5
564 6
564 157
564 995
564 1076
565 0
565 1
565 2
565 3
565 4
565 8
565 42
565 496
565 947
565 1366
565 1469
566 0
566 1
566 2
566 3
566 4
566 5
566 6
566 7
566 9
566 10
566 42
566 92
566 124
566 157
566 159
566 168
566 281
566 333
566 484
566 487
566 510
566 530
566 606
566 702
566 728
566 731
566 773
566 801
566 841
566 921
566 946
566 957
566 1058
566 1354
566 1519
566 1608
567 0
567 1
567 2
567 3
567 4
567 5
567 7
567 8
567 10
567 12
567 14
567 19
567 39
567 81
567 246
567 253
567 439
567 484
567 635
567 683
567 701
567 712
567 988
567 996
567 1032
567 1127
567 1303
567 1306
567 1427
568 0
568 1
568 2
568 3
568 9
568 42
568 231
568 287
568 496
568 725
568 1030
568 1160
568 1507
569 0
569 1
569 2
569 5
569 13
569 951
569 1365
569 1588
570 0
570 1
570 2
570 3
570 4
570 5
570 6
570 11
570 606
570 629
570 728
570 731
570 1356
570 1387
570 1417
571 0
571 2
571 3
571 7
571 28
571 33
571 81
571 208
571 468
571 1233
571 1336
572 0
572 1
572 2
572 3
572 5
572 7
572 8
572 9
572 10
572 11
572 12
572 14
572 15
572 17
572 23
572 25
572 29
572 35
572 45
572 83
572 87
572 122
572 133
572 167
572 182
572 224
572 243
572 264
572 287
572 292
572 303
572 315
572 322
572 385
572 402
572 407
572 469
572 481
572 494
572 507
572 530
572 590
572 609
572 620
572 629
572 645
572 667
572 691
572 888
572 996
572 1003
572 1079
572 1115
572 1130
572 1144
572 1231
572 1274
572 1306
572 1356
572 1417
572 1594
572 1607
572 1608
573 0
573 1
573 2
573 3
573 4
573 6
573 12
573 544
573 711
573 1165
574 0
574 1
574 2
574 3
574 4
574 5
574 8
574 9
574 11
574 23
574 64
574 156
574 231
574 343
574 355
574 459
574 490
574 787
574 942
574 956
574 1222
574 1233
574 1244
574 1248
574 1249
574 1280
574 1316
574 1387
574 1574
575 0
575 1
575 2
575 5
575 7
575 14
575 44
575 235
575 487
575 510
575 1297
575 1376
576 0
576 1
576 2
576 3
576 4
576 5
576 10
576 24
576 25
576 37
576 98
576 110
576 529
576 929
576 987
576 1095
576 1164
576 1170
576 1189
576 1250
576 1373
576 1543
577 0
577 1
577 2
577 3
577 6
577 11
577 90
577 136
577 166
577 1491
577 1549
577 1551
577 1553
577 1554
578 0
578 1
578 2
578 3
578 4
578 6
578 10
578 11
578 14
578 42
578 235
578 287
578 946
578 1366
579 0
579 1
579 2
579 3
579 4
579 6
579 10
579 34
579 44
579 46
579 487
579 696
579 946
580 0
580 1
580 2
580 3
580 4
580 13
581 0
581 2
581 10
581 43
581 44
581 133
581 420
581 543
582 0
582 1
582 2
582 3
582 4
582 47
582 87
582 174
582 302
582 354
582 515
582 532
582 546
582 553
582 642
582 786
582 820
582 830
582 883
582 975
582 989
582 1069
582 1108
582 1155
582 1442
582 1504
583 0
583 1
583 2
583 3
583 4
583 5
583 6
583 7
583 8
583 9
583 11
583 22
583 74
583 156
583 182
583 230
583 699
583 779
583 1151
583 1356
583 1471
584 0
584 1
584 2
584 3
584 4
584 5
584 6
584 9
584 10
584 42
584 44
584 66
584 93
584 127
584 214
584 235
584 239
584 261
584 264
584 320
584 359
584 418
584 424
584 459
584 496
584 558
584 947
584 998
584 1387
584 1436
584 1507
584 1512
584 1533
584 1594
584 1598
585 0
585 1
585 2
585 3
585 5
585 113
585 159
585 519
585 1491
585 1518
585 1519
586 0
586 1
586 2
586 3
586 6
586 12
586 171
586 235
586 889
586 1430
586 1441
586 1470
587 0
587 1
587 2
587 4
587 5
587 6
587 9
587 17
587 425
587 465
587 558
587 632
587 1356
588 0
588 1
588 2
588 3
588 4
588 134
588 258
588 496
588 948
589 0
589 2
589 4
589 1416
589 1627
590 0
590 1
590 2
590 3
590 4
590 5
590 10
590 62
590 81
590 119
590 168
590 376
590 420
590 459
590 469
590 532
590 572
590 603
590 784
590 1382
590 1387
590 1413
590 1510
591 0
591 1
591 2
592 0
592 1
592 2
592 3
592 4
592 5
592 6
592 42
592 43
592 44
592 82
592 87
592 137
592 171
592 295
592 519
592 850
592 856
592 1251
592 1376
592 1436
592 1447
592 1449
592 1453
593 0
593 1
593 2
593 362
593 1428
594 0
594 1
594 2
594 4
594 5
594 6
594 9
594 26
594 146
594 308
594 433
594 436
594 477
594 500
594 624
594 762
594 808
594 963
594 1164
594 1240
594 1482
594 1508
594 1603
595 0
595 1
595 2
595 3
595 4
595 6
595 435
595 808
595 903
595 1140
595 1145
595 1170
595 1227
595 1603
596 0
596 2
596 3
596 4
596 5
596 7
596 156
596 224
596 274
596 368
596 384
596 391
596 394
596 461
596 533
596 541
596 653
596 753
596 859
596 984
596 1024
596 1026
596 1056
596 1069
596 1348
596 1389
596 1481
596 1545
596 1596
597 0
597 1
597 2
597 81
597 92
597 244
597 296
597 361
597 447
597 496
597 1055
597 1598
598 0
598 2
598 459
598 598
598 1509
598 1510
598 1511
599 0
599 1
599 2
600 0
600 1
600 2
600 6
600 7
600 9
600 16
600 18
600 32
600 96
600 165
600 186
600 283
600 435
600 460
600 468
600 792
600 922
600 957
600 1051
600 1056
600 1169
600 1473
601 1
601 2
601 4
601 5
601 6
601 8
601 11
601 17
601 117
601 401
601 406
601 474
601 542
601 1130
601 1356
602 0
602 2
602 4
602 5
602 6
602 9
602 10
602 11
602 17
602 27
602 35
602 74
602 81
602 212
602 230
602 838
602 1089
602 1294
602 1356
602 1536
603 1
603 2
603 4
603 49
603 65
603 83
603 92
603 121
603 134
603 160
603 203
603 258
603 292
603 378
603 381
603 422
603 489
603 514
603 519
603 551
603 590
603 609
603 641
603 657
603 862
603 1092
603 1204
603 1225
603 1390
604 1
604 2
604 3
604 4
604 6
604 7
604 9
604 14
604 39
604 118
604 183
604 197
604 246
604 316
604 439
604 469
604 623
604 625
604 683
604 701
604 730
604 797
604 817
604 943
604 1188
604 1306
605 0
605 1
605 2
605 3
605 5
605 6
605 7
605 8
605 10
605 21
605 25
605 27
605 35
605 37
605 41
605 43
605 44
605 214
605 296
605 377
605 473
605 493
605 1168
605 1243
605 1303
605 1387
605 1473
605 1481
605 1512
606 0
606 1
606 2
606 3
606 4
606 5
606 6
606 7
606 8
606 10
606 14
606 15
606 20
606 21
606 24
606 25
606 32
606 41
606 56
606 86
606 141
606 175
606 176
606 213
606 220
606 240
606 245
606 293
606 325
606 326
606 486
606 566
606 570
606 626
606 671
606 727
606 737
606 738
606 784
606 795
606 800
606 801
606 802
606 807
606 808
606 809
606 901
606 921
606 943
606 963
606 990
606 999
606 1004
606 1047
606 1051
606 1058
606 1060
606 1101
606 1113
606 1170
606 1182
606 1183
606 1190
606 1220
606 1232
606 1273
606 1275
606 1364
606 1415
606 1425
606 1484
606 1490
607 2
607 3
607 6
607 9
607 92
607 283
607 315
607 403
607 507
607 552
607 659
607 667
607 809
607 914
607 963
607 979
607 1046
607 1255
607 1279
607 1491
608 0
608 1
608 2
608 43
608 59
608 551
608 1404
608 1574
608 1583
609 0
609 1
609 2
609 3
609 5
609 6
609 10
609 43
609 67
609 97
609 258
609 264
609 329
609 461
609 572
609 603
609 621
609 808
609 1012
609 1170
609 1354
609 1383
609 1387
609 1416
610 0
610 1
610 2
610 3
610 4
610 43
610 92
610 1399
610 1402
610 1427
610 1517
611 0
611 1
611 2
611 4
611 6
611 10
611 14
611 44
611 235
611 399
611 694
611 920
611 1353
611 1387
611 1436
611 1485
612 0
612 1
612 2
612 1401
612 1402
612 1583
613 0
613 1
613 2
613 5
613 199
613 906
613 1093
614 0
614 1
614 2
614 6
614 42
614 43
614 44
614 235
614 1589
615 0
615 1
615 2
616 0
616 1
616 2
616 3
616 165
616 258
616 308
616 309
616 1370
616 1574
617 0
617 1
617 2
617 3
617 4
617 314
618 0
618 1
618 2
618 3
618 4
618 5
618 314
618 947
619 0
619 1
619 2
619 3
619 4
619 209
620 0
620 1
620 2
620 3
620 5
620 6
620 22
620 314
620 373
620 437
620 486
620 572
620 675
620 841
620 859
620 1512
621 0
621 1
621 2
621 3
621 4
621 5
621 6
621 10
621 65
621 92
621 201
621 387
621 402
621 609
621 735
621 943
621 1321
622 0
622 1
622 2
622 3
622 943
622 948
623 0
623 1
623 2
623 5
623 6
623 8
623 39
623 197
623 246
623 378
623 439
623 455
623 525
623 604
623 625
623 712
623 964
623 990
623 1132
623 1260
623 1291
623 1301
624 0
624 1
624 2
624 3
624 4
624 5
624 7
624 9
624 19
624 156
624 400
624 486
624 594
624 704
624 822
624 882
624 995
624 1096
624 1128
624 1140
624 1426
624 1487
625 0
625 1
625 2
625 3
625 5
625 6
625 7
625 8
625 9
625 14
625 21
625 31
625 39
625 183
625 197
625 246
625 376
625 439
625 604
625 623
625 712
625 995
625 1006
625 1132
625 1188
625 1214
625 1306
626 0
626 1
626 2
626 3
626 4
626 5
626 6
626 15
626 110
626 245
626 606
626 666
626 953
626 963
626 1291
626 1430
627 0
627 1
627 2
627 3
627 4
627 5
627 6
627 7
627 8
627 9
627 10
627 13
627 22
627 33
627 42
627 43
627 45
627 62
627 71
627 81
627 88
627 98
627 134
627 162
627 205
627 208
627 209
627 231
627 237
627 247
627 375
627 404
627 471
627 490
627 496
627 532
627 538
627 548
627 654
627 673
627 767
627 789
627 947
627 1026
627 1061
627 1126
627 1134
627 1145
627 1155
627 1172
627 1237
627 1390
627 1420
627 1427
627 1492
627 1513
627 1514
627 1530
627 1607
627 1617
628 1
628 2
628 3
628 258
628 281
628 731
628 1420
628 1491
629 0
629 1
629 2
629 3
629 4
629 5
629 6
629 7
629 17
629 20
629 34
629 42
629 44
629 66
629 81
629 201
629 296
629 301
629 308
629 366
629 377
629 410
629 570
629 572
629 645
629 750
629 830
629 888
629 943
629 992
629 1180
629 1375
629 1382
629 1429
629 1491
629 1515
629 1516
629 1562
630 0
630 1
630 2
630 81
630 657
630 1516
631 0
631 1
631 2
631 3
631 4
631 5
631 7
631 30
631 42
631 165
631 475
631 703
631 868
631 1387
631 1581
631 1602
632 0
632 1
632 2
632 3
632 300
632 465
632 558
632 587
632 812
632 1386
633 0
633 1
633 2
634 0
634 1
634 2
634 4
634 9
634 16
634 20
634 197
634 711
634 800
634 1019
634 1127
634 1145
634 1165
634 1473
634 1508
635 0
635 1
635 2
635 3
635 5
635 7
635 10
635 309
635 314
635 484
635 567
635 669
635 882
635 954
635 974
635 1140
636 0
636 1
636 2
636 3
636 5
636 6
636 12
636 18
636 20
636 26
636 34
636 35
636 37
636 42
636 44
636 81
636 156
636 186
636 191
636 203
636 249
636 283
636 317
636 400
636 460
636 473
636 496
636 559
636 668
636 680
636 720
636 725
636 792
636 805
636 941
636 946
636 947
636 959
636 964
636 1049
636 1056
636 1076
636 1079
636 1175
636 1353
636 1392
636 1511
636 1544
636 1578
637 0
637 1
637 2
637 4
637 5
637 7
637 11
637 12
637 18
637 29
637 31
637 72
637 73
637 187
637 270
637 305
637 335
637 354
637 373
637 551
637 661
637 712
637 815
637 868
637 906
637 976
637 990
637 1001
637 1214
638 0
638 1
638 2
638 43
638 1506
639 0
639 1
639 2
639 81
639 819
639 864
639 1396
639 1575
640 0
640 1
640 2
640 3
640 5
640 7
640 8
640 14
640 258
640 887
640 946
640 1365
640 1366
641 0
641 1
641 2
641 3
641 4
641 5
641 6
641 8
641 10
641 13
641 14
641 44
641 87
641 603
641 665
641 682
641 1365
641 1366
642 0
642 1
642 2
642 3
642 4
642 43
642 263
642 293
642 582
642 696
642 1059
642 1404
642 1414
642 1517
643 0
643 1
643 2
643 3
643 4
643 5
643 6
643 21
643 512
643 668
643 734
644 0
644 1
644 2
644 7
644 81
644 117
644 962
644 1481
645 0
645 1
645 2
645 3
645 4
645 8
645 81
645 214
645 416
645 572
645 629
645 692
645 697
645 714
645 724
645 876
645 1356
645 1427
646 0
646 1
646 2
646 3
646 6
646 678
646 1359
646 1409
647 0
647 1
647 2
647 3
647 5
647 69
647 235
647 652
647 1572
647 1578
648 0
648 1
648 2
648 3
648 4
648 75
648 679
648 699
648 759
648 854
648 1444
648 1526
648 1603
649 0
649 1
649 2
649 3
649 4
649 6
649 487
650 0
650 1
650 2
651 0
651 1
651 2
651 3
651 5
651 6
651 7
651 9
651 22
651 41
651 538
651 1087
652 1
652 2
652 3
652 4
652 18
652 36
652 37
652 82
652 116
652 120
652 125
652 193
652 244
652 292
652 317
652 400
652 449
652 500
652 551
652 559
652 647
652 680
652 684
652 766
652 865
652 957
652 995
652 1056
652 1109
652 1141
652 1156
652 1164
652 1204
652 1256
652 1387
652 1389
652 1525
652 1527
652 1607
653 0
653 1
653 2
653 4
653 5
653 87
653 596
653 777
653 1024
653 1155
653 1491
653 1545
654 0
654 1
654 2
654 3
654 13
654 92
654 93
654 168
654 408
654 510
654 627
654 833
654 1279
654 1441
654 1469
654 1494
654 1525
654 1608
655 0
655 1
655 2
655 3
655 4
655 30
655 42
655 135
655 244
655 1569
656 0
656 1
656 2
656 3
656 5
657 0
657 1
657 2
657 3
657 5
657 6
657 7
657 8
657 10
657 34
657 44
657 64
657 81
657 292
657 308
657 603
657 630
657 1352
657 1516
658 0
658 1
658 2
658 252
658 819
658 1339
658 1387
658 1403
658 1417
658 1587
659 0
659 1
659 2
659 3
659 4
659 6
659 8
659 277
659 559
659 607
659 744
659 762
659 793
659 911
659 1271
659 1491
659 1518
659 1566
660 1
660 2
660 535
660 1612
660 1613
661 0
661 1
661 2
661 3
661 4
661 81
661 136
661 187
661 216
661 270
661 305
661 335
661 418
661 637
661 815
661 868
661 906
661 1001
661 1224
661 1553
662 0
662 1
662 2
662 3
662 4
662 10
662 13
662 14
662 30
662 44
663 0
663 1
663 2
663 3
663 5
663 22
663 538
663 666
663 1027
663 1130
663 1515
664 0
664 1
664 2
664 331
664 371
664 388
664 410
664 418
664 703
664 1453
664 1525
664 1607
665 0
665 1
665 2
665 3
665 6
665 13
665 87
665 211
665 231
665 244
665 641
665 1365
665 1366
666 0
666 1
666 2
666 4
666 5
666 6
666 7
666 9
666 16
666 20
666 35
666 124
666 245
666 342
666 436
666 500
666 626
666 663
666 712
666 800
666 802
666 882
666 1113
666 1152
666 1508
667 0
667 1
667 2
667 7
667 35
667 156
667 191
667 315
667 473
667 572
667 607
667 804
667 995
667 1051
667 1244
668 0
668 1
668 2
668 3
668 4
668 5
668 7
668 27
668 35
668 41
668 122
668 156
668 210
668 315
668 391
668 473
668 636
668 643
668 687
668 804
668 805
668 859
668 1046
668 1158
668 1525
669 0
669 1
669 2
669 3
669 4
669 6
669 9
669 20
669 29
669 118
669 188
669 197
669 205
669 314
669 436
669 635
669 712
669 1214
669 1227
669 1253
669 1279
669 1520
670 0
670 1
670 2
670 3
670 4
670 6
670 15
670 27
670 35
670 191
670 299
670 468
670 555
670 730
670 805
670 941
670 985
670 1114
670 1512
671 0
671 1
671 2
671 3
671 4
671 6
671 8
671 24
671 37
671 118
671 141
671 145
671 606
671 715
671 784
671 1057
672 0
672 1
672 2
672 3
672 42
672 170
672 327
672 496
672 1352
672 1387
672 1413
672 1456
672 1575
673 0
673 1
673 2
673 5
673 336
673 627
674 0
674 1
674 2
674 3
674 4
674 5
674 6
674 8
674 11
674 29
674 31
674 32
674 183
674 486
674 941
674 984
674 1183
675 0
675 1
675 2
675 9
675 620
675 732
675 1566
676 0
676 1
676 2
677 0
677 1
677 2
678 0
678 1
678 2
678 3
678 4
678 34
678 86
678 320
678 646
678 744
678 877
678 1069
678 1359
678 1603
678 1607
679 0
679 1
679 2
679 3
679 5
679 9
679 11
679 81
679 159
679 292
679 298
679 324
679 498
679 501
679 648
679 747
679 837
679 894
679 984
679 995
679 1442
679 1451
679 1503
679 1560
679 1598
680 0
680 1
680 2
680 3
680 5
680 6
680 42
680 82
680 92
680 127
680 153
680 177
680 281
680 317
680 322
680 391
680 548
680 559
680 636
680 652
680 684
680 696
680 725
680 766
680 785
680 856
680 947
680 987
680 1025
680 1029
680 1320
680 1427
680 1514
681 0
681 1
681 2
681 1600
682 0
682 1
682 2
682 3
682 4
682 57
682 88
682 168
682 244
682 510
682 641
682 697
682 967
682 1131
682 1349
682 1387
682 1430
682 1469
682 1611
683 0
683 1
683 2
683 4
683 5
683 6
683 7
683 14
683 16
683 118
683 328
683 439
683 484
683 567
683 604
683 797
683 996
683 1037
683 1050
683 1126
683 1226
683 1301
683 1303
684 0
684 1
684 2
684 6
684 9
684 30
684 42
684 153
684 177
684 317
684 322
684 496
684 559
684 652
684 680
684 725
684 750
684 947
684 1029
684 1234
684 1495
684 1560
685 0
685 1
685 2
685 5
685 296
686 0
686 1
686 2
686 3
686 4
686 5
686 6
686 21
686 197
686 357
686 698
686 707
686 928
686 1079
687 0
687 1
687 2
687 3
687 5
687 6
687 8
687 41
687 117
687 323
687 668
687 699
687 1046
688 0
688 1
688 2
688 3
688 14
688 946
689 0
689 1
689 2
689 3
689 4
689 5
689 10
689 21
689 32
689 165
689 520
689 723
689 1079
689 1086
689 1220
689 1295
690 0
690 1
690 2
691 0
691 1
691 2
691 4
691 5
691 35
691 156
691 572
691 797
691 804
691 943
692 0
692 1
692 2
692 4
692 10
692 434
692 551
692 645
692 696
692 848
692 1503
693 1
693 2
693 3
693 6
693 9
693 11
694 1
694 2
694 3
694 9
694 36
694 62
694 65
694 244
694 261
694 399
694 413
694 447
694 532
694 540
694 611
694 773
694 774
694 1030
694 1055
694 1352
694 1387
694 1423
694 1575
694 1598
695 0
695 1
695 2
695 5
695 8
695 10
695 127
695 778
695 1434
695 1440
695 1532
696 2
696 3
696 8
696 82
696 86
696 87
696 92
696 231
696 265
696 287
696 293
696 412
696 522
696 532
696 540
696 546
696 553
696 579
696 642
696 680
696 692
696 746
696 872
696 989
696 1058
696 1156
696 1174
696 1213
696 1373
696 1389
696 1427
696 1443
696 1544
697 0
697 1
697 2
697 36
697 81
697 92
697 155
697 193
697 194
697 223
697 231
697 285
697 362
697 390
697 420
697 441
697 476
697 645
697 682
697 842
697 920
697 989
697 1142
697 1156
697 1160
697 1192
697 1219
697 1387
697 1389
697 1418
697 1426
697 1585
698 0
698 1
698 2
698 3
698 7
698 316
698 334
698 337
698 686
698 713
698 886
698 1098
698 1293
698 1622
699 0
699 1
699 2
699 4
699 6
699 7
699 48
699 96
699 174
699 182
699 302
699 379
699 383
699 461
699 474
699 521
699 548
699 583
699 648
699 687
699 704
699 972
699 1151
699 1421
699 1442
699 1443
699 1499
699 1526
700 0
700 1
700 2
700 3
700 4
700 235
700 417
701 0
701 1
701 2
701 3
701 4
701 5
701 7
701 22
701 39
701 118
701 157
701 484
701 567
701 604
701 712
701 797
701 841
701 943
701 1303
702 0
702 1
702 2
702 3
702 5
702 7
702 8
702 23
702 28
702 33
702 64
702 82
702 159
702 208
702 281
702 395
702 566
702 732
702 755
702 872
702 1215
702 1249
702 1435
702 1469
702 1519
702 1566
702 1611
703 0
703 1
703 2
703 3
703 4
703 99
703 275
703 343
703 355
703 391
703 536
703 542
703 631
703 664
703 833
703 858
703 868
703 940
703 948
703 1000
703 1118
703 1223
703 1574
704 0
704 1
704 2
704 3
704 4
704 5
704 7
704 8
704 41
704 44
704 60
704 183
704 337
704 624
704 699
704 928
704 946
704 1366
704 1520
705 0
705 1
705 2
705 4
705 5
705 6
705 10
705 32
705 64
705 334
705 386
705 437
705 520
705 734
705 1079
705 1295
705 1451
706 0
706 1
706 2
706 1387
706 1492
707 0
707 1
707 2
707 4
707 5
707 7
707 10
707 20
707 21
707 32
707 512
707 686
707 708
708 0
708 1
708 2
708 4
708 42
708 134
708 496
708 707
708 1540
709 0
709 1
709 2
709 287
709 320
709 787
709 1396
710 0
710 1
710 2
710 3
710 864
710 1420
711 2
711 4
711 5
711 6
711 7
711 8
711 9
711 18
711 37
711 53
711 92
711 104
711 107
711 333
711 449
711 452
711 573
711 634
711 715
711 743
711 937
711 953
711 955
711 957
711 1112
711 1165
711 1180
711 1243
711 1277
711 1278
711 1308
711 1473
712 0
712 1
712 2
712 3
712 4
712 5
712 6
712 7
712 8
712 14
712 35
712 39
712 107
712 157
712 169
712 197
712 210
712 246
712 258
712 405
712 455
712 525
712 567
712 623
712 625
712 637
712 666
712 669
712 701
712 730
712 937
712 957
712 1126
712 1132
712 1201
712 1214
712 1226
713 1
713 2
713 4
713 5
713 7
713 20
713 29
713 31
713 35
713 39
713 176
713 334
713 376
713 485
713 520
713 698
713 734
713 814
713 841
713 1178
714 0
714 1
714 2
714 3
714 4
714 5
714 10
714 46
714 98
714 529
714 645
714 916
714 929
714 1070
714 1074
714 1166
714 1387
714 1413
715 1
715 2
715 3
715 4
715 6
715 7
715 9
715 14
715 15
715 18
715 20
715 37
715 351
715 671
715 711
715 720
715 1075
715 1076
715 1145
715 1180
715 1473
716 0
716 2
716 3
716 4
716 7
716 11
716 166
716 187
716 216
716 255
716 279
716 331
716 335
716 475
716 815
716 995
716 998
716 1001
716 1020
716 1224
716 1553
717 0
717 1
717 2
717 3
717 4
717 10
717 43
717 209
717 375
717 430
717 1038
718 0
718 1
718 2
718 258
718 1399
719 0
719 1
719 2
719 1404
720 2
720 3
720 4
720 5
720 6
720 7
720 9
720 14
720 15
720 20
720 25
720 29
720 31
720 32
720 53
720 65
720 86
720 354
720 359
720 387
720 477
720 485
720 636
720 715
720 1076
720 1285
720 1450
720 1578
721 0
721 2
722 0
722 1
722 2
722 3
722 5
722 165
722 410
722 414
723 0
723 2
723 3
723 4
723 5
723 6
723 39
723 512
723 689
723 841
723 1079
723 1083
723 1084
723 1121
723 1157
723 1178
723 1220
723 1232
723 1295
723 1405
723 1425
723 1496
724 0
724 1
724 2
724 137
724 645
725 0
725 1
725 2
725 6
725 36
725 42
725 87
725 94
725 108
725 153
725 301
725 317
725 568
725 636
725 680
725 684
725 865
725 987
725 1577
726 0
726 1
726 2
726 3
726 5
726 6
726 10
726 32
726 64
726 158
726 1121
726 1307
727 1
727 2
727 3
727 4
727 6
727 7
727 8
727 9
727 11
727 54
727 175
727 181
727 213
727 395
727 438
727 476
727 483
727 606
727 728
727 731
727 733
727 793
727 930
727 942
727 1270
727 1349
727 1387
728 2
728 8
728 56
728 86
728 175
728 181
728 213
728 250
728 321
728 358
728 483
728 503
728 519
728 566
728 570
728 727
728 738
728 755
728 762
728 781
728 916
728 930
728 1101
728 1104
728 1484
729 0
729 1
729 2
729 3
729 4
729 5
729 6
729 7
729 9
729 15
729 17
729 18
729 24
729 25
729 37
729 40
729 240
729 449
729 1139
729 1169
730 0
730 1
730 2
730 3
730 4
730 6
730 14
730 205
730 319
730 433
730 443
730 484
730 604
730 670
730 712
730 976
730 985
730 995
730 1032
731 2
731 3
731 8
731 56
731 86
731 175
731 181
731 203
731 213
731 321
731 483
731 503
731 519
731 566
731 570
731 628
731 727
731 733
731 738
731 755
731 762
731 781
731 916
731 921
731 930
731 1101
731 1104
731 1482
731 1484
732 0
732 1
732 2
732 3
732 4
732 28
732 33
732 142
732 203
732 208
732 284
732 298
732 472
732 675
732 702
732 733
732 782
732 816
732 986
732 1028
732 1221
732 1245
732 1249
732 1312
732 1317
732 1318
732 1321
732 1325
732 1327
732 1329
732 1330
732 1331
732 1335
732 1336
732 1363
733 0
733 1
733 2
733 3
733 4
733 5
733 7
733 9
733 11
733 33
733 175
733 213
733 438
733 476
733 483
733 507
733 727
733 731
733 732
733 1187
733 1566
734 0
734 1
734 2
734 3
734 5
734 6
734 10
734 81
734 191
734 196
734 511
734 520
734 643
734 705
734 713
734 1147
734 1220
734 1295
734 1307
734 1425
735 0
735 1
735 2
735 3
735 4
735 8
735 422
735 621
736 0
736 1
736 2
736 4
736 8
736 89
736 296
736 521
736 531
736 1580
737 0
737 1
737 2
737 606
737 762
737 1387
738 0
738 1
738 2
738 3
738 4
738 606
738 728
738 731
739 1
739 2
739 5
739 7
739 8
739 17
739 20
739 22
739 41
739 198
739 248
739 251
739 406
739 530
739 538
739 1007
739 1171
739 1259
739 1272
739 1317
739 1417
739 1512
740 0
740 1
740 2
740 1505
741 0
741 1
741 2
741 81
741 815
742 1
742 2
742 3
742 4
742 9
742 19
742 98
742 988
742 1061
742 1128
742 1140
743 0
743 1
743 2
743 4
743 5
743 7
743 9
743 10
743 14
743 16
743 26
743 435
743 711
743 770
743 1079
743 1185
744 2
744 222
744 659
744 678
744 1491
745 0
745 2
745 3
745 43
745 1355
746 0
746 1
746 3
746 9
746 12
746 696
746 922
746 1381
747 0
747 1
747 2
747 3
747 4
747 5
747 381
747 399
747 431
747 476
747 530
747 546
747 679
747 751
747 837
747 930
747 942
747 946
747 995
747 1108
747 1283
747 1397
747 1469
747 1503
747 1558
748 0
748 1
748 2
748 3
748 773
748 1381
749 0
749 1
749 2
749 3
749 6
749 8
749 87
749 774
749 922
749 1381
749 1441
750 0
750 1
750 2
750 3
750 6
750 42
750 629
750 684
750 820
750 1030
750 1397
750 1491
751 0
751 1
751 2
751 3
751 4
751 9
751 49
751 209
751 264
751 747
751 780
751 1449
752 0
752 2
752 3
752 1558
753 0
753 1
753 2
753 3
753 6
753 89
753 92
753 93
753 134
753 258
753 330
753 400
753 416
753 596
753 820
753 1137
753 1155
753 1348
753 1383
753 1387
753 1426
753 1427
753 1575
754 0
754 1
754 2
754 3
754 4
754 273
754 410
754 463
755 0
755 1
755 2
755 3
755 4
755 5
755 9
755 16
755 35
755 92
755 159
755 164
755 271
755 298
755 387
755 454
755 459
755 460
755 473
755 559
755 702
755 728
755 731
755 762
755 805
755 859
755 916
755 943
755 964
755 1030
755 1271
755 1435
755 1519
755 1525
755 1560
756 0
756 2
756 3
756 4
756 47
756 125
756 159
756 288
756 785
756 1435
756 1519
756 1522
757 0
757 1
757 2
757 3
757 4
757 5
757 6
757 1522
758 0
758 1
758 2
758 3
758 4
758 395
758 763
758 887
758 1055
758 1522
759 0
759 1
759 2
759 3
759 648
759 1603
760 0
760 1
760 3
760 1349
761 0
761 1
761 2
761 3
761 215
761 292
761 312
761 838
761 866
761 1360
761 1471
761 1534
761 1535
761 1536
761 1620
762 0
762 1
762 2
762 3
762 4
762 8
762 9
762 25
762 37
762 81
762 92
762 250
762 293
762 321
762 391
762 400
762 509
762 523
762 529
762 559
762 594
762 659
762 728
762 731
762 737
762 755
762 878
762 927
762 940
762 1002
762 1218
762 1521
763 0
763 1
763 2
763 3
763 6
763 758
763 839
763 868
763 944
763 1166
763 1522
763 1525
763 1558
764 0
764 1
764 2
764 3
764 6
764 420
764 1359
764 1392
765 0
765 1
765 2
765 3
765 6
765 9
765 42
765 173
765 258
765 430
765 881
765 1030
765 1110
765 1367
765 1523
765 1524
766 0
766 1
766 3
766 4
766 5
766 6
766 7
766 8
766 9
766 34
766 42
766 44
766 133
766 153
766 244
766 301
766 368
766 453
766 496
766 652
766 680
766 865
766 947
766 951
766 1251
766 1387
766 1417
767 0
767 1
767 2
767 3
767 4
767 5
767 9
767 10
767 11
767 12
767 40
767 43
767 46
767 190
767 225
767 258
767 281
767 287
767 314
767 338
767 368
767 403
767 529
767 532
767 627
767 795
767 834
767 907
767 1270
767 1355
767 1358
767 1396
767 1400
767 1414
767 1427
767 1477
767 1525
767 1543
767 1560
767 1577
767 1578
767 1600
768 0
768 1
768 3
768 320
768 1359
768 1384
768 1439
769 0
769 1
769 2
769 3
769 5
770 0
770 3
770 391
770 559
770 743
770 770
770 776
770 827
770 889
770 911
770 914
770 918
770 934
770 943
770 1211
770 1529
770 1540
771 0
771 2
771 3
771 6
771 62
771 868
771 1522
772 0
772 1
772 2
772 3
772 4
772 5
772 6
772 10
772 44
772 89
772 946
773 0
773 1
773 2
773 3
773 4
773 5
773 9
773 98
773 218
773 530
773 566
773 694
773 748
773 922
773 1374
773 1397
774 0
774 1
774 2
774 3
774 4
774 5
774 6
774 7
774 43
774 189
774 209
774 694
774 749
774 811
774 941
774 1519
774 1594
775 0
775 1
775 2
775 3
775 4
775 5
775 880
775 1525
776 6
776 120
776 374
776 770
776 794
776 806
776 911
776 914
776 918
776 927
776 1146
776 1529
776 1538
777 0
777 1
777 2
777 3
777 4
777 5
777 6
777 9
777 42
777 43
777 170
777 222
777 496
777 551
777 653
777 832
777 856
777 947
777 1155
777 1426
777 1431
777 1446
778 0
778 1
778 2
778 3
778 5
778 6
778 10
778 32
778 127
778 264
778 330
778 334
778 407
778 437
778 695
778 803
778 831
778 1083
778 1434
778 1440
779 0
779 1
779 2
779 3
779 4
779 5
779 10
779 34
779 35
779 156
779 315
779 322
779 583
779 948
779 1404
779 1440
779 1582
780 0
780 1
780 3
780 4
780 8
780 9
780 11
780 83
780 167
780 280
780 751
780 788
780 898
780 923
780 935
780 1066
780 1264
780 1265
780 1266
780 1440
780 1497
780 1532
781 0
781 1
781 2
781 3
781 4
781 10
781 15
781 17
781 27
781 117
781 156
781 182
781 230
781 292
781 474
781 728
781 731
781 989
781 1478
782 0
782 2
782 3
782 28
782 33
782 92
782 208
782 732
782 1028
782 1249
782 1570
783 0
783 1
783 2
783 3
784 0
784 1
784 2
784 3
784 7
784 8
784 10
784 15
784 40
784 220
784 244
784 281
784 288
784 517
784 590
784 606
784 671
784 807
784 854
784 855
784 894
784 903
784 1435
785 0
785 1
785 2
785 3
785 4
785 7
785 8
785 9
785 42
785 89
785 135
785 153
785 159
785 193
785 496
785 680
785 756
785 947
785 1099
785 1435
785 1519
785 1523
786 0
786 2
786 3
786 6
786 7
786 174
786 582
786 855
786 1446
786 1560
787 0
787 1
787 2
787 3
787 30
787 33
787 93
787 159
787 574
787 709
787 1570
788 0
788 1
788 2
788 3
788 4
788 8
788 203
788 409
788 423
788 525
788 780
788 889
788 975
788 1530
788 1531
788 1532
788 1608
789 0
789 1
789 2
789 3
789 8
789 44
789 81
789 215
789 261
789 312
789 627
789 872
789 946
789 1397
789 1511
789 1533
790 0
790 3
791 0
791 1
791 2
791 3
791 6
791 11
791 13
792 0
792 2
792 3
792 4
792 5
792 7
792 8
792 9
792 11
792 16
792 18
792 25
792 32
792 35
792 195
792 221
792 373
792 449
792 457
792 460
792 600
792 636
792 959
792 961
792 964
792 1051
792 1056
792 1079
792 1128
792 1139
792 1141
792 1169
792 1220
792 1303
792 1473
792 1562
793 1
793 2
793 3
793 4
793 8
793 66
793 74
793 92
793 133
793 181
793 206
793 250
793 265
793 296
793 321
793 350
793 431
793 472
793 476
793 539
793 659
793 727
793 930
793 957
793 967
793 1238
793 1271
793 1326
794 3
794 4
794 5
794 6
794 8
794 9
794 55
794 96
794 97
794 308
794 329
794 435
794 524
794 529
794 559
794 776
794 806
794 889
794 911
794 914
794 927
794 1208
794 1211
794 1212
794 1218
795 0
795 1
795 2
795 3
795 4
795 5
795 6
795 20
795 42
795 81
795 82
795 86
795 92
795 93
795 175
795 286
795 293
795 368
795 413
795 424
795 496
795 501
795 552
795 606
795 767
795 867
795 872
795 883
795 947
795 990
795 1039
795 1096
795 1112
795 1243
795 1255
795 1282
795 1355
795 1416
795 1417
795 1477
795 1577
795 1621
796 0
796 1
796 2
796 3
796 4
796 5
796 12
796 15
796 16
796 26
796 29
796 31
796 32
796 35
796 405
796 957
796 961
796 990
796 995
796 1141
796 1304
796 1356
796 1473
797 0
797 1
797 2
797 3
797 4
797 6
797 7
797 9
797 12
797 14
797 15
797 18
797 19
797 20
797 24
797 25
797 29
797 37
797 53
797 92
797 104
797 118
797 186
797 288
797 435
797 469
797 488
797 604
797 683
797 691
797 701
797 943
797 963
797 1037
797 1076
797 1127
797 1128
797 1130
797 1145
797 1253
797 1284
798 0
798 1
798 2
798 3
798 4
798 5
798 12
798 459
799 0
799 1
799 3
799 4
799 5
799 71
799 93
799 995
799 998
799 1383
799 1531
800 0
800 3
800 4
800 5
800 6
800 9
800 20
800 26
800 64
800 107
800 205
800 606
800 634
800 666
800 1004
800 1008
800 1180
800 1206
800 1300
800 1311
801 0
801 1
801 2
801 3
801 4
801 6
801 9
801 14
801 15
801 20
801 26
801 31
801 66
801 205
801 240
801 245
801 328
801 333
801 368
801 377
801 426
801 484
801 566
801 606
801 937
801 957
801 1037
801 1113
801 1126
801 1417
802 0
802 3
802 4
802 5
802 6
802 20
802 26
802 29
802 31
802 145
802 205
802 240
802 333
802 500
802 606
802 666
802 976
802 1004
802 1006
802 1008
802 1031
802 1076
802 1113
802 1182
802 1190
802 1282
803 0
803 1
803 2
803 3
803 4
803 5
803 6
803 8
803 9
803 10
803 21
803 31
803 32
803 330
803 778
803 831
803 957
803 1082
803 1084
803 1540
804 1
804 3
804 4
804 35
804 191
804 215
804 530
804 667
804 668
804 691
804 805
804 943
804 1255
805 0
805 1
805 2
805 3
805 7
805 9
805 14
805 19
805 31
805 35
805 81
805 98
805 156
805 191
805 258
805 281
805 283
805 315
805 368
805 460
805 473
805 559
805 636
805 668
805 670
805 755
805 804
805 941
805 943
805 1046
805 1056
805 1128
805 1136
805 1140
805 1217
806 0
806 1
806 3
806 4
806 5
806 8
806 9
806 559
806 776
806 794
806 911
806 918
806 927
806 1163
806 1168
807 0
807 1
807 2
807 3
807 4
807 5
807 7
807 8
807 10
807 11
807 14
807 15
807 17
807 19
807 20
807 24
807 37
807 141
807 325
807 606
807 784
807 808
807 818
807 912
807 943
807 1057
807 1061
807 1127
807 1140
807 1181
807 1273
807 1299
808 0
808 1
808 3
808 4
808 6
808 7
808 25
808 26
808 40
808 62
808 65
808 205
808 221
808 290
808 442
808 448
808 594
808 595
808 606
808 609
808 807
808 809
808 903
808 963
808 1164
808 1169
808 1170
808 1300
808 1603
809 0
809 1
809 3
809 5
809 6
809 9
809 10
809 17
809 29
809 31
809 81
809 460
809 606
809 607
809 808
809 903
809 964
809 990
809 1127
809 1164
809 1170
809 1290
809 1300
810 0
810 1
810 3
810 4
810 19
810 26
810 530
810 1128
810 1450
811 0
811 1
811 2
811 3
811 4
811 6
811 44
811 62
811 81
811 281
811 446
811 774
811 963
811 965
811 989
812 0
812 1
812 2
812 3
812 5
812 277
812 432
812 558
812 632
812 1453
812 1602
813 0
813 1
813 3
814 0
814 1
814 3
814 5
814 6
814 7
814 72
814 376
814 485
814 713
814 841
814 990
814 999
814 1019
814 1231
814 1520
815 0
815 1
815 2
815 3
815 4
815 5
815 7
815 11
815 73
815 187
815 199
815 216
815 475
815 637
815 661
815 716
815 741
815 906
815 995
815 1001
815 1224
815 1553
816 0
816 1
816 2
816 3
816 4
816 28
816 33
816 208
816 231
816 732
816 1222
816 1233
816 1248
816 1325
816 1327
817 0
817 1
817 2
817 3
817 4
817 5
817 6
817 8
817 9
817 14
817 31
817 39
817 246
817 439
817 469
817 494
817 604
817 1006
817 1226
817 1306
817 1405
817 1520
818 0
818 1
818 2
818 3
818 4
818 6
818 7
818 8
818 10
818 26
818 807
818 903
818 1095
819 0
819 1
819 2
819 3
819 207
819 639
819 658
819 1193
819 1339
819 1403
820 0
820 1
820 2
820 3
820 4
820 6
820 134
820 222
820 239
820 287
820 582
820 750
820 753
820 1442
820 1550
821 0
821 1
821 2
821 3
821 203
821 441
821 1387
821 1594
822 0
822 1
822 2
822 3
822 4
822 15
822 40
822 81
822 168
822 205
822 292
822 470
822 548
822 624
822 1263
822 1305
822 1416
822 1598
822 1606
823 0
823 1
823 3
823 10
823 203
823 258
823 530
823 1374
824 0
824 2
824 3
825 0
825 1
825 2
825 3
825 4
825 408
826 0
826 1
826 2
826 3
826 4
826 6
826 86
827 0
827 1
827 2
827 3
827 92
827 470
827 770
827 1375
828 0
828 1
828 3
828 4
828 5
828 10
828 11
828 87
828 147
829 0
829 2
829 3
829 6
829 965
829 989
829 1501
829 1505
830 0
830 1
830 2
830 3
830 4
830 6
830 7
830 83
830 128
830 222
830 546
830 582
830 629
830 832
830 1059
830 1348
830 1445
830 1504
831 2
831 3
831 4
831 5
831 10
831 32
831 334
831 437
831 520
831 778
831 803
831 1079
831 1082
831 1083
832 1
832 2
832 3
832 6
832 7
832 222
832 546
832 777
832 830
832 1155
832 1446
832 1504
832 1544
833 0
833 1
833 2
833 3
833 654
833 703
833 1349
833 1525
834 0
834 1
834 2
834 3
834 4
834 532
834 767
835 0
835 1
835 2
835 3
835 331
836 0
836 1
836 3
836 12
836 42
836 1377
837 0
837 1
837 2
837 3
837 11
837 93
837 434
837 515
837 546
837 679
837 747
837 894
837 1460
837 1503
838 0
838 1
838 3
838 41
838 215
838 312
838 387
838 602
838 761
838 866
838 1471
838 1534
838 1535
838 1536
838 1537
839 0
839 1
839 2
839 3
839 4
839 5
839 532
839 763
839 848
839 1166
839 1525
839 1558
840 0
840 1
840 2
840 3
841 0
841 2
841 3
841 4
841 5
841 7
841 10
841 14
841 39
841 176
841 236
841 316
841 484
841 486
841 526
841 566
841 620
841 701
841 713
841 723
841 814
841 936
841 1309
841 1427
842 0
842 1
842 2
842 3
842 4
842 6
842 10
842 13
842 14
842 30
842 42
842 44
842 178
842 235
842 320
842 396
842 697
842 1354
842 1377
842 1407
842 1436
842 1441
843 0
843 1
843 2
843 3
843 4
843 5
843 8
843 254
843 273
843 276
843 463
843 877
843 940
843 1153
843 1598
844 0
844 1
844 2
844 3
844 463
845 0
845 1
845 2
845 3
845 5
845 296
845 1426
845 1453
846 0
846 1
846 2
846 3
846 4
846 5
846 9
846 10
846 30
846 442
846 493
846 912
846 1444
847 0
847 1
847 3
847 93
847 99
847 459
847 1430
848 0
848 1
848 2
848 3
848 4
848 6
848 87
848 109
848 396
848 499
848 521
848 542
848 692
848 839
848 858
848 1022
848 1133
848 1355
848 1429
848 1570
849 0
849 1
849 2
849 3
849 4
850 0
850 1
850 2
850 3
850 4
850 83
850 180
850 592
850 1488
851 0
851 1
851 2
851 3
851 89
851 281
851 1441
852 0
852 1
852 2
852 3
852 4
852 5
852 7
852 21
852 24
852 25
852 32
852 37
852 544
852 1057
852 1165
852 1220
852 1425
852 1473
852 1474
852 1620
853 0
853 1
853 2
853 3
853 5
853 7
853 10
853 146
853 217
853 314
853 355
853 488
853 1019
853 1062
853 1102
854 2
854 3
854 4
854 6
854 7
854 11
854 47
854 174
854 222
854 392
854 532
854 546
854 553
854 648
854 784
854 855
854 894
854 944
854 995
854 1491
854 1504
854 1560
855 2
855 3
855 4
855 7
855 9
855 11
855 174
855 222
855 359
855 784
855 786
855 854
855 894
855 995
855 1103
855 1446
855 1491
855 1504
855 1560
856 0
856 1
856 3
856 4
856 496
856 592
856 680
856 777
857 0
857 1
857 2
857 3
857 5
857 923
857 932
857 1511
857 1531
857 1532
858 0
858 1
858 2
858 3
858 4
858 81
858 173
858 258
858 542
858 703
858 848
858 940
858 1387
858 1430
859 0
859 1
859 2
859 3
859 5
859 6
859 7
859 35
859 41
859 191
859 224
859 249
859 376
859 394
859 473
859 485
859 507
859 596
859 620
859 668
859 755
859 1046
859 1147
859 1231
859 1244
860 0
860 1
860 2
860 3
860 7
860 81
860 159
860 359
860 395
860 416
860 553
860 1287
861 0
861 1
861 2
861 3
861 11
861 995
861 1445
862 0
862 1
862 2
862 3
862 4
862 5
862 10
862 30
862 42
862 43
862 44
862 496
862 603
862 946
862 1256
862 1376
862 1530
863 0
863 1
863 2
863 3
864 0
864 1
864 2
864 3
864 30
864 318
864 399
864 508
864 639
864 710
864 1578
865 0
865 1
865 2
865 3
865 4
865 5
865 8
865 9
865 42
865 368
865 496
865 652
865 725
865 766
865 947
865 1353
866 0
866 2
866 3
866 41
866 64
866 156
866 292
866 312
866 387
866 761
866 838
866 866
866 956
866 1175
866 1471
866 1472
866 1534
866 1535
866 1536
866 1537
867 0
867 1
867 2
867 3
867 6
867 7
867 795
868 0
868 1
868 2
868 3
868 4
868 7
868 48
868 73
868 75
868 81
868 87
868 162
868 199
868 335
868 360
868 418
868 507
868 631
868 637
868 661
868 703
868 763
868 771
868 894
868 906
868 1058
868 1373
868 1387
868 1526
869 0
869 3
869 4
869 9
869 996
870 0
870 1
870 2
870 3
870 44
870 875
870 946
870 1442
870 1523
870 1524
871 0
871 1
871 2
871 3
871 100
872 0
872 1
872 2
872 3
872 4
872 5
872 6
872 7
872 9
872 11
872 14
872 42
872 43
872 64
872 68
872 81
872 94
872 110
872 208
872 244
872 281
872 318
872 330
872 359
872 361
872 416
872 496
872 696
872 702
872 789
872 795
872 947
872 983
872 1005
872 1012
872 1064
872 1387
872 1435
872 1461
872 1519
873 0
873 1
873 2
873 3
873 5
873 94
874 0
874 1
874 3
874 43
874 44
874 98
875 0
875 1
875 2
875 3
875 14
875 87
875 282
875 870
876 0
876 1
876 2
876 3
876 4
876 9
876 645
876 1128
877 0
877 1
877 2
877 3
877 4
877 10
877 67
877 360
877 416
877 551
877 678
877 843
878 0
878 1
878 2
878 3
878 4
878 17
878 387
878 762
878 943
878 1051
878 1150
878 1211
878 1218
878 1387
878 1471
878 1472
878 1473
879 0
879 1
879 3
880 0
880 1
880 3
880 4
880 5
880 430
880 775
880 1383
881 0
881 1
881 2
881 3
881 30
881 420
881 765
881 1523
881 1524
882 0
882 1
882 2
882 3
882 5
882 7
882 9
882 124
882 303
882 421
882 624
882 635
882 666
882 937
882 1023
882 1307
882 1595
883 0
883 2
883 3
883 4
883 5
883 6
883 7
883 8
883 10
883 40
883 44
883 209
883 436
883 501
883 582
883 795
883 946
883 954
883 1021
883 1030
883 1035
883 1041
883 1042
883 1310
883 1533
883 1543
884 0
884 1
884 3
885 0
885 1
885 3
885 6
885 7
885 9
885 10
885 14
885 16
885 245
885 436
885 484
885 955
885 1127
885 1277
885 1301
885 1405
886 0
886 1
886 2
886 3
886 4
886 10
886 334
886 357
886 512
886 698
886 928
886 1098
886 1520
886 1622
887 0
887 1
887 2
887 3
887 4
887 5
887 13
887 640
887 758
887 1365
887 1366
888 0
888 1
888 2
888 3
888 43
888 44
888 322
888 572
888 629
888 1359
888 1384
888 1532
889 0
889 1
889 2
889 3
889 6
889 8
889 9
889 92
889 243
889 343
889 409
889 423
889 548
889 586
889 770
889 788
889 794
889 918
889 935
889 1208
889 1355
889 1387
889 1427
890 0
890 1
890 3
890 1355
891 0
891 1
891 2
891 3
891 5
891 9
891 1353
892 0
892 1
892 2
892 3
892 4
892 5
892 6
892 9
892 42
892 496
892 947
892 1353
893 0
893 1
893 2
893 3
893 6
893 23
893 116
893 326
893 1029
893 1335
893 1563
893 1564
893 1565
894 2
894 3
894 4
894 47
894 81
894 82
894 174
894 231
894 281
894 302
894 359
894 532
894 546
894 679
894 784
894 837
894 854
894 855
894 868
894 995
894 1443
894 1444
894 1484
894 1491
894 1503
894 1525
894 1598
895 0
895 2
895 3
895 4
895 93
895 368
895 1021
895 1041
896 0
896 1
896 2
896 3
896 30
896 1511
897 0
897 1
897 2
897 3
897 89
897 487
897 1387
897 1441
897 1470
898 0
898 1
898 2
898 3
898 4
898 10
898 62
898 88
898 173
898 281
898 308
898 525
898 780
898 965
899 0
899 1
899 2
899 3
899 4
899 6
899 7
899 8
899 1375
899 1586
900 0
900 1
900 2
900 3
900 4
900 6
900 9
900 117
900 1356
901 0
901 1
901 2
901 3
901 5
901 6
901 118
901 606
901 1478
902 0
902 1
902 3
902 6
903 0
903 1
903 2
903 3
903 5
903 6
903 8
903 10
903 14
903 24
903 26
903 141
903 165
903 220
903 240
903 435
903 595
903 784
903 808
903 809
903 818
903 1095
903 1140
903 1145
903 1164
903 1170
903 1227
903 1273
904 0
904 1
904 2
904 3
904 4
904 9
904 1349
905 0
905 1
905 2
905 3
905 6
905 9
905 92
905 161
905 923
905 1532
906 0
906 1
906 2
906 3
906 4
906 5
906 6
906 7
906 11
906 98
906 130
906 275
906 365
906 389
906 613
906 637
906 661
906 815
906 868
906 995
906 1001
906 1553
907 0
907 1
907 2
907 3
907 5
907 6
907 368
907 383
907 559
907 767
908 0
908 1
908 3
908 1453
909 0
909 1
909 2
909 3
909 4
909 5
909 10
909 43
909 87
909 235
909 359
909 529
909 929
909 983
909 1064
909 1144
909 1288
909 1543
910 1
910 2
910 3
910 10
910 43
910 983
911 0
911 2
911 3
911 5
911 6
911 9
911 55
911 66
911 104
911 119
911 203
911 283
911 308
911 460
911 532
911 659
911 770
911 776
911 794
911 806
911 911
911 914
911 918
911 927
911 979
911 1003
911 1146
911 1177
911 1218
911 1538
911 1607
912 0
912 1
912 2
912 3
912 8
912 10
912 62
912 135
912 220
912 240
912 325
912 398
912 807
912 846
912 1390
913 0
913 1
913 3
913 1525
914 0
914 1
914 3
914 4
914 6
914 532
914 607
914 770
914 776
914 794
914 911
914 918
915 0
915 1
915 2
915 3
916 0
916 1
916 2
916 3
916 4
916 5
916 8
916 12
916 529
916 559
916 714
916 728
916 731
916 755
916 1288
916 1482
916 1543
917 0
917 1
917 2
917 3
917 5
917 9
917 43
917 1362
917 1411
917 1449
917 1531
918 0
918 1
918 3
918 5
918 6
918 8
918 96
918 308
918 374
918 391
918 493
918 507
918 529
918 559
918 770
918 776
918 806
918 889
918 911
918 914
918 934
918 1211
918 1521
918 1529
918 1540
919 0
919 1
919 2
919 3
919 4
919 43
919 399
920 0
920 1
920 3
920 4
920 9
920 47
920 92
920 413
920 611
920 697
921 0
921 2
921 3
921 4
921 5
921 9
921 11
921 292
921 503
921 566
921 606
921 731
921 1030
921 1478
921 1482
922 0
922 1
922 2
922 3
922 4
922 9
922 10
922 32
922 112
922 133
922 218
922 530
922 600
922 746
922 749
922 773
922 964
922 1075
922 1076
922 1220
922 1484
923 0
923 1
923 3
923 4
923 8
923 9
923 11
923 49
923 78
923 82
923 121
923 167
923 301
923 489
923 780
923 857
923 905
923 975
923 1174
923 1264
923 1367
923 1530
923 1531
923 1532
924 0
924 1
924 2
924 3
924 4
925 0
925 1
925 2
925 3
925 4
925 23
925 28
925 33
925 181
925 208
925 265
925 1222
925 1248
925 1249
925 1564
926 0
926 1
926 3
926 94
927 2
927 3
927 4
927 6
927 7
927 8
927 9
927 55
927 374
927 524
927 529
927 762
927 776
927 794
927 806
927 911
927 943
927 1146
927 1521
927 1529
928 0
928 1
928 2
928 3
928 4
928 357
928 686
928 704
928 886
928 1478
929 0
929 2
929 3
929 4
929 5
929 10
929 98
929 324
929 412
929 529
929 551
929 576
929 714
929 909
929 1288
929 1543
930 1
930 2
930 3
930 4
930 5
930 7
930 8
930 9
930 11
930 54
930 175
930 181
930 212
930 213
930 395
930 400
930 472
930 476
930 483
930 539
930 727
930 728
930 731
930 747
930 793
930 1104
930 1270
930 1296
930 1387
930 1620
931 0
931 1
931 2
931 3
931 7
931 8
931 16
931 157
931 243
931 936
931 1355
932 0
932 1
932 2
932 3
932 4
932 5
932 43
932 78
932 358
932 543
932 857
932 1134
932 1439
932 1531
933 0
933 1
933 2
933 3
933 217
933 314
934 0
934 1
934 2
934 3
934 6
934 8
934 92
934 770
934 918
934 1203
934 1521
934 1529
935 0
935 1
935 3
935 5
935 11
935 83
935 87
935 423
935 780
935 889
935 1532
936 0
936 1
936 2
936 3
936 4
936 5
936 6
936 7
936 10
936 16
936 39
936 134
936 157
936 484
936 841
936 931
937 0
937 1
937 3
937 4
937 5
937 7
937 9
937 16
937 107
937 157
937 246
937 333
937 387
937 403
937 500
937 711
937 712
937 801
937 882
937 955
937 1032
937 1096
937 1126
937 1278
937 1279
937 1307
937 1427
937 1487
937 1508
938 0
938 1
938 2
938 3
938 4
938 58
938 109
938 459
939 0
939 1
939 3
939 4
939 381
939 445
939 1589
940 0
940 1
940 2
940 3
940 327
940 360
940 703
940 762
940 843
940 858
940 1585
941 0
941 1
941 2
941 3
941 4
941 5
941 27
941 35
941 64
941 104
941 185
941 214
941 224
941 316
941 376
941 473
941 511
941 559
941 636
941 670
941 674
941 774
941 805
941 959
941 1046
941 1525
942 2
942 3
942 66
942 116
942 133
942 142
942 144
942 177
942 181
942 206
942 250
942 265
942 281
942 287
942 308
942 311
942 326
942 387
942 431
942 472
942 476
942 574
942 727
942 747
942 967
942 969
942 1028
942 1081
942 1102
942 1187
942 1233
942 1234
942 1238
942 1271
942 1321
942 1322
942 1323
942 1326
942 1334
942 1607
942 1608
943 0
943 1
943 2
943 3
943 14
943 41
943 118
943 120
943 157
943 296
943 400
943 469
943 524
943 530
943 562
943 604
943 606
943 621
943 622
943 629
943 691
943 701
943 755
943 770
943 797
943 804
943 805
943 807
943 878
943 927
943 957
943 974
943 1057
943 1079
943 1118
943 1127
943 1163
943 1170
943 1186
943 1253
944 0
944 3
944 763
944 854
945 1
945 3
946 3
946 42
946 67
946 81
946 83
946 87
946 92
946 108
946 134
946 136
946 160
946 162
946 184
946 192
946 193
946 235
946 237
946 258
946 281
946 293
946 308
946 427
946 430
946 505
946 516
946 557
946 566
946 578
946 579
946 636
946 640
946 688
946 704
946 747
946 772
946 789
946 862
946 870
946 883
946 974
946 1010
946 1026
946 1088
946 1177
946 1378
946 1423
946 1497
947 2
947 3
947 4
947 6
947 36
947 42
947 57
947 81
947 92
947 108
947 109
947 125
947 134
947 153
947 168
947 177
947 184
947 193
947 308
947 317
947 322
947 368
947 369
947 391
947 413
947 447
947 471
947 508
947 518
947 532
947 540
947 548
947 559
947 565
947 584
947 618
947 627
947 636
947 680
947 684
947 766
947 777
947 785
947 795
947 865
947 872
947 892
947 987
947 1251
947 1321
947 1389
947 1417
947 1514
947 1525
948 0
948 1
948 3
948 81
948 88
948 120
948 207
948 296
948 326
948 503
948 524
948 529
948 561
948 588
948 622
948 703
948 779
948 1039
948 1142
948 1146
948 1193
948 1217
948 1255
948 1370
948 1525
948 1529
948 1602
949 0
949 1
949 2
949 4
949 1340
950 0
950 1
950 2
950 4
950 42
950 1619
951 0
951 1
951 2
951 3
951 4
951 5
951 7
951 9
951 23
951 44
951 54
951 92
951 254
951 296
951 569
951 766
951 967
951 983
951 1005
951 1014
951 1034
951 1109
951 1407
952 0
952 1
952 4
952 8
952 213
952 476
953 1
953 2
953 3
953 4
953 7
953 9
953 18
953 20
953 25
953 26
953 37
953 220
953 333
953 435
953 500
953 626
953 711
953 989
953 1188
954 0
954 1
954 2
954 3
954 4
954 635
954 883
955 1
955 2
955 3
955 4
955 7
955 16
955 20
955 165
955 232
955 245
955 448
955 711
955 885
955 937
955 1227
955 1277
955 1278
956 0
956 1
956 2
956 3
956 5
956 64
956 312
956 574
956 866
956 1087
956 1147
956 1360
956 1471
956 1534
956 1535
956 1536
956 1620
957 0
957 1
957 2
957 3
957 4
957 5
957 7
957 8
957 9
957 11
957 16
957 20
957 21
957 25
957 124
957 181
957 197
957 206
957 213
957 350
957 483
957 528
957 530
957 539
957 559
957 566
957 600
957 652
957 711
957 712
957 793
957 796
957 801
957 803
957 943
957 981
957 1019
957 1082
957 1104
957 1112
957 1190
957 1270
957 1271
957 1415
958 2
958 4
958 5
958 6
958 7
958 15
958 16
958 40
958 287
958 960
958 995
958 1170
958 1189
958 1345
959 3
959 4
959 186
959 195
959 221
959 287
959 316
959 477
959 636
959 792
959 941
959 1049
959 1127
959 1128
959 1130
959 1141
959 1161
959 1162
959 1164
959 1219
959 1250
959 1254
959 1255
960 0
960 2
960 4
960 5
960 6
960 7
960 10
960 14
960 16
960 17
960 104
960 133
960 426
960 442
960 481
960 958
960 975
960 1018
960 1019
960 1111
960 1147
961 4
961 12
961 186
961 195
961 221
961 304
961 354
961 373
961 383
961 442
961 457
961 477
961 485
961 525
961 792
961 796
961 1049
961 1127
961 1128
961 1130
961 1139
961 1141
961 1161
961 1254
961 1255
961 1303
961 1544
961 1607
962 0
962 22
962 198
962 251
962 287
962 323
962 406
962 644
962 996
962 1007
962 1317
962 1336
962 1539
963 0
963 1
963 2
963 3
963 4
963 5
963 6
963 16
963 25
963 26
963 28
963 31
963 33
963 35
963 86
963 205
963 208
963 245
963 385
963 405
963 436
963 452
963 460
963 472
963 477
963 594
963 606
963 607
963 626
963 797
963 808
963 811
963 965
963 969
963 989
963 1040
963 1075
963 1136
963 1249
963 1278
963 1286
963 1310
963 1330
963 1415
963 1473
963 1501
963 1558
964 3
964 4
964 5
964 7
964 12
964 18
964 37
964 55
964 62
964 104
964 186
964 195
964 246
964 283
964 287
964 319
964 373
964 391
964 405
964 442
964 443
964 449
964 457
964 460
964 481
964 559
964 623
964 636
964 755
964 792
964 809
964 922
964 995
964 1056
964 1057
964 1079
964 1128
964 1130
964 1139
964 1141
964 1143
964 1161
964 1162
964 1164
964 1169
964 1184
964 1219
964 1254
964 1255
964 1541
964 1544
965 0
965 1
965 2
965 3
965 4
965 8
965 30
965 86
965 117
965 293
965 309
965 368
965 811
965 829
965 898
965 963
965 989
965 1021
965 1035
965 1042
965 1069
965 1427
965 1442
965 1488
965 1532
966 0
966 1
966 3
966 4
967 0
967 3
967 4
967 5
967 6
967 7
967 12
967 133
967 530
967 682
967 793
967 942
967 951
967 1030
968 0
968 1
968 2
968 3
968 4
968 222
968 532
968 546
968 1442
968 1504
968 1526
969 0
969 1
969 2
969 3
969 4
969 5
969 9
969 12
969 23
969 27
969 45
969 117
969 142
969 214
969 248
969 251
969 472
969 942
969 963
969 996
969 1040
969 1102
969 1238
969 1321
969 1334
969 1335
969 1336
969 1363
969 1484
970 0
970 1
970 2
970 4
970 9
970 22
970 248
970 1363
971 0
971 1
971 2
971 3
971 4
971 5
971 9
971 45
971 117
971 198
971 214
971 248
971 251
971 1363
972 0
972 1
972 2
972 4
972 7
972 43
972 96
972 235
972 507
972 699
973 0
973 1
973 4
973 10
973 1530
974 0
974 1
974 2
974 3
974 4
974 7
974 43
974 44
974 118
974 635
974 943
974 946
974 1387
974 1620
975 0
975 1
975 2
975 3
975 4
975 5
975 7
975 8
975 11
975 128
975 167
975 174
975 222
975 271
975 287
975 302
975 308
975 435
975 515
975 525
975 582
975 788
975 923
975 960
975 995
975 1059
975 1082
975 1446
975 1526
975 1532
975 1598
976 4
976 64
976 196
976 292
976 319
976 436
976 443
976 637
976 730
976 802
976 985
976 1031
976 1113
976 1182
976 1547
977 1
977 2
977 4
977 196
977 248
977 251
977 455
977 504
977 1007
977 1171
977 1237
977 1276
977 1309
977 1317
977 1539
978 0
978 1
978 2
978 3
978 4
978 5
978 43
978 98
978 209
978 980
978 1038
979 0
979 1
979 4
979 5
979 6
979 559
979 607
979 911
979 1146
979 1193
980 0
980 1
980 2
980 4
980 5
980 6
980 40
980 43
980 82
980 83
980 98
980 272
980 329
980 386
980 978
980 1367
980 1545
981 0
981 1
981 3
981 4
981 5
981 6
981 8
981 24
981 37
981 496
981 530
981 559
981 562
981 957
981 981
981 1353
981 1417
981 1430
981 1540
982 0
982 1
982 4
982 6
982 8
982 11
982 27
982 88
982 368
982 553
982 1502
982 1543
983 0
983 1
983 2
983 3
983 4
983 11
983 86
983 92
983 209
983 872
983 909
983 910
983 951
983 1005
984 0
984 1
984 2
984 3
984 4
984 5
984 6
984 7
984 92
984 96
984 165
984 316
984 525
984 540
984 596
984 674
984 679
984 1069
984 1183
984 1416
984 1446
984 1544
985 0
985 1
985 2
985 4
985 6
985 8
985 14
985 35
985 205
985 299
985 319
985 354
985 433
985 443
985 670
985 730
985 976
985 995
986 0
986 1
986 4
986 5
986 23
986 28
986 33
986 732
986 1054
987 0
987 1
987 2
987 4
987 5
987 9
987 11
987 42
987 44
987 317
987 390
987 496
987 576
987 680
987 725
987 947
987 1030
987 1068
987 1270
987 1362
987 1516
988 1
988 2
988 3
988 4
988 5
988 6
988 7
988 10
988 14
988 15
988 29
988 31
988 391
988 405
988 426
988 442
988 567
988 742
988 1050
988 1061
988 1062
988 1126
988 1127
988 1214
988 1298
988 1303
989 0
989 1
989 2
989 3
989 4
989 10
989 14
989 15
989 17
989 37
989 435
989 532
989 560
989 582
989 696
989 697
989 781
989 811
989 829
989 953
989 963
989 965
989 1069
989 1127
989 1356
989 1505
989 1595
990 0
990 1
990 2
990 4
990 5
990 6
990 10
990 14
990 15
990 19
990 26
990 29
990 31
990 32
990 72
990 328
990 394
990 449
990 525
990 606
990 623
990 637
990 795
990 796
990 809
990 814
990 1141
991 0
991 1
991 2
991 4
991 6
991 10
991 11
992 0
992 2
992 3
992 4
992 629
993 0
993 1
993 2
993 3
993 4
993 6
993 10
993 11
994 0
994 1
994 2
994 4
994 5
994 10
994 43
994 44
994 1513
995 0
995 1
995 2
995 3
995 4
995 6
995 7
995 9
995 15
995 16
995 18
995 19
995 24
995 25
995 35
995 37
995 40
995 47
995 65
995 71
995 81
995 96
995 98
995 174
995 186
995 187
995 199
995 216
995 255
995 279
995 302
995 314
995 355
995 387
995 400
995 403
995 433
995 434
995 442
995 443
995 449
995 460
995 475
995 500
995 546
995 564
995 624
995 625
995 652
995 667
995 679
995 716
995 730
995 747
995 796
995 799
995 815
995 854
995 855
995 861
995 894
995 906
995 958
995 964
995 975
995 985
995 998
995 1049
995 1128
995 1130
995 1136
995 1139
995 1140
995 1141
995 1164
995 1167
995 1189
995 1254
995 1275
995 1284
995 1285
995 1443
995 1444
995 1487
995 1526
995 1541
995 1553
995 1562
995 1620
996 1
996 2
996 4
996 5
996 14
996 22
996 27
996 35
996 118
996 196
996 214
996 251
996 287
996 290
996 377
996 391
996 455
996 518
996 567
996 572
996 683
996 869
996 962
996 969
996 1237
996 1299
996 1303
996 1336
996 1481
996 1512
996 1620
997 2
997 4
997 9
997 11
997 560
997 1174
998 0
998 1
998 2
998 3
998 4
998 6
998 11
998 71
998 584
998 716
998 799
998 995
998 1155
998 1383
998 1550
998 1555
999 3
999 4
999 5
999 7
999 10
999 12
999 24
999 29
999 31
999 32
999 37
999 39
999 72
999 220
999 249
999 304
999 420
999 606
999 814
999 1051
999 1107
999 1127
999 1226
999 1291
1000 0
1000 1
1000 2
1000 3
1000 4
1000 7
1000 11
1000 187
1000 703
1000 1223
1001 0
1001 1
1001 2
1001 3
1001 4
1001 6
1001 7
1001 11
1001 93
1001 98
1001 130
1001 166
1001 169
1001 170
1001 187
1001 199
1001 216
1001 275
1001 356
1001 475
1001 637
1001 661
1001 716
1001 815
1001 906
1001 1154
1001 1550
1001 1553
1002 0
1002 1
1002 2
1002 3
1002 4
1002 35
1002 555
1002 762
1003 0
1003 1
1003 2
1003 4
1003 15
1003 35
1003 230
1003 378
1003 572
1003 911
1003 1144
1003 1147
1003 1515
1004 0
1004 1
1004 2
1004 4
1004 6
1004 9
1004 16
1004 20
1004 26
1004 240
1004 245
1004 319
1004 328
1004 342
1004 426
1004 606
1004 800
1004 802
1004 1126
1004 1182
1004 1191
1004 1206
1004 1520
1005 0
1005 1
1005 2
1005 3
1005 4
1005 6
1005 10
1005 66
1005 505
1005 506
1005 872
1005 951
1005 983
1005 1064
1006 0
1006 1
1006 2
1006 4
1006 5
1006 6
1006 7
1006 18
1006 21
1006 31
1006 143
1006 157
1006 158
1006 183
1006 240
1006 394
1006 405
1006 625
1006 802
1006 817
1006 1128
1006 1253
1006 1291
1006 1304
1006 1417
1007 0
1007 2
1007 3
1007 5
1007 6
1007 22
1007 196
1007 198
1007 248
1007 251
1007 538
1007 739
1007 962
1007 977
1007 1007
1007 1012
1007 1171
1007 1317
1007 1363
1008 0
1008 1
1008 2
1008 4
1008 5
1008 7
1008 20
1008 245
1008 500
1008 800
1008 802
1008 1310
1008 1508
1009 0
1009 1
1009 4
1009 42
1009 459
1009 1507
1010 0
1010 1
1010 2
1010 3
1010 4
1010 44
1010 946
1011 0
1011 1
1011 2
1011 3
1011 4
1011 5
1011 172
1011 329
1011 1424
1012 0
1012 1
1012 2
1012 3
1012 4
1012 8
1012 359
1012 525
1012 609
1012 872
1012 1007
1012 1390
1013 0
1013 1
1013 2
1013 3
1013 4
1013 5
1013 6
1013 10
1014 0
1014 4
1014 7
1014 951
1015 0
1015 1
1015 2
1015 3
1015 4
1015 33
1016 0
1016 1
1016 4
1016 1065
1016 1351
1017 0
1017 1
1017 4
1017 8
1017 83
1018 0
1018 2
1018 3
1018 4
1018 6
1018 8
1018 17
1018 20
1018 107
1018 377
1018 960
1019 0
1019 2
1019 4
1019 5
1019 7
1019 14
1019 15
1019 29
1019 31
1019 82
1019 217
1019 246
1019 368
1019 397
1019 519
1019 634
1019 814
1019 853
1019 957
1019 960
1019 1038
1019 1060
1019 1098
1019 1107
1019 1227
1019 1228
1019 1232
1019 1303
1019 1308
1019 1547
1020 0
1020 1
1020 2
1020 4
1020 5
1020 361
1020 716
1020 1555
1021 0
1021 1
1021 2
1021 3
1021 4
1021 5
1021 11
1021 54
1021 293
1021 883
1021 895
1021 965
1021 1035
1021 1040
1021 1041
1021 1042
1022 0
1022 1
1022 2
1022 3
1022 4
1022 5
1022 848
1023 0
1023 1
1023 2
1023 4
1023 14
1023 882
1023 1355
1024 2
1024 4
1024 5
1024 87
1024 596
1024 653
1024 1069
1024 1427
1025 0
1025 2
1025 3
1025 6
1025 42
1025 81
1025 317
1025 391
1025 559
1025 680
1025 1540
1026 0
1026 1
1026 2
1026 3
1026 4
1026 5
1026 6
1026 34
1026 44
1026 93
1026 134
1026 165
1026 274
1026 350
1026 596
1026 627
1026 946
1026 1155
1026 1372
1026 1377
1026 1387
1026 1392
1026 1416
1026 1546
1027 0
1027 1
1027 2
1027 4
1027 5
1027 7
1027 15
1027 16
1027 110
1027 368
1027 663
1028 0
1028 1
1028 2
1028 4
1028 12
1028 23
1028 64
1028 142
1028 208
1028 472
1028 483
1028 732
1028 782
1028 942
1028 1238
1028 1565
1029 1
1029 4
1029 5
1029 23
1029 30
1029 42
1029 64
1029 86
1029 116
1029 153
1029 177
1029 242
1029 278
1029 284
1029 287
1029 311
1029 431
1029 472
1029 680
1029 684
1029 893
1029 1077
1029 1081
1029 1233
1029 1234
1029 1235
1029 1247
1029 1312
1029 1320
1029 1321
1029 1326
1029 1333
1029 1514
1029 1561
1030 2
1030 3
1030 4
1030 8
1030 47
1030 175
1030 231
1030 287
1030 350
1030 491
1030 498
1030 501
1030 568
1030 694
1030 750
1030 755
1030 765
1030 883
1030 921
1030 967
1030 987
1030 1100
1030 1219
1030 1283
1030 1317
1030 1329
1030 1495
1030 1514
1031 0
1031 1
1031 2
1031 3
1031 4
1031 5
1031 6
1031 20
1031 64
1031 240
1031 802
1031 976
1031 1184
1031 1508
1032 0
1032 1
1032 3
1032 4
1032 6
1032 8
1032 9
1032 39
1032 176
1032 403
1032 421
1032 469
1032 500
1032 567
1032 730
1032 937
1032 1226
1033 0
1033 1
1033 2
1033 3
1033 4
1033 5
1033 6
1034 0
1034 1
1034 2
1034 4
1034 951
1034 1460
1035 0
1035 1
1035 2
1035 4
1035 368
1035 883
1035 965
1035 1021
1036 0
1036 2
1036 3
1036 4
1036 7
1036 438
1036 1349
1037 0
1037 1
1037 2
1037 3
1037 4
1037 7
1037 14
1037 118
1037 683
1037 797
1037 801
1038 0
1038 1
1038 2
1038 3
1038 4
1038 5
1038 10
1038 209
1038 397
1038 717
1038 978
1038 1019
1039 2
1039 3
1039 4
1039 6
1039 19
1039 240
1039 326
1039 485
1039 795
1039 948
1039 1128
1039 1231
1039 1284
1040 0
1040 1
1040 4
1040 5
1040 293
1040 368
1040 963
1040 969
1040 1021
1040 1041
1040 1042
1041 0
1041 1
1041 3
1041 4
1041 5
1041 883
1041 895
1041 1021
1041 1040
1041 1042
1042 1
1042 2
1042 4
1042 5
1042 58
1042 368
1042 883
1042 965
1042 1021
1042 1040
1042 1041
1043 0
1043 1
1043 4
1043 5
1044 0
1044 1
1044 3
1044 4
1044 10
1044 43
1044 44
1044 86
1044 1530
1045 0
1045 1
1045 2
1045 3
1045 4
1045 1401
1045 1402
1045 1517
1046 0
1046 1
1046 2
1046 3
1046 4
1046 191
1046 314
1046 473
1046 607
1046 668
1046 687
1046 805
1046 859
1046 941
1047 0
1047 1
1047 2
1047 4
1047 5
1047 8
1047 340
1047 391
1047 606
1047 1058
1047 1525
1047 1620
1048 0
1048 3
1048 4
1048 5
1048 27
1048 555
1048 1063
1049 1
1049 4
1049 6
1049 8
1049 9
1049 15
1049 35
1049 96
1049 133
1049 195
1049 221
1049 449
1049 636
1049 959
1049 961
1049 995
1049 1056
1049 1079
1049 1141
1049 1180
1050 2
1050 4
1050 5
1050 6
1050 7
1050 8
1050 10
1050 14
1050 15
1050 20
1050 24
1050 29
1050 31
1050 37
1050 141
1050 328
1050 683
1050 988
1050 1062
1050 1126
1050 1127
1050 1145
1050 1201
1050 1298
1050 1301
1051 3
1051 4
1051 5
1051 6
1051 12
1051 195
1051 221
1051 304
1051 328
1051 356
1051 391
1051 396
1051 400
1051 457
1051 600
1051 606
1051 667
1051 792
1051 878
1051 999
1051 1061
1051 1127
1051 1141
1051 1254
1051 1542
1052 0
1052 1
1052 4
1053 0
1053 1
1053 2
1053 3
1053 4
1053 67
1053 258
1053 1449
1053 1577
1054 0
1054 1
1054 2
1054 4
1054 5
1054 206
1054 476
1054 986
1054 1100
1055 0
1055 1
1055 2
1055 3
1055 4
1055 5
1055 42
1055 597
1055 694
1055 758
1056 3
1056 4
1056 6
1056 12
1056 18
1056 64
1056 104
1056 186
1056 195
1056 283
1056 299
1056 304
1056 319
1056 355
1056 373
1056 435
1056 442
1056 457
1056 473
1056 481
1056 596
1056 600
1056 636
1056 652
1056 792
1056 805
1056 964
1056 1049
1056 1079
1056 1128
1056 1130
1056 1141
1056 1143
1056 1161
1056 1162
1056 1169
1056 1231
1056 1255
1056 1541
1057 1
1057 2
1057 4
1057 5
1057 6
1057 7
1057 8
1057 10
1057 11
1057 14
1057 15
1057 141
1057 240
1057 287
1057 442
1057 488
1057 671
1057 807
1057 852
1057 943
1057 964
1057 1061
1057 1188
1057 1299
1057 1450
1058 0
1058 1
1058 2
1058 4
1058 391
1058 566
1058 606
1058 696
1058 868
1058 1047
1058 1620
1059 0
1059 1
1059 2
1059 3
1059 4
1059 7
1059 128
1059 174
1059 642
1059 830
1059 975
1059 1442
1060 0
1060 1
1060 2
1060 4
1060 5
1060 6
1060 32
1060 197
1060 397
1060 606
1060 1019
1060 1228
1060 1308
1060 1547
1061 1
1061 4
1061 5
1061 6
1061 7
1061 8
1061 10
1061 12
1061 14
1061 15
1061 19
1061 20
1061 24
1061 37
1061 141
1061 326
1061 328
1061 627
1061 742
1061 807
1061 988
1061 1051
1061 1057
1061 1127
1061 1145
1061 1228
1061 1273
1062 0
1062 1
1062 2
1062 3
1062 4
1062 5
1062 176
1062 205
1062 217
1062 328
1062 409
1062 433
1062 488
1062 509
1062 853
1062 988
1062 1050
1062 1094
1062 1102
1062 1126
1062 1301
1062 1487
1062 1508
1063 0
1063 1
1063 2
1063 4
1063 5
1063 41
1063 117
1063 290
1063 1048
1063 1610
1064 0
1064 3
1064 4
1064 872
1064 909
1064 1005
1065 0
1065 1
1065 2
1065 4
1065 1016
1065 1351
1066 0
1066 1
1066 2
1066 3
1066 4
1066 9
1066 83
1066 179
1066 780
1067 0
1067 1
1067 2
1067 3
1067 4
1067 5
1067 34
1067 43
1067 490
1068 4
1068 10
1068 987
1069 0
1069 1
1069 2
1069 4
1069 302
1069 354
1069 540
1069 582
1069 596
1069 678
1069 965
1069 984
1069 989
1069 1024
1069 1108
1069 1288
1069 1442
1069 1544
1070 0
1070 3
1070 4
1070 5
1070 10
1070 81
1070 93
1070 714
1070 1525
1070 1617
1071 0
1071 1
1071 2
1071 4
1071 5
1071 67
1071 213
1071 387
1071 530
1071 1500
1071 1585
1072 1
1072 1540
1073 0
1073 1
1073 3
1073 4
1073 5
1073 9
1073 11
1073 44
1073 525
1073 1407
1074 2
1074 4
1074 206
1074 714
1075 4
1075 6
1075 385
1075 477
1075 530
1075 715
1075 922
1075 963
1075 1076
1075 1136
1075 1543
1076 0
1076 1
1076 2
1076 3
1076 4
1076 6
1076 9
1076 12
1076 53
1076 96
1076 143
1076 165
1076 351
1076 359
1076 420
1076 448
1076 477
1076 530
1076 564
1076 636
1076 715
1076 720
1076 797
1076 802
1076 922
1076 1075
1076 1164
1076 1170
1076 1188
1076 1286
1076 1578
1076 1603
1077 0
1077 1
1077 2
1077 3
1077 6
1077 23
1077 88
1077 242
1077 311
1077 1029
1077 1234
1077 1563
1077 1564
1077 1565
1078 0
1078 1
1078 2
1078 3
1078 6
1078 23
1078 28
1078 33
1078 54
1078 116
1078 181
1078 287
1078 1563
1078 1564
1078 1565
1079 0
1079 1
1079 2
1079 3
1079 4
1079 5
1079 6
1079 7
1079 10
1079 11
1079 12
1079 16
1079 17
1079 24
1079 25
1079 32
1079 35
1079 37
1079 133
1079 186
1079 195
1079 221
1079 283
1079 460
1079 469
1079 481
1079 485
1079 486
1079 494
1079 520
1079 572
1079 636
1079 686
1079 689
1079 705
1079 723
1079 743
1079 792
1079 831
1079 943
1079 964
1079 1049
1079 1056
1079 1084
1079 1086
1079 1113
1079 1118
1079 1141
1079 1161
1079 1182
1079 1185
1079 1254
1079 1295
1079 1311
1079 1544
1080 1
1080 2
1080 5
1080 20
1080 26
1080 107
1080 197
1080 205
1080 1140
1080 1206
1080 1311
1080 1508
1081 1
1081 2
1081 5
1081 12
1081 23
1081 30
1081 483
1081 942
1081 1029
1081 1511
1081 1563
1081 1564
1081 1565
1082 1
1082 2
1082 4
1082 5
1082 7
1082 11
1082 15
1082 29
1082 31
1082 32
1082 520
1082 530
1082 803
1082 831
1082 957
1082 975
1082 1098
1082 1145
1083 0
1083 1
1083 2
1083 5
1083 10
1083 19
1083 32
1083 334
1083 520
1083 723
1083 778
1083 831
1083 1128
1084 0
1084 1
1084 2
1084 4
1084 5
1084 6
1084 9
1084 10
1084 32
1084 165
1084 437
1084 520
1084 723
1084 803
1084 1079
1084 1086
1084 1121
1084 1295
1085 1
1085 2
1085 3
1085 5
1085 6
1085 10
1085 11
1085 21
1085 32
1085 183
1085 334
1085 437
1085 1157
1085 1307
1085 1415
1086 2
1086 3
1086 4
1086 5
1086 11
1086 32
1086 512
1086 689
1086 1079
1086 1084
1086 1121
1087 0
1087 1
1087 2
1087 3
1087 4
1087 5
1087 6
1087 9
1087 17
1087 117
1087 394
1087 651
1087 956
1088 0
1088 5
1088 946
1089 0
1089 1
1089 2
1089 3
1089 5
1089 9
1089 17
1089 230
1089 602
1089 1150
1090 0
1090 1
1090 2
1090 5
1090 8
1091 1
1091 5
1091 9
1091 17
1091 156
1091 182
1091 191
1091 230
1091 248
1091 394
1091 481
1091 555
1092 0
1092 1
1092 2
1092 3
1092 5
1092 44
1092 603
1093 0
1093 1
1093 2
1093 5
1093 332
1093 613
1093 1105
1094 0
1094 1
1094 2
1094 3
1094 4
1094 5
1094 6
1094 7
1094 176
1094 200
1094 293
1094 308
1094 341
1094 354
1094 366
1094 385
1094 409
1094 1062
1094 1102
1094 1136
1094 1487
1094 1508
1094 1543
1095 0
1095 1
1095 2
1095 5
1095 9
1095 26
1095 576
1095 818
1095 903
1095 1227
1095 1253
1095 1311
1095 1508
1096 0
1096 1
1096 2
1096 3
1096 4
1096 5
1096 7
1096 9
1096 19
1096 20
1096 107
1096 217
1096 509
1096 624
1096 795
1096 937
1096 1126
1096 1128
1096 1301
1097 0
1097 1
1097 4
1097 5
1097 6
1097 26
1097 82
1097 1126
1097 1508
1098 0
1098 1
1098 2
1098 3
1098 5
1098 14
1098 16
1098 29
1098 698
1098 886
1098 1019
1098 1082
1098 1165
1098 1478
1098 1622
1099 0
1099 1
1099 3
1099 5
1099 785
1100 0
1100 2
1100 4
1100 5
1100 7
1100 483
1100 1030
1100 1054
1100 1104
1101 0
1101 1
1101 2
1101 4
1101 5
1101 7
1101 8
1101 11
1101 606
1101 728
1101 731
1101 1270
1102 0
1102 1
1102 2
1102 3
1102 4
1102 5
1102 6
1102 7
1102 10
1102 23
1102 28
1102 33
1102 156
1102 176
1102 208
1102 217
1102 853
1102 942
1102 969
1102 1062
1102 1094
1102 1103
1102 1104
1102 1508
1103 0
1103 1
1103 3
1103 4
1103 5
1103 7
1103 855
1103 1102
1104 1
1104 2
1104 3
1104 5
1104 6
1104 7
1104 11
1104 181
1104 206
1104 213
1104 250
1104 321
1104 438
1104 472
1104 476
1104 483
1104 539
1104 728
1104 731
1104 930
1104 957
1104 1100
1104 1102
1104 1270
1104 1620
1105 0
1105 1
1105 2
1105 5
1105 1093
1105 1117
1106 0
1106 1
1106 2
1106 3
1106 4
1106 5
1106 22
1107 0
1107 1
1107 2
1107 5
1107 6
1107 8
1107 10
1107 180
1107 999
1107 1019
1107 1140
1108 0
1108 1
1108 2
1108 4
1108 5
1108 6
1108 7
1108 9
1108 11
1108 381
1108 532
1108 582
1108 747
1108 1069
1109 0
1109 1
1109 2
1109 3
1109 5
1109 43
1109 44
1109 67
1109 209
1109 652
1109 951
1110 0
1110 1
1110 2
1110 5
1110 293
1110 765
1111 1
1111 3
1111 4
1111 5
1111 10
1111 11
1111 15
1111 17
1111 104
1111 443
1111 960
1112 0
1112 1
1112 3
1112 4
1112 5
1112 7
1112 9
1112 16
1112 18
1112 20
1112 124
1112 711
1112 795
1112 957
1112 1206
1113 1
1113 2
1113 4
1113 5
1113 6
1113 7
1113 9
1113 20
1113 26
1113 205
1113 245
1113 606
1113 666
1113 801
1113 802
1113 976
1113 1079
1113 1152
1113 1182
1113 1190
1113 1508
1114 0
1114 1
1114 4
1114 5
1114 35
1114 195
1114 670
1114 1141
1115 0
1115 1
1115 2
1115 5
1115 6
1115 7
1115 8
1115 11
1115 74
1115 133
1115 182
1115 230
1115 572
1115 1356
1116 0
1116 1
1116 4
1116 5
1117 0
1117 1
1117 2
1117 5
1117 292
1117 332
1117 1105
1117 1588
1118 0
1118 1
1118 3
1118 5
1118 7
1118 8
1118 32
1118 281
1118 532
1118 703
1118 943
1118 1079
1119 1
1119 2
1119 5
1119 154
1119 258
1119 308
1119 381
1119 1415
1119 1417
1119 1588
1120 0
1120 1
1120 2
1120 5
1120 87
1121 0
1121 1
1121 3
1121 5
1121 6
1121 723
1121 726
1121 1084
1121 1086
1121 1157
1122 0
1122 1
1122 2
1122 5
1122 1478
1123 0
1123 1
1123 2
1123 3
1123 4
1123 5
1123 214
1123 224
1123 555
1124 0
1124 1
1124 2
1124 4
1124 5
1124 6
1124 8
1124 27
1124 41
1124 230
1124 248
1124 251
1124 391
1124 1484
1125 0
1125 1
1125 2
1125 3
1125 5
1125 6
1125 10
1125 14
1125 28
1125 33
1125 44
1125 213
1125 459
1125 1249
1125 1312
1125 1365
1125 1366
1126 0
1126 2
1126 3
1126 4
1126 5
1126 6
1126 9
1126 21
1126 32
1126 39
1126 72
1126 185
1126 246
1126 328
1126 468
1126 627
1126 683
1126 712
1126 801
1126 937
1126 988
1126 1004
1126 1050
1126 1062
1126 1096
1126 1097
1126 1132
1126 1214
1126 1226
1126 1298
1126 1301
1127 0
1127 1
1127 2
1127 3
1127 4
1127 5
1127 6
1127 7
1127 8
1127 10
1127 14
1127 15
1127 17
1127 37
1127 86
1127 118
1127 143
1127 205
1127 246
1127 249
1127 283
1127 326
1127 328
1127 448
1127 449
1127 567
1127 634
1127 797
1127 807
1127 809
1127 885
1127 943
1127 959
1127 961
1127 988
1127 989
1127 999
1127 1050
1127 1051
1127 1061
1127 1140
1127 1145
1127 1181
1127 1214
1127 1226
1127 1228
1127 1291
1127 1300
1127 1302
1128 2
1128 3
1128 4
1128 5
1128 7
1128 8
1128 9
1128 12
1128 16
1128 25
1128 26
1128 53
1128 158
1128 165
1128 176
1128 186
1128 220
1128 221
1128 240
1128 245
1128 351
1128 359
1128 387
1128 420
1128 421
1128 448
1128 477
1128 488
1128 507
1128 519
1128 624
1128 742
1128 792
1128 797
1128 805
1128 810
1128 876
1128 959
1128 961
1128 964
1128 995
1128 1006
1128 1039
1128 1056
1128 1083
1128 1096
1128 1140
1128 1167
1128 1188
1128 1231
1128 1240
1128 1255
1128 1284
1128 1285
1128 1307
1128 1487
1129 0
1129 1
1129 2
1129 3
1129 5
1129 6
1129 9
1129 11
1129 17
1129 27
1129 117
1129 1147
1129 1356
1129 1472
1130 1
1130 3
1130 4
1130 5
1130 7
1130 8
1130 9
1130 10
1130 11
1130 16
1130 17
1130 24
1130 25
1130 29
1130 31
1130 118
1130 186
1130 368
1130 402
1130 442
1130 460
1130 481
1130 572
1130 601
1130 663
1130 797
1130 959
1130 961
1130 964
1130 995
1130 1056
1130 1139
1130 1145
1130 1147
1130 1274
1131 0
1131 1
1131 2
1131 3
1131 4
1131 5
1131 13
1131 14
1131 44
1131 682
1131 1366
1132 0
1132 1
1132 2
1132 5
1132 14
1132 246
1132 405
1132 623
1132 625
1132 712
1132 1126
1133 0
1133 1
1133 2
1133 3
1133 5
1133 6
1133 8
1133 848
1134 0
1134 1
1134 2
1134 3
1134 4
1134 5
1134 6
1134 11
1134 43
1134 88
1134 329
1134 350
1134 375
1134 490
1134 543
1134 546
1134 627
1134 932
1134 1172
1134 1387
1134 1449
1134 1513
1134 1545
1135 0
1135 1
1135 2
1135 3
1135 5
1135 13
1135 1365
1135 1366
1136 0
1136 2
1136 4
1136 5
1136 6
1136 83
1136 146
1136 205
1136 240
1136 377
1136 385
1136 452
1136 805
1136 963
1136 995
1136 1075
1136 1094
1136 1286
1136 1310
1136 1429
1137 0
1137 1
1137 2
1137 5
1137 43
1137 258
1137 408
1137 753
1137 1387
1138 0
1138 1
1138 2
1138 3
1138 5
1138 12
1139 2
1139 3
1139 5
1139 7
1139 9
1139 11
1139 16
1139 17
1139 24
1139 82
1139 104
1139 195
1139 328
1139 442
1139 449
1139 460
1139 481
1139 729
1139 792
1139 961
1139 964
1139 995
1139 1130
1139 1141
1139 1184
1139 1303
1140 1
1140 2
1140 3
1140 4
1140 5
1140 7
1140 9
1140 14
1140 31
1140 420
1140 488
1140 595
1140 624
1140 635
1140 742
1140 805
1140 807
1140 903
1140 995
1140 1080
1140 1107
1140 1127
1140 1128
1140 1227
1140 1253
1140 1284
1140 1285
1140 1450
1141 1
1141 2
1141 4
1141 5
1141 7
1141 8
1141 9
1141 26
1141 72
1141 141
1141 186
1141 220
1141 236
1141 304
1141 328
1141 373
1141 426
1141 457
1141 652
1141 792
1141 796
1141 959
1141 961
1141 964
1141 990
1141 995
1141 1049
1141 1051
1141 1056
1141 1079
1141 1114
1141 1139
1142 0
1142 1
1142 2
1142 3
1142 5
1142 9
1142 30
1142 42
1142 391
1142 697
1142 948
1142 1402
1142 1570
1142 1589
1143 1
1143 5
1143 35
1143 221
1143 469
1143 964
1143 1056
1143 1562
1144 0
1144 1
1144 3
1144 5
1144 10
1144 141
1144 529
1144 530
1144 538
1144 572
1144 909
1144 1003
1144 1272
1145 1
1145 3
1145 5
1145 6
1145 7
1145 8
1145 14
1145 53
1145 55
1145 96
1145 98
1145 195
1145 205
1145 220
1145 221
1145 319
1145 328
1145 448
1145 457
1145 595
1145 627
1145 634
1145 715
1145 797
1145 903
1145 1050
1145 1061
1145 1082
1145 1127
1145 1130
1145 1180
1145 1189
1145 1190
1145 1306
1145 1311
1146 2
1146 3
1146 5
1146 55
1146 81
1146 460
1146 776
1146 911
1146 927
1146 948
1146 979
1146 1193
1146 1211
1146 1212
1146 1218
1147 0
1147 1
1147 2
1147 3
1147 5
1147 7
1147 8
1147 11
1147 16
1147 17
1147 32
1147 394
1147 481
1147 734
1147 859
1147 956
1147 960
1147 1003
1147 1129
1147 1130
1147 1472
1147 1478
1147 1535
1148 0
1148 1
1148 3
1148 6
1149 0
1149 1
1149 2
1149 6
1149 1355
1149 1486
1150 0
1150 1
1150 2
1150 3
1150 6
1150 11
1150 17
1150 81
1150 117
1150 878
1150 1089
1150 1217
1150 1356
1150 1472
1151 0
1151 1
1151 2
1151 3
1151 5
1151 6
1151 7
1151 8
1151 327
1151 583
1151 699
1151 1356
1152 0
1152 1
1152 2
1152 5
1152 6
1152 7
1152 124
1152 500
1152 666
1152 1113
1153 0
1153 1
1153 2
1153 6
1153 236
1153 360
1153 843
1154 0
1154 1
1154 5
1154 11
1154 68
1154 73
1154 82
1154 166
1154 216
1154 545
1154 1001
1154 1154
1154 1548
1154 1549
1154 1550
1154 1551
1154 1552
1154 1553
1154 1554
1154 1555
1154 1556
1154 1577
1155 0
1155 2
1155 3
1155 4
1155 6
1155 71
1155 81
1155 92
1155 130
1155 134
1155 281
1155 296
1155 582
1155 627
1155 653
1155 753
1155 777
1155 832
1155 998
1155 1026
1155 1446
1155 1492
1155 1526
1155 1550
1155 1578
1156 0
1156 1
1156 2
1156 6
1156 652
1156 696
1156 697
1156 1192
1156 1373
1156 1585
1157 0
1157 1
1157 5
1157 6
1157 10
1157 32
1157 81
1157 133
1157 520
1157 723
1157 1085
1157 1121
1157 1220
1157 1478
1158 0
1158 1
1158 2
1158 3
1158 5
1158 6
1158 9
1158 156
1158 158
1158 668
1159 0
1159 1
1159 2
1159 3
1159 5
1159 6
1159 10
1159 32
1159 133
1159 334
1159 437
1159 520
1159 1293
1160 0
1160 2
1160 6
1160 192
1160 568
1160 697
1160 1192
1160 1560
1161 0
1161 2
1161 3
1161 4
1161 5
1161 6
1161 37
1161 959
1161 961
1161 964
1161 1056
1161 1079
1161 1169
1161 1254
1161 1473
1162 0
1162 1
1162 2
1162 4
1162 5
1162 6
1162 35
1162 222
1162 315
1162 359
1162 959
1162 964
1162 1056
1162 1207
1162 1479
1163 0
1163 1
1163 2
1163 6
1163 7
1163 21
1163 25
1163 533
1163 806
1163 943
1163 1479
1164 1
1164 2
1164 4
1164 6
1164 8
1164 16
1164 24
1164 37
1164 81
1164 308
1164 442
1164 460
1164 576
1164 594
1164 652
1164 808
1164 809
1164 903
1164 959
1164 964
1164 995
1164 1076
1164 1167
1164 1596
1165 1
1165 2
1165 4
1165 6
1165 8
1165 9
1165 18
1165 24
1165 37
1165 573
1165 634
1165 711
1165 852
1165 1098
1165 1277
1165 1474
1166 0
1166 1
1166 2
1166 4
1166 86
1166 190
1166 241
1166 341
1166 714
1166 763
1166 839
1166 1213
1166 1416
1166 1501
1166 1557
1166 1558
1166 1594
1167 0
1167 4
1167 5
1167 6
1167 10
1167 20
1167 29
1167 31
1167 995
1167 1128
1167 1164
1167 1170
1167 1180
1168 0
1168 1
1168 6
1168 7
1168 9
1168 11
1168 25
1168 37
1168 96
1168 605
1168 806
1169 1
1169 4
1169 6
1169 11
1169 16
1169 18
1169 24
1169 25
1169 35
1169 37
1169 400
1169 600
1169 729
1169 792
1169 808
1169 964
1169 1056
1169 1161
1169 1170
1169 1188
1169 1218
1170 1
1170 2
1170 4
1170 5
1170 6
1170 25
1170 110
1170 221
1170 308
1170 442
1170 448
1170 576
1170 595
1170 606
1170 609
1170 808
1170 809
1170 903
1170 943
1170 958
1170 1076
1170 1167
1170 1169
1170 1253
1170 1290
1170 1300
1170 1473
1170 1541
1170 1596
1171 1
1171 6
1171 22
1171 35
1171 43
1171 45
1171 739
1171 977
1171 1007
1172 0
1172 1
1172 2
1172 6
1172 43
1172 209
1172 375
1172 430
1172 490
1172 627
1172 1134
1173 0
1173 1
1173 2
1173 5
1173 6
1173 11
1173 43
1173 430
1173 546
1173 1367
1174 0
1174 1
1174 2
1174 4
1174 6
1174 11
1174 43
1174 329
1174 560
1174 696
1174 923
1174 997
1174 1367
1175 0
1175 1
1175 2
1175 5
1175 6
1175 21
1175 35
1175 312
1175 636
1175 866
1175 1479
1175 1620
1176 0
1176 1
1176 2
1176 4
1176 6
1176 520
1176 1479
1176 1491
1177 0
1177 1
1177 2
1177 3
1177 4
1177 6
1177 44
1177 133
1177 281
1177 911
1177 946
1177 1207
1177 1253
1177 1376
1177 1479
1178 1
1178 2
1178 3
1178 4
1178 6
1178 7
1178 29
1178 31
1178 32
1178 316
1178 486
1178 713
1178 723
1179 0
1179 1
1179 2
1179 4
1179 6
1179 7
1180 1
1180 2
1180 3
1180 4
1180 6
1180 7
1180 26
1180 29
1180 31
1180 240
1180 629
1180 711
1180 715
1180 800
1180 1049
1180 1145
1180 1167
1180 1206
1180 1302
1180 1405
1180 1473
1181 0
1181 3
1181 6
1181 8
1181 10
1181 220
1181 807
1181 1127
1181 1253
1182 1
1182 5
1182 6
1182 9
1182 20
1182 26
1182 145
1182 333
1182 606
1182 802
1182 976
1182 1004
1182 1079
1182 1113
1182 1508
1183 6
1183 7
1183 53
1183 119
1183 165
1183 205
1183 240
1183 319
1183 436
1183 525
1183 606
1183 674
1183 984
1183 1250
1183 1482
1184 1
1184 4
1184 5
1184 6
1184 24
1184 37
1184 64
1184 964
1184 1031
1184 1139
1184 1228
1185 0
1185 1
1185 4
1185 6
1185 26
1185 743
1185 1079
1186 0
1186 1
1186 2
1186 4
1186 5
1186 6
1186 7
1186 21
1186 32
1186 520
1186 943
1187 0
1187 1
1187 3
1187 6
1187 12
1187 231
1187 254
1187 733
1187 942
1188 0
1188 2
1188 3
1188 5
1188 6
1188 7
1188 18
1188 19
1188 21
1188 25
1188 37
1188 205
1188 330
1188 604
1188 625
1188 953
1188 1057
1188 1076
1188 1128
1188 1169
1188 1307
1188 1450
1188 1473
1189 0
1189 1
1189 2
1189 6
1189 37
1189 460
1189 576
1189 958
1189 995
1189 1145
1189 1275
1189 1520
1189 1541
1190 0
1190 1
1190 3
1190 4
1190 5
1190 6
1190 7
1190 9
1190 245
1190 606
1190 802
1190 957
1190 1113
1190 1145
1191 0
1191 3
1191 4
1191 6
1191 10
1191 15
1191 20
1191 26
1191 169
1191 205
1191 433
1191 436
1191 1004
1192 0
1192 1
1192 2
1192 6
1192 30
1192 697
1192 1156
1192 1160
1192 1210
1192 1219
1192 1416
1192 1460
1192 1585
1193 0
1193 1
1193 3
1193 6
1193 819
1193 948
1193 979
1193 1146
1193 1479
1194 0
1194 1
1194 2
1194 3
1194 6
1194 1355
1195 0
1195 1
1195 2
1195 3
1195 4
1195 6
1195 99
1195 112
1195 222
1195 281
1195 1387
1195 1479
1196 0
1196 1
1196 2
1196 3
1196 4
1196 6
1196 99
1196 281
1196 519
1196 1479
1196 1604
1197 0
1197 1
1197 6
1197 1479
1198 0
1198 6
1199 0
1199 1
1199 2
1199 3
1199 6
1199 10
1199 13
1199 14
1199 1365
1199 1366
1200 0
1200 1
1200 2
1200 5
1200 6
1200 231
1200 309
1201 0
1201 1
1201 4
1201 5
1201 6
1201 8
1201 14
1201 24
1201 25
1201 29
1201 31
1201 37
1201 354
1201 712
1201 1050
1201 1250
1202 0
1202 1
1202 6
1203 0
1203 1
1203 2
1203 3
1203 4
1203 6
1203 14
1203 66
1203 92
1203 436
1203 934
1203 1382
1204 0
1204 1
1204 2
1204 3
1204 6
1204 82
1204 487
1204 603
1204 652
1204 1376
1205 0
1205 2
1205 6
1205 92
1205 211
1205 1451
1206 0
1206 1
1206 3
1206 4
1206 6
1206 9
1206 16
1206 20
1206 26
1206 107
1206 203
1206 205
1206 220
1206 240
1206 800
1206 1004
1206 1080
1206 1112
1206 1180
1206 1508
1207 0
1207 1
1207 2
1207 6
1207 8
1207 9
1207 11
1207 87
1207 1162
1207 1177
1207 1253
1208 1
1208 2
1208 3
1208 6
1208 529
1208 794
1208 889
1209 1
1209 6
1209 532
1209 1538
1210 0
1210 1
1210 2
1210 3
1210 30
1210 1192
1210 1416
1210 1451
1210 1525
1210 1585
1211 1
1211 2
1211 5
1211 6
1211 8
1211 9
1211 378
1211 391
1211 532
1211 770
1211 794
1211 878
1211 918
1211 1146
1212 0
1212 1
1212 3
1212 6
1212 529
1212 794
1212 1146
1213 0
1213 2
1213 4
1213 86
1213 696
1213 1166
1213 1501
1213 1557
1213 1558
1214 1
1214 2
1214 4
1214 6
1214 9
1214 246
1214 328
1214 455
1214 488
1214 500
1214 625
1214 637
1214 669
1214 712
1214 988
1214 1126
1214 1127
1214 1301
1215 0
1215 1
1215 82
1215 142
1215 400
1215 412
1215 472
1215 702
1215 1221
1215 1247
1215 1312
1215 1321
1215 1322
1215 1329
1215 1330
1216 0
1216 1
1216 2
1216 5
1216 6
1216 9
1216 11
1216 379
1216 520
1216 532
1217 3
1217 4
1217 6
1217 9
1217 22
1217 35
1217 133
1217 182
1217 805
1217 948
1217 1150
1217 1539
1218 0
1218 3
1218 6
1218 8
1218 9
1218 762
1218 794
1218 878
1218 911
1218 1146
1218 1169
1218 1540
1219 0
1219 1
1219 2
1219 3
1219 4
1219 5
1219 6
1219 9
1219 11
1219 84
1219 460
1219 697
1219 959
1219 964
1219 1030
1219 1192
1219 1281
1219 1416
1219 1460
1219 1473
1219 1560
1219 1572
1219 1585
1219 1598
1220 6
1220 96
1220 119
1220 165
1220 183
1220 468
1220 606
1220 689
1220 723
1220 734
1220 792
1220 852
1220 922
1220 1157
1220 1425
1220 1543
1221 0
1221 3
1221 6
1221 7
1221 326
1221 538
1221 732
1221 1215
1221 1321
1221 1335
1221 1539
1221 1543
1222 142
1222 547
1222 574
1222 816
1222 925
1222 1247
1222 1312
1222 1314
1222 1318
1222 1320
1222 1321
1222 1327
1222 1329
1222 1330
1222 1335
1223 1
1223 2
1223 4
1223 7
1223 130
1223 138
1223 703
1223 1000
1224 0
1224 1
1224 2
1224 3
1224 4
1224 7
1224 11
1224 169
1224 170
1224 305
1224 661
1224 716
1224 815
1224 1550
1225 1
1225 2
1225 3
1225 7
1225 8
1225 34
1225 44
1225 603
1225 1408
1225 1527
1226 0
1226 1
1226 2
1226 4
1226 6
1226 7
1226 8
1226 9
1226 11
1226 14
1226 29
1226 31
1226 118
1226 683
1226 712
1226 817
1226 999
1226 1032
1226 1126
1226 1127
1226 1275
1226 1306
1226 1620
1227 4
1227 6
1227 7
1227 9
1227 10
1227 11
1227 14
1227 15
1227 20
1227 26
1227 98
1227 220
1227 240
1227 377
1227 391
1227 420
1227 488
1227 595
1227 669
1227 903
1227 955
1227 1019
1227 1095
1227 1140
1227 1253
1227 1450
1228 0
1228 1
1228 2
1228 3
1228 4
1228 5
1228 6
1228 7
1228 10
1228 14
1228 15
1228 24
1228 37
1228 328
1228 485
1228 1019
1228 1060
1228 1061
1228 1127
1228 1184
1228 1231
1228 1473
1229 0
1229 1
1229 2
1229 7
1230 0
1230 1
1230 4
1230 5
1230 7
1230 281
1230 517
1230 1520
1231 1
1231 2
1231 3
1231 4
1231 5
1231 6
1231 7
1231 8
1231 14
1231 15
1231 19
1231 24
1231 29
1231 31
1231 35
1231 37
1231 118
1231 249
1231 485
1231 572
1231 814
1231 859
1231 1039
1231 1056
1231 1128
1231 1228
1231 1291
1232 0
1232 1
1232 2
1232 6
1232 7
1232 512
1232 606
1232 723
1232 1019
1232 1520
1233 0
1233 2
1233 3
1233 5
1233 12
1233 23
1233 28
1233 33
1233 142
1233 206
1233 208
1233 231
1233 298
1233 571
1233 574
1233 816
1233 942
1233 1029
1233 1249
1233 1318
1233 1320
1233 1327
1233 1330
1233 1333
1233 1335
1233 1564
1233 1565
1234 0
1234 1
1234 2
1234 12
1234 23
1234 33
1234 64
1234 86
1234 208
1234 472
1234 540
1234 684
1234 942
1234 1029
1234 1077
1234 1326
1234 1353
1234 1563
1234 1564
1234 1565
1235 0
1235 1
1235 2
1235 6
1235 23
1235 326
1235 1029
1235 1236
1235 1334
1235 1563
1235 1564
1235 1565
1236 0
1236 1
1236 3
1236 23
1236 1235
1236 1563
1236 1564
1236 1565
1237 0
1237 1
1237 7
1237 22
1237 45
1237 378
1237 538
1237 627
1237 977
1237 996
1237 1276
1237 1481
1237 1539
1238 0
1238 1
1238 2
1238 3
1238 4
1238 5
1238 7
1238 12
1238 23
1238 28
1238 33
1238 159
1238 206
1238 208
1238 400
1238 793
1238 942
1238 969
1238 1028
1238 1245
1238 1249
1238 1565
1238 1566
1239 0
1239 1
1239 2
1239 3
1239 4
1239 5
1239 7
1239 9
1239 11
1239 20
1239 486
1240 1
1240 3
1240 4
1240 7
1240 9
1240 10
1240 24
1240 146
1240 221
1240 287
1240 594
1240 1128
1241 0
1241 1
1241 2
1241 3
1241 5
1241 7
1241 9
1241 10
1241 16
1241 484
1241 1301
1241 1302
1242 242
1242 1335
1243 0
1243 1
1243 2
1243 7
1243 20
1243 245
1243 413
1243 486
1243 605
1243 711
1243 795
1244 0
1244 1
1244 2
1244 3
1244 7
1244 122
1244 574
1244 667
1244 859
1245 0
1245 142
1245 472
1245 732
1245 1238
1245 1321
1245 1330
1245 1334
1245 1335
1245 1336
1246 0
1246 1
1246 2
1246 3
1246 6
1246 23
1246 116
1246 1565
1247 0
1247 1
1247 2
1247 3
1247 4
1247 28
1247 30
1247 33
1247 144
1247 208
1247 1029
1247 1215
1247 1222
1247 1248
1247 1249
1247 1323
1247 1329
1247 1565
1247 1566
1248 142
1248 574
1248 816
1248 925
1248 1247
1248 1318
1248 1320
1248 1321
1248 1327
1248 1329
1248 1330
1248 1335
1249 116
1249 142
1249 144
1249 190
1249 412
1249 472
1249 491
1249 547
1249 574
1249 702
1249 732
1249 782
1249 925
1249 963
1249 1125
1249 1233
1249 1238
1249 1247
1249 1312
1249 1313
1249 1314
1249 1316
1249 1317
1249 1318
1249 1320
1249 1321
1249 1323
1249 1325
1249 1326
1249 1329
1249 1330
1249 1332
1249 1334
1249 1335
1249 1336
1250 0
1250 4
1250 6
1250 7
1250 72
1250 195
1250 205
1250 220
1250 509
1250 576
1250 959
1250 1183
1250 1201
1251 0
1251 1
1251 2
1251 7
1251 8
1251 9
1251 42
1251 66
1251 258
1251 354
1251 496
1251 592
1251 766
1251 947
1251 1507
1252 0
1252 1
1252 4
1252 7
1252 8
1252 9
1252 10
1252 42
1252 43
1252 44
1252 209
1252 496
1252 1533
1252 1602
1253 1
1253 2
1253 3
1253 5
1253 6
1253 8
1253 87
1253 96
1253 165
1253 288
1253 420
1253 448
1253 477
1253 488
1253 669
1253 797
1253 943
1253 1006
1253 1095
1253 1140
1253 1170
1253 1177
1253 1181
1253 1207
1253 1227
1253 1281
1253 1286
1253 1290
1253 1417
1253 1420
1253 1620
1254 1
1254 7
1254 8
1254 9
1254 16
1254 24
1254 25
1254 35
1254 37
1254 315
1254 449
1254 460
1254 959
1254 961
1254 964
1254 995
1254 1051
1254 1079
1254 1161
1255 1
1255 3
1255 4
1255 5
1255 6
1255 7
1255 8
1255 9
1255 12
1255 14
1255 16
1255 17
1255 19
1255 24
1255 32
1255 35
1255 37
1255 64
1255 195
1255 315
1255 442
1255 460
1255 607
1255 795
1255 804
1255 948
1255 959
1255 961
1255 964
1255 1056
1255 1128
1255 1450
1256 0
1256 1
1256 2
1256 4
1256 8
1256 64
1256 281
1256 652
1256 862
1256 1377
1256 1387
1256 1407
1256 1598
1257 0
1257 1
1257 2
1257 3
1257 1353
1257 1441
1258 0
1258 1
1258 6
1258 8
1258 258
1258 416
1258 1377
1259 0
1259 2
1259 4
1259 8
1259 9
1259 11
1259 22
1259 230
1259 538
1259 739
1259 1356
1259 1512
1260 0
1260 1
1260 2
1260 3
1260 4
1260 5
1260 6
1260 8
1260 139
1260 623
1260 1275
1260 1617
1261 8
1261 1436
1262 0
1262 1
1262 2
1262 3
1262 42
1262 231
1262 296
1262 1353
1262 1441
1263 0
1263 1
1263 3
1263 4
1263 8
1263 822
1263 1402
1263 1407
1263 1455
1263 1540
1264 0
1264 1
1264 8
1264 11
1264 525
1264 540
1264 780
1264 923
1264 1266
1264 1417
1265 0
1265 1
1265 2
1265 4
1265 8
1265 33
1265 780
1266 0
1266 1
1266 2
1266 8
1266 10
1266 11
1266 34
1266 780
1266 1264
1266 1417
1266 1440
1266 1594
1267 0
1267 1
1267 2
1267 3
1267 4
1267 8
1267 9
1267 11
1267 129
1268 0
1268 3
1268 4
1268 8
1268 28
1268 525
1269 2
1269 3
1269 4
1269 8
1269 1532
1270 3
1270 8
1270 54
1270 175
1270 181
1270 213
1270 250
1270 296
1270 321
1270 395
1270 396
1270 438
1270 476
1270 483
1270 539
1270 551
1270 727
1270 767
1270 930
1270 957
1270 987
1270 1101
1270 1104
1270 1296
1270 1313
1271 1
1271 4
1271 8
1271 92
1271 117
1271 181
1271 206
1271 350
1271 659
1271 755
1271 793
1271 942
1271 957
1272 5
1272 7
1272 8
1272 9
1272 17
1272 117
1272 230
1272 538
1272 739
1272 1144
1272 1512
1273 1
1273 8
1273 10
1273 20
1273 326
1273 606
1273 807
1273 903
1273 1061
1273 1290
1273 1415
1273 1543
1274 0
1274 1
1274 2
1274 5
1274 8
1274 9
1274 15
1274 17
1274 20
1274 538
1274 572
1274 1130
1274 1286
1274 1515
1275 1
1275 2
1275 3
1275 6
1275 8
1275 72
1275 246
1275 413
1275 606
1275 995
1275 1189
1275 1226
1275 1260
1275 1387
1276 0
1276 1
1276 3
1276 6
1276 8
1276 22
1276 45
1276 74
1276 117
1276 182
1276 251
1276 538
1276 977
1276 1237
1277 0
1277 1
1277 2
1277 4
1277 5
1277 9
1277 124
1277 711
1277 885
1277 955
1277 1165
1278 0
1278 1
1278 2
1278 3
1278 5
1278 6
1278 7
1278 9
1278 16
1278 711
1278 937
1278 955
1278 963
1279 0
1279 1
1279 2
1279 4
1279 5
1279 6
1279 9
1279 16
1279 40
1279 169
1279 333
1279 529
1279 607
1279 654
1279 669
1279 937
1279 1382
1280 0
1280 1
1280 2
1280 3
1280 4
1280 9
1280 11
1280 280
1280 574
1280 1367
1280 1429
1280 1532
1281 0
1281 1
1281 2
1281 3
1281 6
1281 9
1281 14
1281 288
1281 1219
1281 1253
1281 1286
1281 1461
1282 0
1282 1
1282 3
1282 5
1282 9
1282 484
1282 795
1282 802
1283 0
1283 1
1283 3
1283 9
1283 498
1283 747
1283 1030
1283 1497
1284 3
1284 5
1284 6
1284 9
1284 19
1284 31
1284 420
1284 797
1284 995
1284 1039
1284 1128
1284 1140
1284 1285
1284 1307
1284 1450
1285 0
1285 1
1285 2
1285 3
1285 4
1285 5
1285 9
1285 14
1285 19
1285 720
1285 995
1285 1128
1285 1140
1285 1284
1285 1286
1285 1450
1286 6
1286 9
1286 14
1286 29
1286 31
1286 37
1286 65
1286 220
1286 240
1286 288
1286 359
1286 377
1286 402
1286 477
1286 963
1286 1076
1286 1136
1286 1253
1286 1274
1286 1281
1286 1285
1286 1450
1287 1
1287 2
1287 3
1287 9
1287 11
1287 81
1287 135
1287 159
1287 438
1287 860
1287 1519
1288 0
1288 1
1288 2
1288 5
1288 9
1288 10
1288 529
1288 909
1288 916
1288 929
1288 1069
1288 1543
1289 0
1289 1
1289 2
1289 3
1289 4
1289 5
1289 7
1289 9
1289 10
1289 14
1289 29
1289 400
1290 1
1290 5
1290 6
1290 8
1290 9
1290 10
1290 11
1290 19
1290 20
1290 26
1290 205
1290 240
1290 420
1290 809
1290 1170
1290 1253
1290 1273
1291 0
1291 1
1291 3
1291 4
1291 5
1291 6
1291 8
1291 9
1291 10
1291 20
1291 197
1291 246
1291 303
1291 623
1291 626
1291 999
1291 1006
1291 1127
1291 1231
1291 1306
1292 0
1292 2
1292 3
1292 4
1292 6
1292 10
1292 192
1292 235
1293 0
1293 1
1293 10
1293 32
1293 98
1293 334
1293 486
1293 520
1293 698
1293 1159
1294 1
1294 2
1294 4
1294 5
1294 6
1294 8
1294 11
1294 351
1294 602
1294 1356
1294 1520
1295 0
1295 1
1295 2
1295 3
1295 4
1295 6
1295 11
1295 21
1295 165
1295 689
1295 705
1295 723
1295 734
1295 1079
1295 1084
1295 1520
1296 0
1296 2
1296 3
1296 7
1296 11
1296 930
1296 1270
1297 0
1297 1
1297 2
1297 3
1297 4
1297 5
1297 13
1297 34
1297 133
1297 320
1297 575
1297 1359
1297 1366
1297 1384
1298 0
1298 1
1298 2
1298 3
1298 5
1298 9
1298 14
1298 15
1298 39
1298 988
1298 1050
1298 1126
1299 0
1299 2
1299 6
1299 7
1299 10
1299 14
1299 15
1299 205
1299 328
1299 436
1299 807
1299 996
1299 1057
1300 1
1300 2
1300 3
1300 4
1300 6
1300 7
1300 10
1300 14
1300 24
1300 26
1300 29
1300 31
1300 37
1300 205
1300 800
1300 808
1300 809
1300 1127
1300 1170
1300 1473
1300 1621
1301 0
1301 2
1301 6
1301 9
1301 14
1301 39
1301 197
1301 205
1301 246
1301 304
1301 328
1301 623
1301 683
1301 885
1301 1050
1301 1062
1301 1096
1301 1126
1301 1214
1301 1241
1301 1427
1302 0
1302 1
1302 4
1302 5
1302 7
1302 8
1302 9
1302 14
1302 21
1302 32
1302 1127
1302 1180
1302 1241
1302 1479
1303 1
1303 2
1303 4
1303 5
1303 7
1303 8
1303 9
1303 10
1303 14
1303 15
1303 92
1303 567
1303 605
1303 683
1303 701
1303 792
1303 961
1303 988
1303 996
1303 1019
1303 1139
1304 0
1304 1
1304 2
1304 4
1304 5
1304 7
1304 14
1304 303
1304 796
1304 1006
1304 1306
1304 1603
1305 1
1305 3
1305 7
1305 8
1305 14
1305 21
1305 25
1305 31
1305 53
1305 292
1305 303
1305 421
1305 822
1305 1306
1305 1473
1305 1607
1306 0
1306 1
1306 2
1306 4
1306 5
1306 8
1306 9
1306 10
1306 14
1306 21
1306 29
1306 31
1306 37
1306 39
1306 145
1306 246
1306 292
1306 303
1306 405
1306 439
1306 567
1306 572
1306 604
1306 625
1306 817
1306 1145
1306 1226
1306 1291
1306 1304
1306 1305
1306 1484
1307 0
1307 1
1307 2
1307 5
1307 6
1307 9
1307 14
1307 19
1307 20
1307 29
1307 31
1307 86
1307 387
1307 421
1307 486
1307 726
1307 734
1307 882
1307 937
1307 1085
1307 1128
1307 1188
1307 1284
1307 1603
1308 0
1308 1
1308 2
1308 3
1308 4
1308 5
1308 9
1308 10
1308 16
1308 26
1308 333
1308 484
1308 711
1308 1019
1308 1060
1308 1508
1309 1
1309 2
1309 5
1309 6
1309 7
1309 16
1309 39
1309 157
1309 245
1309 309
1309 484
1309 841
1309 977
1309 1508
1310 0
1310 3
1310 4
1310 7
1310 15
1310 20
1310 24
1310 37
1310 385
1310 452
1310 883
1310 963
1310 1008
1310 1136
1310 1543
1311 2
1311 6
1311 20
1311 26
1311 205
1311 377
1311 800
1311 1079
1311 1080
1311 1095
1311 1145
1312 1
1312 2
1312 3
1312 5
1312 28
1312 30
1312 33
1312 144
1312 208
1312 244
1312 284
1312 400
1312 507
1312 732
1312 1029
1312 1125
1312 1215
1312 1222
1312 1249
1312 1320
1312 1323
1312 1325
1312 1329
1312 1566
1313 0
1313 1
1313 2
1313 3
1313 7
1313 28
1313 33
1313 175
1313 208
1313 213
1313 1249
1313 1270
1313 1566
1314 0
1314 3
1314 12
1314 28
1314 33
1314 208
1314 1222
1314 1249
1315 0
1315 1
1315 2
1315 3
1315 28
1315 33
1315 44
1315 1354
1316 1
1316 2
1316 3
1316 23
1316 28
1316 33
1316 208
1316 574
1316 1249
1317 0
1317 2
1317 9
1317 28
1317 33
1317 208
1317 213
1317 287
1317 438
1317 483
1317 732
1317 739
1317 962
1317 977
1317 1007
1317 1030
1317 1249
1318 0
1318 1
1318 2
1318 4
1318 6
1318 28
1318 33
1318 43
1318 44
1318 82
1318 93
1318 208
1318 278
1318 732
1318 1222
1318 1233
1318 1248
1318 1249
1318 1319
1318 1566
1318 1627
1319 0
1319 1
1319 6
1319 28
1319 278
1319 287
1319 1318
1319 1564
1319 1565
1320 1
1320 2
1320 3
1320 4
1320 28
1320 30
1320 33
1320 42
1320 680
1320 1029
1320 1222
1320 1233
1320 1248
1320 1249
1320 1312
1320 1566
1321 1
1321 4
1321 6
1321 12
1321 23
1321 28
1321 33
1321 42
1321 116
1321 142
1321 208
1321 496
1321 507
1321 621
1321 732
1321 942
1321 947
1321 969
1321 1029
1321 1215
1321 1221
1321 1222
1321 1245
1321 1248
1321 1249
1321 1566
1322 0
1322 1
1322 2
1322 4
1322 12
1322 28
1322 33
1322 208
1322 942
1322 1215
1322 1565
1322 1566
1323 1
1323 3
1323 12
1323 23
1323 28
1323 33
1323 208
1323 942
1323 1247
1323 1249
1323 1312
1323 1329
1323 1335
1324 28
1324 33
1324 208
1324 438
1325 0
1325 1
1325 2
1325 3
1325 28
1325 33
1325 208
1325 732
1325 816
1325 1249
1325 1312
1326 1
1326 2
1326 3
1326 6
1326 12
1326 23
1326 28
1326 33
1326 208
1326 278
1326 793
1326 942
1326 1029
1326 1234
1326 1249
1326 1563
1326 1565
1327 0
1327 1
1327 2
1327 3
1327 4
1327 28
1327 33
1327 208
1327 732
1327 816
1327 1222
1327 1233
1327 1248
1328 0
1328 28
1328 33
1328 1374
1329 0
1329 1
1329 2
1329 3
1329 4
1329 28
1329 33
1329 208
1329 732
1329 1030
1329 1215
1329 1222
1329 1247
1329 1248
1329 1249
1329 1312
1329 1323
1330 2
1330 23
1330 28
1330 33
1330 116
1330 208
1330 732
1330 963
1330 1215
1330 1222
1330 1233
1330 1245
1330 1248
1330 1249
1330 1565
1331 0
1331 1
1331 2
1331 4
1331 7
1331 28
1331 33
1331 208
1331 340
1331 476
1331 732
1332 0
1332 1
1332 2
1332 5
1332 28
1332 33
1332 208
1332 412
1332 1249
1333 0
1333 1
1333 3
1333 5
1333 10
1333 12
1333 14
1333 23
1333 28
1333 33
1333 116
1333 188
1333 208
1333 1029
1333 1233
1333 1366
1334 0
1334 2
1334 3
1334 4
1334 6
1334 28
1334 33
1334 208
1334 504
1334 942
1334 969
1334 1235
1334 1245
1334 1249
1334 1336
1335 0
1335 2
1335 3
1335 4
1335 7
1335 28
1335 33
1335 208
1335 244
1335 326
1335 431
1335 732
1335 893
1335 969
1335 1221
1335 1222
1335 1233
1335 1242
1335 1245
1335 1248
1335 1249
1335 1323
1335 1566
1336 0
1336 1
1336 3
1336 7
1336 23
1336 28
1336 33
1336 81
1336 208
1336 323
1336 468
1336 571
1336 732
1336 962
1336 969
1336 996
1336 1245
1336 1249
1336 1334
1336 1481
1336 1539
1336 1566
1337 1387
1338 0
1338 2
1338 68
1338 81
1338 98
1338 148
1338 300
1338 1387
1338 1490
1339 0
1339 1
1339 2
1339 69
1339 81
1339 252
1339 658
1339 819
1339 1387
1339 1417
1340 0
1340 1
1340 2
1340 92
1340 949
1340 1387
1341 0
1341 1
1341 1342
1341 1387
1341 1408
1342 0
1342 3
1342 1341
1342 1387
1343 0
1343 203
1343 1387
1344 0
1344 1
1344 1351
1344 1387
1345 0
1345 1
1345 2
1345 20
1345 92
1345 329
1345 541
1345 958
1345 1387
1346 0
1346 1
1346 2
1346 82
1346 87
1346 1387
1346 1416
1347 310
1347 356
1347 361
1347 1387
1348 0
1348 1
1348 2
1348 3
1348 67
1348 222
1348 434
1348 546
1348 596
1348 753
1348 830
1348 1387
1348 1592
1349 0
1349 4
1349 57
1349 61
1349 68
1349 682
1349 727
1349 760
1349 833
1349 904
1349 1036
1349 1387
1349 1598
1350 0
1350 1
1350 61
1350 1387
1350 1416
1351 0
1351 82
1351 88
1351 1016
1351 1065
1351 1344
1351 1387
1351 1416
1352 65
1352 162
1352 281
1352 450
1352 532
1352 657
1352 672
1352 694
1352 1387
1352 1427
1353 2
1353 36
1353 134
1353 203
1353 284
1353 518
1353 611
1353 636
1353 865
1353 891
1353 892
1353 981
1353 1234
1353 1257
1353 1262
1353 1387
1354 0
1354 2
1354 3
1354 123
1354 155
1354 223
1354 296
1354 532
1354 566
1354 609
1354 842
1354 1315
1354 1387
1354 1389
1355 1
1355 3
1355 40
1355 68
1355 98
1355 101
1355 110
1355 185
1355 203
1355 210
1355 243
1355 261
1355 286
1355 391
1355 457
1355 499
1355 552
1355 745
1355 767
1355 795
1355 848
1355 889
1355 890
1355 931
1355 1023
1355 1149
1355 1194
1355 1387
1355 1390
1356 2
1356 6
1356 27
1356 41
1356 55
1356 74
1356 104
1356 119
1356 158
1356 175
1356 182
1356 195
1356 212
1356 230
1356 236
1356 249
1356 258
1356 354
1356 376
1356 383
1356 394
1356 401
1356 442
1356 472
1356 474
1356 476
1356 481
1356 483
1356 485
1356 507
1356 570
1356 572
1356 583
1356 587
1356 601
1356 602
1356 645
1356 796
1356 900
1356 989
1356 1115
1356 1129
1356 1150
1356 1151
1356 1259
1356 1294
1356 1387
1356 1594
1357 1567
1358 1
1358 2
1358 62
1358 92
1358 94
1358 98
1358 234
1358 261
1358 281
1358 407
1358 767
1358 1388
1358 1426
1358 1427
1358 1558
1359 62
1359 89
1359 92
1359 93
1359 121
1359 123
1359 239
1359 259
1359 261
1359 403
1359 461
1359 489
1359 646
1359 678
1359 764
1359 768
1359 888
1359 1297
1359 1387
1359 1411
1359 1427
1359 1594
1359 1610
1359 1617
1360 3
1360 64
1360 215
1360 292
1360 312
1360 761
1360 956
1360 1620
1361 66
1362 68
1362 203
1362 331
1362 461
1362 917
1362 987
1362 1387
1362 1427
1363 0
1363 3
1363 5
1363 6
1363 8
1363 9
1363 22
1363 48
1363 65
1363 81
1363 248
1363 251
1363 732
1363 969
1363 970
1363 971
1363 1007
1363 1604
1363 1615
1364 0
1364 4
1364 81
1364 532
1364 606
1365 2
1365 82
1365 237
1365 569
1365 640
1365 641
1365 665
1365 887
1365 1125
1365 1135
1365 1199
1365 1490
1366 82
1366 153
1366 168
1366 189
1366 237
1366 239
1366 244
1366 359
1366 549
1366 565
1366 578
1366 640
1366 641
1366 665
1366 704
1366 887
1366 1125
1366 1131
1366 1135
1366 1199
1366 1297
1366 1333
1366 1416
1367 67
1367 68
1367 79
1367 83
1367 193
1367 209
1367 228
1367 281
1367 430
1367 490
1367 546
1367 765
1367 923
1367 980
1367 1173
1367 1174
1367 1280
1367 1576
1368 0
1368 1
1368 2
1368 4
1368 11
1368 13
1368 44
1368 87
1368 1408
1369 87
1369 178
1369 219
1369 233
1369 272
1369 393
1369 396
1369 411
1369 464
1369 1427
1369 1575
1369 1617
1370 3
1370 88
1370 92
1370 616
1370 948
1370 1371
1370 1525
1371 0
1371 1
1371 3
1371 88
1371 1370
1371 1427
1371 1525
1372 1
1372 78
1372 92
1372 274
1372 310
1372 1026
1372 1387
1372 1419
1372 1497
1373 0
1373 1
1373 2
1373 4
1373 88
1373 92
1373 532
1373 576
1373 696
1373 868
1373 1156
1374 0
1374 1
1374 10
1374 92
1374 532
1374 773
1374 823
1374 1328
1374 1501
1374 1543
1374 1558
1375 92
1375 281
1375 629
1375 827
1375 899
1375 1559
1375 1616
1376 2
1376 82
1376 92
1376 153
1376 281
1376 378
1376 548
1376 575
1376 592
1376 862
1376 1177
1376 1204
1376 1416
1377 82
1377 92
1377 93
1377 100
1377 127
1377 203
1377 258
1377 281
1377 396
1377 836
1377 842
1377 1026
1377 1256
1377 1258
1377 1387
1377 1416
1377 1417
1378 0
1378 34
1378 44
1378 92
1378 133
1378 343
1378 391
1378 946
1379 93
1380 0
1380 1
1380 2
1380 3
1380 93
1380 332
1381 93
1381 203
1381 218
1381 746
1381 748
1381 749
1382 2
1382 40
1382 65
1382 93
1382 326
1382 517
1382 590
1382 629
1382 1203
1382 1279
1382 1559
1383 67
1383 81
1383 82
1383 87
1383 93
1383 94
1383 169
1383 216
1383 403
1383 609
1383 753
1383 799
1383 880
1383 998
1384 62
1384 92
1384 93
1384 123
1384 239
1384 403
1384 489
1384 768
1384 888
1384 1297
1384 1387
1384 1411
1384 1427
1384 1594
1384 1610
1385 94
1386 0
1386 94
1386 632
1387 0
1387 1
1387 2
1387 3
1387 4
1387 5
1387 6
1387 7
1387 8
1387 9
1387 11
1387 12
1387 22
1387 30
1387 33
1387 34
1387 42
1387 43
1387 44
1387 50
1387 61
1387 62
1387 64
1387 78
1387 81
1387 82
1387 83
1387 87
1387 88
1387 89
1387 90
1387 92
1387 93
1387 94
1387 96
1387 101
1387 105
1387 113
1387 123
1387 127
1387 149
1387 154
1387 161
1387 203
1387 210
1387 228
1387 235
1387 258
1387 261
1387 271
1387 286
1387 287
1387 292
1387 296
1387 320
1387 337
1387 342
1387 348
1387 356
1387 359
1387 403
1387 407
1387 441
1387 447
1387 459
1387 464
1387 471
1387 532
1387 533
1387 536
1387 538
1387 541
1387 570
1387 574
1387 584
1387 590
1387 605
1387 609
1387 611
1387 631
1387 652
1387 658
1387 672
1387 682
1387 694
1387 697
1387 706
1387 714
1387 727
1387 737
1387 753
1387 766
1387 821
1387 858
1387 868
1387 872
1387 878
1387 889
1387 897
1387 930
1387 974
1387 1026
1387 1134
1387 1137
1387 1195
1387 1256
1387 1275
1387 1337
1387 1338
1387 1339
1387 1340
1387 1341
1387 1342
1387 1343
1387 1344
1387 1345
1387 1346
1387 1347
1387 1348
1387 1349
1387 1350
1387 1351
1387 1352
1387 1353
1387 1354
1387 1355
1387 1356
1387 1359
1387 1362
1387 1372
1387 1377
1387 1384
1387 1387
1387 1390
1387 1403
1387 1416
1387 1417
1387 1420
1387 1427
1387 1429
1387 1441
1387 1477
1387 1480
1387 1488
1387 1497
1387 1502
1387 1513
1387 1533
1387 1543
1387 1572
1387 1578
1387 1594
1387 1599
1387 1604
1387 1606
1387 1607
1387 1613
1388 0
1388 1
1388 2
1388 3
1388 5
1388 61
1388 152
1388 1358
1388 1575
1388 1594
1389 0
1389 1
1389 2
1389 5
1389 42
1389 71
1389 92
1389 93
1389 109
1389 134
1389 496
1389 537
1389 548
1389 596
1389 652
1389 696
1389 697
1389 947
1389 1354
1389 1492
1390 0
1390 1
1390 2
1390 3
1390 4
1390 5
1390 6
1390 7
1390 8
1390 43
1390 81
1390 82
1390 83
1390 184
1390 203
1390 258
1390 296
1390 487
1390 490
1390 499
1390 507
1390 603
1390 627
1390 912
1390 1012
1390 1355
1390 1387
1390 1409
1390 1416
1390 1427
1390 1453
1390 1572
1390 1577
1390 1598
1390 1607
1391 0
1391 1
1391 5
1391 1502
1392 0
1392 1
1392 3
1392 34
1392 62
1392 83
1392 134
1392 320
1392 636
1392 764
1392 1026
1392 1574
1393 1579
1394 0
1394 1
1394 203
1394 1572
1395 2
1395 203
1395 431
1395 1572
1396 203
1396 639
1396 709
1396 767
1397 0
1397 1
1397 66
1397 154
1397 203
1397 444
1397 747
1397 750
1397 773
1397 789
1397 1495
1397 1572
1398 252
1399 134
1399 610
1399 718
1399 1427
1399 1573
1400 1
1400 281
1400 441
1400 767
1400 1427
1401 252
1401 258
1401 337
1401 348
1401 612
1401 1045
1401 1494
1402 252
1402 610
1402 612
1402 1045
1402 1142
1402 1263
1402 1406
1402 1427
1403 0
1403 1
1403 81
1403 252
1403 658
1403 819
1403 1387
1403 1417
1403 1591
1404 0
1404 1
1404 59
1404 207
1404 252
1404 291
1404 337
1404 348
1404 384
1404 386
1404 440
1404 458
1404 608
1404 642
1404 719
1404 779
1405 0
1405 1
1405 2
1405 3
1405 11
1405 20
1405 25
1405 723
1405 817
1405 885
1405 1180
1405 1427
1405 1479
1406 0
1406 2
1406 207
1406 252
1406 1402
1406 1427
1407 1
1407 81
1407 100
1407 127
1407 258
1407 842
1407 951
1407 1073
1407 1256
1407 1263
1407 1416
1407 1417
1407 1426
1407 1427
1408 1
1408 2
1408 3
1408 4
1408 34
1408 44
1408 64
1408 258
1408 514
1408 1225
1408 1341
1408 1368
1409 259
1409 492
1409 530
1409 646
1409 1390
1409 1430
1409 1594
1410 259
1411 0
1411 1
1411 2
1411 3
1411 259
1411 917
1411 1359
1411 1384
1411 1439
1412 0
1412 4
1412 43
1412 259
1413 259
1413 556
1413 590
1413 672
1413 714
1414 0
1414 1
1414 2
1414 3
1414 5
1414 6
1414 7
1414 81
1414 83
1414 155
1414 281
1414 642
1414 767
1414 1479
1414 1585
1414 1627
1415 0
1415 1
1415 2
1415 3
1415 4
1415 5
1415 6
1415 8
1415 10
1415 15
1415 66
1415 154
1415 256
1415 258
1415 316
1415 326
1415 410
1415 532
1415 606
1415 957
1415 963
1415 1085
1415 1119
1415 1273
1415 1417
1415 1508
1415 1575
1415 1595
1416 0
1416 1
1416 2
1416 3
1416 4
1416 5
1416 6
1416 7
1416 9
1416 14
1416 24
1416 42
1416 43
1416 48
1416 81
1416 82
1416 89
1416 92
1416 93
1416 97
1416 136
1416 235
1416 258
1416 268
1416 270
1416 281
1416 320
1416 329
1416 349
1416 487
1416 496
1416 589
1416 609
1416 795
1416 822
1416 984
1416 1026
1416 1166
1416 1192
1416 1210
1416 1219
1416 1346
1416 1350
1416 1351
1416 1366
1416 1376
1416 1377
1416 1387
1416 1390
1416 1407
1416 1417
1416 1420
1416 1426
1416 1427
1416 1430
1416 1436
1416 1449
1416 1520
1416 1526
1416 1540
1416 1550
1416 1581
1416 1582
1416 1583
1416 1584
1416 1585
1416 1586
1416 1598
1416 1603
1416 1627
1417 0
1417 1
1417 2
1417 3
1417 4
1417 5
1417 6
1417 9
1417 19
1417 22
1417 42
1417 43
1417 44
1417 64
1417 67
1417 77
1417 81
1417 92
1417 96
1417 131
1417 167
1417 212
1417 258
1417 270
1417 281
1417 292
1417 308
1417 354
1417 359
1417 368
1417 369
1417 413
1417 496
1417 521
1417 522
1417 532
1417 534
1417 561
1417 570
1417 572
1417 658
1417 739
1417 766
1417 795
1417 801
1417 947
1417 981
1417 1006
1417 1119
1417 1253
1417 1264
1417 1266
1417 1339
1417 1377
1417 1387
1417 1403
1417 1407
1417 1415
1417 1416
1417 1423
1417 1428
1417 1431
1417 1434
1417 1437
1417 1450
1417 1477
1417 1540
1417 1572
1417 1587
1417 1588
1417 1589
1417 1591
1417 1602
1417 1625
1418 0
1418 1
1418 2
1418 3
1418 92
1418 697
1418 1590
1419 0
1419 1
1419 3
1419 548
1419 1372
1419 1532
1420 0
1420 1
1420 2
1420 3
1420 4
1420 54
1420 82
1420 94
1420 134
1420 180
1420 286
1420 310
1420 408
1420 438
1420 483
1420 627
1420 628
1420 710
1420 1253
1420 1387
1420 1416
1420 1574
1420 1586
1420 1607
1421 0
1421 1
1421 77
1421 699
1422 0
1422 1
1422 2
1422 5
1422 1602
1423 0
1423 1
1423 2
1423 42
1423 292
1423 308
1423 432
1423 447
1423 694
1423 946
1423 1417
1424 0
1424 1
1424 172
1424 400
1424 1011
1425 0
1425 1
1425 2
1425 3
1425 4
1425 5
1425 6
1425 7
1425 16
1425 21
1425 32
1425 96
1425 119
1425 165
1425 303
1425 437
1425 468
1425 606
1425 723
1425 734
1425 852
1425 1220
1426 0
1426 1
1426 2
1426 3
1426 5
1426 7
1426 43
1426 67
1426 90
1426 203
1426 257
1426 258
1426 267
1426 268
1426 281
1426 282
1426 296
1426 379
1426 414
1426 624
1426 697
1426 753
1426 777
1426 845
1426 1358
1426 1407
1426 1416
1426 1476
1426 1575
1427 0
1427 1
1427 2
1427 3
1427 4
1427 5
1427 6
1427 8
1427 10
1427 12
1427 13
1427 16
1427 39
1427 40
1427 42
1427 43
1427 44
1427 54
1427 55
1427 64
1427 82
1427 86
1427 88
1427 117
1427 135
1427 153
1427 157
1427 175
1427 185
1427 203
1427 258
1427 289
1427 296
1427 317
1427 329
1427 388
1427 404
1427 483
1427 487
1427 519
1427 567
1427 610
1427 627
1427 645
1427 680
1427 696
1427 753
1427 767
1427 841
1427 889
1427 937
1427 965
1427 1024
1427 1301
1427 1352
1427 1358
1427 1359
1427 1362
1427 1369
1427 1371
1427 1384
1427 1387
1427 1390
1427 1399
1427 1400
1427 1402
1427 1405
1427 1406
1427 1407
1427 1416
1427 1427
1427 1431
1427 1484
1427 1502
1427 1508
1427 1594
1427 1606
1428 0
1428 1
1428 2
1428 4
1428 46
1428 82
1428 270
1428 410
1428 593
1428 1417
1429 0
1429 1
1429 2
1429 4
1429 5
1429 8
1429 11
1429 88
1429 190
1429 296
1429 525
1429 629
1429 848
1429 1136
1429 1280
1429 1387
1429 1482
1429 1532
1430 0
1430 1
1430 2
1430 3
1430 4
1430 8
1430 93
1430 158
1430 175
1430 230
1430 368
1430 410
1430 487
1430 586
1430 626
1430 682
1430 847
1430 858
1430 981
1430 1409
1430 1416
1430 1452
1430 1453
1430 1463
1430 1464
1430 1466
1430 1510
1430 1543
1430 1550
1430 1595
1431 0
1431 203
1431 267
1431 268
1431 292
1431 305
1431 381
1431 389
1431 777
1431 1417
1431 1427
1431 1431
1431 1432
1431 1433
1432 0
1432 83
1432 203
1432 1431
1433 0
1433 1
1433 2
1433 4
1433 258
1433 267
1433 1431
1433 1456
1434 2
1434 93
1434 130
1434 131
1434 281
1434 432
1434 695
1434 778
1434 1417
1435 3
1435 47
1435 51
1435 64
1435 82
1435 125
1435 133
1435 244
1435 281
1435 288
1435 324
1435 352
1435 383
1435 395
1435 702
1435 755
1435 756
1435 784
1435 785
1435 872
1435 1594
1435 1598
1436 81
1436 99
1436 109
1436 155
1436 281
1436 365
1436 392
1436 464
1436 536
1436 584
1436 592
1436 611
1436 842
1436 1261
1436 1416
1436 1598
1437 0
1437 88
1437 167
1437 261
1437 281
1437 1417
1437 1531
1438 407
1438 450
1438 1594
1439 83
1439 87
1439 121
1439 123
1439 489
1439 768
1439 932
1439 1411
1439 1594
1439 1610
1440 296
1440 695
1440 778
1440 779
1440 780
1440 1266
1441 1
1441 2
1441 3
1441 93
1441 111
1441 260
1441 296
1441 370
1441 586
1441 654
1441 749
1441 842
1441 851
1441 897
1441 1257
1441 1262
1441 1387
1442 48
1442 87
1442 128
1442 162
1442 174
1442 222
1442 271
1442 302
1442 434
1442 507
1442 546
1442 582
1442 679
1442 699
1442 820
1442 870
1442 965
1442 968
1442 1059
1442 1069
1442 1484
1442 1504
1442 1607
1443 0
1443 1
1443 2
1443 4
1443 81
1443 244
1443 302
1443 434
1443 696
1443 699
1443 894
1443 995
1443 1504
1444 0
1444 1
1444 2
1444 3
1444 113
1444 302
1444 360
1444 434
1444 648
1444 846
1444 894
1444 995
1444 1504
1444 1526
1444 1603
1444 1607
1445 302
1445 434
1445 546
1445 830
1445 861
1445 1503
1445 1504
1446 1
1446 2
1446 4
1446 6
1446 47
1446 174
1446 302
1446 777
1446 786
1446 832
1446 855
1446 975
1446 984
1446 1155
1446 1504
1447 203
1447 255
1447 306
1447 592
1448 308
1449 5
1449 127
1449 131
1449 135
1449 137
1449 308
1449 375
1449 546
1449 592
1449 751
1449 917
1449 1053
1449 1134
1449 1416
1449 1513
1450 3
1450 81
1450 220
1450 308
1450 316
1450 325
1450 448
1450 720
1450 810
1450 1057
1450 1140
1450 1188
1450 1227
1450 1255
1450 1284
1450 1285
1450 1286
1450 1417
1451 2
1451 211
1451 287
1451 309
1451 381
1451 445
1451 498
1451 501
1451 679
1451 705
1451 1205
1451 1210
1452 331
1452 371
1452 1430
1453 88
1453 331
1453 366
1453 425
1453 465
1453 592
1453 664
1453 812
1453 845
1453 908
1453 1390
1453 1430
1453 1597
1454 344
1455 265
1455 344
1455 1263
1455 1575
1456 1
1456 93
1456 672
1456 1433
1456 1575
1457 348
1457 1598
1458 348
1458 369
1459 203
1459 348
1459 1572
1459 1598
1460 0
1460 2
1460 67
1460 92
1460 123
1460 250
1460 539
1460 837
1460 1034
1460 1192
1460 1219
1460 1598
1461 359
1461 872
1461 1281
1462 368
1462 1466
1463 368
1463 1430
1463 1464
1463 1466
1464 0
1464 1
1464 4
1464 368
1464 1430
1464 1463
1464 1465
1464 1466
1465 0
1465 1
1465 2
1465 368
1465 1464
1466 0
1466 1
1466 4
1466 368
1466 1430
1466 1462
1466 1463
1466 1464
1466 1602
1467 380
1468 296
1468 348
1468 399
1468 458
1468 1576
1468 1602
1469 98
1469 101
1469 203
1469 265
1469 282
1469 308
1469 331
1469 381
1469 491
1469 565
1469 654
1469 682
1469 702
1469 747
1470 1
1470 36
1470 89
1470 381
1470 586
1470 897
1471 0
1471 41
1471 64
1471 156
1471 215
1471 292
1471 312
1471 356
1471 387
1471 583
1471 761
1471 838
1471 866
1471 878
1471 956
1472 1
1472 2
1472 3
1472 64
1472 126
1472 156
1472 215
1472 292
1472 312
1472 356
1472 377
1472 387
1472 507
1472 866
1472 878
1472 1129
1472 1147
1472 1150
1472 1578
1473 2
1473 3
1473 18
1473 53
1473 96
1473 119
1473 258
1473 303
1473 400
1473 435
1473 600
1473 605
1473 634
1473 711
1473 715
1473 792
1473 796
1473 852
1473 878
1473 963
1473 1161
1473 1170
1473 1180
1473 1188
1473 1219
1473 1228
1473 1300
1473 1305
1473 1543
1474 400
1474 852
1474 1165
1475 413
1476 62
1476 120
1476 232
1476 243
1476 413
1476 1426
1476 1577
1477 0
1477 1
1477 120
1477 243
1477 379
1477 413
1477 767
1477 795
1477 1387
1477 1417
1477 1576
1477 1577
1478 337
1478 413
1478 781
1478 901
1478 921
1478 928
1478 1098
1478 1122
1478 1147
1478 1157
1479 92
1479 99
1479 120
1479 207
1479 228
1479 232
1479 258
1479 281
1479 413
1479 461
1479 1162
1479 1163
1479 1175
1479 1176
1479 1177
1479 1193
1479 1195
1479 1196
1479 1197
1479 1302
1479 1405
1479 1414
1479 1572
1479 1604
1480 0
1480 1
1480 2
1480 6
1480 403
1480 548
1480 1387
1481 0
1481 1
1481 2
1481 3
1481 4
1481 22
1481 156
1481 198
1481 214
1481 251
1481 287
1481 391
1481 406
1481 596
1481 605
1481 644
1481 996
1481 1237
1481 1336
1481 1512
1482 0
1482 1
1482 2
1482 3
1482 4
1482 5
1482 7
1482 24
1482 37
1482 135
1482 594
1482 731
1482 916
1482 921
1482 1183
1482 1429
1483 0
1483 1
1483 2
1483 3
1483 30
1483 438
1483 491
1483 1611
1484 0
1484 1
1484 2
1484 3
1484 4
1484 7
1484 12
1484 41
1484 62
1484 251
1484 530
1484 606
1484 728
1484 731
1484 894
1484 922
1484 969
1484 1124
1484 1306
1484 1427
1484 1442
1484 1603
1485 0
1485 1
1485 2
1485 611
1486 0
1486 1
1486 2
1486 3
1486 6
1486 1149
1486 1517
1487 0
1487 1
1487 2
1487 3
1487 4
1487 5
1487 7
1487 9
1487 355
1487 624
1487 937
1487 995
1487 1062
1487 1094
1487 1128
1488 0
1488 2
1488 4
1488 5
1488 62
1488 850
1488 965
1488 1387
1489 0
1489 1
1489 2
1489 258
1489 281
1489 1517
1490 0
1490 1
1490 2
1490 3
1490 87
1490 169
1490 268
1490 379
1490 606
1490 1338
1490 1365
1490 1594
1491 0
1491 1
1491 2
1491 228
1491 258
1491 523
1491 530
1491 533
1491 546
1491 559
1491 577
1491 585
1491 607
1491 628
1491 629
1491 653
1491 659
1491 744
1491 750
1491 854
1491 855
1491 894
1491 1176
1492 0
1492 1
1492 2
1492 5
1492 87
1492 332
1492 408
1492 428
1492 627
1492 706
1492 1155
1492 1389
1493 1
1493 2
1493 21
1493 530
1494 0
1494 1
1494 2
1494 384
1494 654
1494 1401
1495 1
1495 2
1495 3
1495 6
1495 10
1495 42
1495 496
1495 684
1495 1030
1495 1397
1496 0
1496 1
1496 2
1496 3
1496 4
1496 32
1496 723
1496 1520
1497 0
1497 1
1497 2
1497 3
1497 4
1497 5
1497 6
1497 11
1497 30
1497 43
1497 78
1497 112
1497 209
1497 235
1497 780
1497 946
1497 1283
1497 1372
1497 1387
1497 1526
1497 1532
1497 1596
1498 0
1498 521
1498 531
1498 1499
1499 0
1499 1
1499 521
1499 699
1499 1498
1500 1
1500 2
1500 3
1500 530
1500 1071
1501 0
1501 2
1501 3
1501 4
1501 86
1501 102
1501 162
1501 188
1501 190
1501 532
1501 829
1501 963
1501 1166
1501 1213
1501 1374
1501 1558
1502 111
1502 132
1502 169
1502 275
1502 545
1502 982
1502 1387
1502 1391
1502 1427
1503 0
1503 1
1503 174
1503 434
1503 546
1503 679
1503 692
1503 747
1503 837
1503 894
1503 1445
1504 1
1504 4
1504 113
1504 222
1504 302
1504 359
1504 360
1504 532
1504 546
1504 549
1504 582
1504 830
1504 832
1504 854
1504 855
1504 968
1504 1442
1504 1443
1504 1444
1504 1445
1504 1446
1505 170
1505 551
1505 740
1505 829
1505 989
1506 135
1506 232
1506 561
1506 638
1506 1513
1507 42
1507 65
1507 82
1507 87
1507 108
1507 134
1507 301
1507 568
1507 584
1507 1009
1507 1251
1508 1
1508 66
1508 92
1508 107
1508 139
1508 169
1508 185
1508 196
1508 281
1508 359
1508 377
1508 426
1508 452
1508 468
1508 594
1508 634
1508 666
1508 937
1508 1008
1508 1031
1508 1062
1508 1080
1508 1094
1508 1095
1508 1097
1508 1102
1508 1113
1508 1182
1508 1206
1508 1308
1508 1309
1508 1415
1508 1427
1509 598
1510 590
1510 598
1510 1430
1510 1575
1511 598
1511 636
1511 789
1511 857
1511 896
1511 1081
1511 1594
1511 1602
1512 4
1512 41
1512 198
1512 236
1512 251
1512 287
1512 406
1512 584
1512 605
1512 620
1512 670
1512 739
1512 996
1512 1259
1512 1272
1512 1481
1513 0
1513 1
1513 2
1513 3
1513 4
1513 5
1513 6
1513 43
1513 127
1513 135
1513 168
1513 350
1513 375
1513 463
1513 517
1513 627
1513 994
1513 1134
1513 1387
1513 1449
1513 1506
1513 1595
1514 1
1514 2
1514 6
1514 8
1514 9
1514 30
1514 42
1514 57
1514 153
1514 177
1514 193
1514 317
1514 496
1514 627
1514 680
1514 947
1514 1029
1514 1030
1515 629
1515 663
1515 1003
1515 1274
1516 81
1516 308
1516 343
1516 629
1516 630
1516 657
1516 987
1516 1527
1516 1602
1517 610
1517 642
1517 1045
1517 1486
1517 1489
1518 116
1518 398
1518 585
1518 659
1519 0
1519 2
1519 3
1519 47
1519 64
1519 81
1519 88
1519 125
1519 133
1519 188
1519 281
1519 298
1519 342
1519 395
1519 566
1519 585
1519 702
1519 755
1519 756
1519 774
1519 785
1519 872
1519 1287
1520 197
1520 226
1520 281
1520 331
1520 386
1520 468
1520 511
1520 512
1520 669
1520 704
1520 814
1520 817
1520 886
1520 1004
1520 1189
1520 1230
1520 1232
1520 1294
1520 1295
1520 1416
1520 1496
1520 1622
1521 0
1521 3
1521 6
1521 9
1521 374
1521 391
1521 762
1521 918
1521 927
1521 934
1522 756
1522 757
1522 758
1522 763
1522 771
1522 1525
1523 81
1523 244
1523 765
1523 785
1523 870
1523 881
1524 403
1524 765
1524 870
1524 881
1525 0
1525 1
1525 2
1525 3
1525 5
1525 43
1525 81
1525 86
1525 292
1525 315
1525 473
1525 652
1525 654
1525 664
1525 668
1525 755
1525 763
1525 767
1525 775
1525 833
1525 839
1525 894
1525 913
1525 941
1525 947
1525 948
1525 1047
1525 1070
1525 1210
1525 1370
1525 1371
1525 1522
1525 1607
1526 3
1526 4
1526 48
1526 81
1526 231
1526 302
1526 532
1526 648
1526 699
1526 868
1526 968
1526 975
1526 995
1526 1155
1526 1416
1526 1444
1526 1497
1527 0
1527 1
1527 2
1527 3
1527 7
1527 34
1527 44
1527 308
1527 652
1527 1225
1527 1516
1528 0
1528 1
1528 3
1528 5
1528 10
1528 559
1529 1
1529 3
1529 4
1529 5
1529 8
1529 9
1529 374
1529 493
1529 559
1529 770
1529 776
1529 918
1529 927
1529 934
1529 948
1530 61
1530 365
1530 414
1530 627
1530 788
1530 862
1530 923
1530 973
1530 1044
1531 8
1531 11
1531 423
1531 489
1531 788
1531 799
1531 857
1531 917
1531 923
1531 932
1531 1437
1531 1532
1532 1
1532 3
1532 4
1532 82
1532 167
1532 409
1532 423
1532 540
1532 695
1532 780
1532 788
1532 857
1532 888
1532 905
1532 923
1532 935
1532 965
1532 975
1532 1269
1532 1280
1532 1419
1532 1429
1532 1497
1532 1531
1532 1584
1533 286
1533 392
1533 584
1533 789
1533 883
1533 1252
1533 1387
1534 156
1534 387
1534 761
1534 838
1534 866
1534 956
1535 5
1535 64
1535 156
1535 215
1535 292
1535 387
1535 761
1535 838
1535 866
1535 956
1535 1147
1536 2
1536 387
1536 602
1536 761
1536 838
1536 866
1536 956
1537 387
1537 838
1537 866
1538 0
1538 5
1538 6
1538 532
1538 776
1538 911
1538 1209
1539 1
1539 2
1539 3
1539 22
1539 45
1539 48
1539 248
1539 251
1539 962
1539 977
1539 1217
1539 1221
1539 1237
1539 1336
1539 1543
1540 1
1540 36
1540 81
1540 109
1540 341
1540 391
1540 431
1540 528
1540 708
1540 770
1540 803
1540 918
1540 981
1540 1025
1540 1072
1540 1218
1540 1263
1540 1416
1540 1417
1540 1607
1541 0
1541 1
1541 2
1541 3
1541 6
1541 9
1541 40
1541 245
1541 313
1541 377
1541 442
1541 964
1541 995
1541 1056
1541 1170
1541 1189
1542 0
1542 3
1542 4
1542 7
1542 18
1542 24
1542 240
1542 1051
1543 0
1543 1
1543 2
1543 3
1543 4
1543 5
1543 6
1543 8
1543 11
1543 20
1543 29
1543 31
1543 37
1543 46
1543 53
1543 89
1543 117
1543 157
1543 203
1543 245
1543 385
1543 477
1543 510
1543 530
1543 576
1543 767
1543 883
1543 909
1543 916
1543 929
1543 982
1543 1075
1543 1094
1543 1220
1543 1221
1543 1273
1543 1288
1543 1310
1543 1374
1543 1387
1543 1430
1543 1473
1543 1539
1544 0
1544 2
1544 4
1544 5
1544 7
1544 8
1544 9
1544 12
1544 20
1544 92
1544 165
1544 222
1544 432
1544 636
1544 696
1544 832
1544 961
1544 964
1544 984
1544 1069
1544 1079
1545 0
1545 1
1545 2
1545 3
1545 4
1545 19
1545 26
1545 43
1545 44
1545 141
1545 328
1545 329
1545 596
1545 653
1545 980
1545 1134
1545 1546
1546 2
1546 90
1546 137
1546 150
1546 187
1546 379
1546 1026
1546 1545
1547 0
1547 2
1547 3
1547 5
1547 538
1547 976
1547 1019
1547 1060
1548 1154
1549 62
1549 67
1549 93
1549 549
1549 577
1549 1154
1549 1552
1550 2
1550 71
1550 82
1550 83
1550 98
1550 132
1550 166
1550 187
1550 216
1550 254
1550 356
1550 365
1550 545
1550 549
1550 820
1550 998
1550 1001
1550 1154
1550 1155
1550 1224
1550 1416
1550 1430
1550 1577
1550 1608
1551 0
1551 1
1551 2
1551 6
1551 11
1551 73
1551 577
1551 1154
1551 1553
1551 1555
1551 1556
1552 0
1552 1
1552 2
1552 3
1552 68
1552 73
1552 1154
1552 1549
1552 1553
1553 2
1553 3
1553 4
1553 11
1553 73
1553 81
1553 98
1553 130
1553 136
1553 166
1553 169
1553 170
1553 187
1553 216
1553 255
1553 279
1553 335
1553 475
1553 551
1553 577
1553 661
1553 716
1553 815
1553 906
1553 995
1553 1001
1553 1154
1553 1551
1553 1552
1554 577
1554 1154
1555 62
1555 98
1555 166
1555 335
1555 998
1555 1020
1555 1154
1555 1551
1556 98
1556 166
1556 187
1556 356
1556 1154
1556 1551
1557 92
1557 556
1557 1166
1557 1213
1558 0
1558 2
1558 3
1558 4
1558 40
1558 51
1558 86
1558 190
1558 231
1558 445
1558 747
1558 752
1558 763
1558 839
1558 963
1558 1166
1558 1213
1558 1358
1558 1374
1558 1501
1558 1558
1559 0
1559 1
1559 2
1559 3
1559 4
1559 6
1559 203
1559 398
1559 414
1559 470
1559 517
1559 1375
1559 1382
1560 1
1560 66
1560 81
1560 162
1560 231
1560 501
1560 679
1560 684
1560 755
1560 767
1560 786
1560 854
1560 855
1560 1160
1560 1219
1561 0
1561 2
1561 23
1561 116
1561 1029
1561 1564
1561 1565
1562 3
1562 7
1562 25
1562 29
1562 31
1562 64
1562 387
1562 629
1562 792
1562 995
1562 1143
1563 64
1563 82
1563 242
1563 278
1563 287
1563 311
1563 893
1563 1077
1563 1078
1563 1081
1563 1234
1563 1235
1563 1236
1563 1326
1564 64
1564 116
1564 242
1564 278
1564 287
1564 311
1564 893
1564 925
1564 1077
1564 1078
1564 1081
1564 1233
1564 1234
1564 1235
1564 1236
1564 1319
1564 1561
1565 64
1565 116
1565 242
1565 278
1565 287
1565 311
1565 893
1565 1028
1565 1077
1565 1078
1565 1081
1565 1233
1565 1234
1565 1235
1565 1236
1565 1238
1565 1246
1565 1247
1565 1319
1565 1322
1565 1326
1565 1330
1565 1561
1566 4
1566 41
1566 93
1566 142
1566 298
1566 472
1566 507
1566 659
1566 675
1566 702
1566 733
1566 1238
1566 1247
1566 1312
1566 1313
1566 1318
1566 1320
1566 1321
1566 1322
1566 1335
1566 1336
1566 1600
1567 0
1567 1
1567 1357
1568 61
1569 61
1569 516
1569 655
1569 1578
1570 61
1570 782
1570 787
1570 848
1570 1142
1570 1578
1570 1596
1571 62
1572 0
1572 1
1572 2
1572 3
1572 5
1572 6
1572 8
1572 30
1572 62
1572 89
1572 92
1572 93
1572 208
1572 487
1572 647
1572 1219
1572 1387
1572 1390
1572 1394
1572 1395
1572 1397
1572 1417
1572 1459
1572 1479
1572 1602
1573 0
1573 1
1573 2
1573 71
1573 165
1573 322
1573 1399
1574 0
1574 1
1574 2
1574 3
1574 4
1574 43
1574 44
1574 82
1574 89
1574 165
1574 258
1574 309
1574 343
1574 355
1574 388
1574 413
1574 574
1574 608
1574 616
1574 703
1574 1392
1574 1420
1574 1575
1574 1588
1574 1608
1575 0
1575 1
1575 2
1575 3
1575 4
1575 5
1575 42
1575 62
1575 81
1575 149
1575 292
1575 461
1575 639
1575 672
1575 694
1575 753
1575 1369
1575 1388
1575 1415
1575 1426
1575 1455
1575 1456
1575 1510
1575 1574
1575 1595
1576 0
1576 1
1576 3
1576 4
1576 1367
1576 1468
1576 1477
1576 1625
1577 0
1577 1
1577 2
1577 3
1577 4
1577 30
1577 42
1577 43
1577 84
1577 103
1577 134
1577 165
1577 239
1577 243
1577 330
1577 365
1577 461
1577 536
1577 545
1577 725
1577 767
1577 795
1577 1053
1577 1154
1577 1390
1577 1476
1577 1477
1577 1550
1577 1606
1578 0
1578 1
1578 2
1578 3
1578 4
1578 5
1578 6
1578 30
1578 193
1578 459
1578 483
1578 551
1578 561
1578 636
1578 647
1578 720
1578 767
1578 864
1578 1076
1578 1155
1578 1387
1578 1472
1578 1569
1578 1570
1579 0
1579 99
1579 1393
1580 0
1580 48
1580 296
1580 736
1580 1626
1581 1
1581 48
1581 296
1581 631
1581 1416
1581 1626
1582 0
1582 1
1582 2
1582 3
1582 48
1582 779
1582 1416
1582 1626
1583 127
1583 137
1583 365
1583 608
1583 612
1583 1416
1584 0
1584 1
1584 2
1584 81
1584 131
1584 264
1584 265
1584 381
1584 1416
1584 1532
1584 1626
1585 3
1585 5
1585 81
1585 133
1585 161
1585 227
1585 261
1585 278
1585 697
1585 940
1585 1071
1585 1156
1585 1192
1585 1210
1585 1219
1585 1414
1585 1416
1585 1598
1586 0
1586 1
1586 6
1586 136
1586 899
1586 1416
1586 1420
1586 1599
1587 0
1587 658
1587 1417
1588 0
1588 1
1588 2
1588 83
1588 88
1588 263
1588 279
1588 308
1588 414
1588 569
1588 1117
1588 1119
1588 1417
1588 1574
1589 1
1589 36
1589 49
1589 106
1589 396
1589 447
1589 614
1589 939
1589 1142
1589 1417
1589 1607
1590 92
1590 285
1590 1418
1591 252
1591 348
1591 1403
1591 1417
1592 1
1592 2
1592 267
1592 1348
1593 0
1593 1
1593 267
1594 0
1594 1
1594 2
1594 3
1594 4
1594 6
1594 8
1594 9
1594 34
1594 38
1594 43
1594 81
1594 127
1594 135
1594 182
1594 391
1594 406
1594 407
1594 418
1594 441
1594 512
1594 543
1594 545
1594 572
1594 584
1594 774
1594 821
1594 1166
1594 1266
1594 1356
1594 1359
1594 1384
1594 1387
1594 1388
1594 1409
1594 1427
1594 1435
1594 1438
1594 1439
1594 1490
1594 1511
1594 1596
1594 1604
1594 1617
1594 1620
1595 0
1595 1
1595 2
1595 3
1595 4
1595 8
1595 43
1595 62
1595 198
1595 230
1595 441
1595 507
1595 882
1595 989
1595 1415
1595 1430
1595 1513
1595 1575
1596 0
1596 1
1596 2
1596 3
1596 5
1596 12
1596 30
1596 62
1596 476
1596 596
1596 1164
1596 1170
1596 1497
1596 1570
1596 1594
1597 0
1597 1
1597 2
1597 3
1597 4
1597 5
1597 37
1597 366
1597 1453
1598 0
1598 1
1598 2
1598 3
1598 4
1598 5
1598 8
1598 10
1598 34
1598 43
1598 44
1598 82
1598 92
1598 93
1598 99
1598 125
1598 130
1598 137
1598 296
1598 447
1598 487
1598 514
1598 546
1598 584
1598 597
1598 679
1598 694
1598 822
1598 843
1598 894
1598 975
1598 1219
1598 1256
1598 1349
1598 1390
1598 1416
1598 1435
1598 1436
1598 1457
1598 1459
1598 1460
1598 1585
1599 0
1599 1
1599 2
1599 3
1599 4
1599 6
1599 92
1599 112
1599 168
1599 178
1599 209
1599 219
1599 281
1599 359
1599 360
1599 519
1599 1387
1599 1586
1600 0
1600 1
1600 2
1600 4
1600 6
1600 681
1600 767
1600 1566
1601 0
1601 1
1602 0
1602 1
1602 2
1602 3
1602 5
1602 81
1602 235
1602 296
1602 420
1602 519
1602 631
1602 812
1602 948
1602 1252
1602 1417
1602 1422
1602 1466
1602 1468
1602 1511
1602 1516
1602 1572
1602 1608
1603 1
1603 3
1603 4
1603 6
1603 7
1603 9
1603 48
1603 75
1603 88
1603 183
1603 271
1603 302
1603 303
1603 493
1603 507
1603 594
1603 595
1603 648
1603 678
1603 759
1603 808
1603 1076
1603 1304
1603 1307
1603 1416
1603 1444
1603 1484
1604 0
1604 1
1604 2
1604 3
1604 5
1604 248
1604 251
1604 256
1604 292
1604 410
1604 1196
1604 1363
1604 1387
1604 1479
1604 1594
1605 0
1605 1
1606 0
1606 1
1606 2
1606 3
1606 106
1606 127
1606 203
1606 235
1606 292
1606 349
1606 563
1606 822
1606 1387
1606 1427
1606 1577
1606 1610
1607 0
1607 1
1607 2
1607 3
1607 4
1607 5
1607 6
1607 8
1607 44
1607 67
1607 98
1607 188
1607 281
1607 296
1607 404
1607 418
1607 543
1607 572
1607 627
1607 652
1607 664
1607 678
1607 911
1607 942
1607 961
1607 1305
1607 1387
1607 1390
1607 1420
1607 1442
1607 1444
1607 1525
1607 1540
1607 1589
1608 0
1608 1
1608 2
1608 3
1608 4
1608 261
1608 273
1608 454
1608 525
1608 549
1608 566
1608 572
1608 654
1608 788
1608 942
1608 1550
1608 1574
1608 1602
1609 1
1610 0
1610 1
1610 2
1610 3
1610 4
1610 5
1610 231
1610 290
1610 335
1610 367
1610 414
1610 1063
1610 1359
1610 1384
1610 1439
1610 1606
1611 66
1611 164
1611 294
1611 381
1611 491
1611 682
1611 702
1611 1483
1612 1
1612 2
1612 535
1612 660
1612 1612
1612 1613
1613 1
1613 2
1613 660
1613 1387
1613 1612
1614 0
1614 1
1614 2
1614 3
1614 34
1614 81
1614 88
1614 268
1614 309
1615 0
1615 1
1615 2
1615 3
1615 5
1615 7
1615 248
1615 251
1615 538
1615 1363
1616 0
1616 1
1616 2
1616 3
1616 4
1616 6
1616 281
1616 359
1616 1375
1617 0
1617 1
1617 2
1617 3
1617 4
1617 6
1617 10
1617 43
1617 44
1617 81
1617 243
1617 258
1617 329
1617 430
1617 627
1617 1070
1617 1260
1617 1359
1617 1369
1617 1594
1618 0
1618 1
1618 3
1618 408
1619 0
1619 1
1619 2
1619 3
1619 4
1619 42
1619 950
1620 0
1620 1
1620 2
1620 3
1620 4
1620 64
1620 81
1620 118
1620 191
1620 206
1620 215
1620 250
1620 292
1620 312
1620 356
1620 391
1620 460
1620 517
1620 539
1620 761
1620 852
1620 930
1620 956
1620 974
1620 995
1620 996
1620 1047
1620 1058
1620 1104
1620 1175
1620 1226
1620 1253
1620 1360
1620 1594
1621 0
1621 1
1621 2
1621 3
1621 4
1621 20
1621 795
1621 1300
1622 0
1622 1
1622 2
1622 3
1622 4
1622 7
1622 32
1622 436
1622 698
1622 886
1622 1098
1622 1520
1623 203
1624 0
1624 1
1624 62
1624 347
1624 368
1624 380
1624 1624
1625 358
1625 1417
1625 1576
1626 0
1626 1
1626 1580
1626 1581
1626 1582
1626 1584
1627 589
1627 1318
1627 1414
1627 1416
1628 120
1628 396
1628 520
1628 521
