0 12819
1 6418
1 9154
2 3550
2 5834
3 2914
3 3237
3 3330
3 8939
4 2665
4 2697
4 2703
4 2704
4 3015
5 2724
5 2742
5 2783
5 2784
5 2785
5 3990
6 1617
6 1698
6 1989
6 2384
6 2505
6 2942
6 3001
7 2497
7 2613
7 3046
7 3099
7 3100
7 3101
7 3102
7 12311
8 1136
8 1345
8 1357
8 1445
8 1447
8 1874
8 2358
8 2525
8 3173
9 925
9 1154
9 1838
9 2047
9 2736
9 2738
9 2781
9 2896
9 3212
9 3213
10 619
10 751
10 907
10 1173
10 1258
10 1579
10 1611
10 1774
10 2308
10 2619
10 3238
11 880
11 894
11 1030
11 1465
11 1699
11 1873
11 1957
11 2173
11 2281
11 2483
11 2735
11 3000
12 717
12 1079
12 1232
12 1233
12 1500
12 1707
12 1962
12 2095
12 2189
12 2383
12 2604
12 2804
12 3203
13 500
13 662
13 742
13 1098
13 1525
13 1620
13 1783
13 1803
13 1955
13 2522
13 2530
13 3085
13 3228
13 3274
14 442
14 460
14 467
14 570
14 586
14 705
14 816
14 833
14 877
14 940
14 1109
14 1345
14 1408
14 2345
14 3210
15 351
15 377
15 434
15 557
15 693
15 957
15 1022
15 1040
15 1298
15 1338
15 1392
15 1397
15 1399
15 1712
15 2879
15 3150
16 337
16 441
16 469
16 470
16 471
16 821
16 938
16 987
16 1119
16 1133
16 1619
16 1840
16 1879
16 2147
16 2248
16 2637
16 3185
17 663
17 842
17 936
17 1344
17 1491
17 1590
17 1624
17 1724
17 1746
17 2126
17 2298
17 2418
17 2756
17 2772
17 2779
17 2863
17 3011
17 3028
18 337
18 441
18 469
18 471
18 821
18 938
18 987
18 1133
18 1619
18 1673
18 1840
18 1879
18 2147
18 2248
18 2637
18 3184
18 3185
18 3294
18 3309
19 137
19 195
19 286
19 307
19 339
19 352
19 423
19 429
19 755
19 1121
19 1148
19 1568
19 1727
19 1885
19 1960
19 2113
19 2284
19 2675
19 2693
19 3086
20 164
20 397
20 594
20 602
20 680
20 927
20 1002
20 1006
20 1087
20 1337
20 1411
20 1471
20 1724
20 1844
20 2126
20 2158
20 2757
20 2918
20 3199
20 3246
20 3329
21 247
21 327
21 334
21 378
21 379
21 410
21 439
21 445
21 453
21 571
21 795
21 966
21 995
21 1282
21 1477
21 1518
21 1589
21 1832
21 2097
21 2214
21 2725
21 2782
22 204
22 280
22 334
22 342
22 378
22 379
22 414
22 424
22 428
22 439
22 453
22 464
22 554
22 795
22 905
22 1477
22 1645
22 1718
22 1745
22 2421
22 2606
22 3258
22 3332
23 78
23 175
23 230
23 307
23 387
23 414
23 424
23 425
23 431
23 476
23 483
23 498
23 557
23 703
23 713
23 879
23 1102
23 1160
23 1906
23 2236
23 2390
23 2598
23 3086
23 3335
24 39
24 40
24 44
24 48
24 58
24 63
24 73
24 75
24 83
24 383
24 553
24 586
24 740
24 958
24 1194
24 1607
24 1673
24 1894
24 2637
24 2685
24 2759
24 2973
24 3313
24 3336
24 3337
25 126
25 261
25 339
25 362
25 364
25 381
25 449
25 466
25 521
25 660
25 679
25 716
25 894
25 902
25 1258
25 1378
25 1519
25 1662
25 1697
25 1701
25 1784
25 1957
25 2000
25 2069
25 2463
25 2624
26 66
26 134
26 175
26 204
26 260
26 279
26 281
26 351
26 360
26 424
26 429
26 431
26 498
26 703
26 713
26 879
26 883
26 1102
26 1160
26 1277
26 1380
26 1745
26 2236
26 2436
26 2828
26 2900
26 3086
27 104
27 189
27 229
27 341
27 365
27 431
27 451
27 808
27 830
27 854
27 879
27 1366
27 1530
27 1592
27 1685
27 1815
27 1888
27 1910
27 2124
27 2146
27 2246
27 2585
27 2881
27 3283
27 3305
27 3306
27 3307
28 159
28 331
28 332
28 381
28 466
28 482
28 487
28 679
28 716
28 870
28 876
28 967
28 1157
28 1392
28 1454
28 1519
28 1784
28 1831
28 2013
28 2014
28 2033
28 2043
28 2432
28 2463
28 2740
28 3001
28 3339
28 3340
28 3341
29 118
29 197
29 323
29 324
29 452
29 623
29 1043
29 1108
29 1136
29 1333
29 1345
29 1357
29 1445
29 1447
29 1859
29 1874
29 1879
29 2132
29 2175
29 2336
29 2358
29 2525
29 2565
29 2837
29 2951
29 3069
29 3173
29 3244
29 3320
29 3342
30 60
30 190
30 246
30 321
30 343
30 441
30 458
30 462
30 471
30 474
30 752
30 759
30 930
30 1073
30 1110
30 1146
30 1345
30 1495
30 1549
30 1651
30 1673
30 1791
30 2143
30 2339
30 2469
30 3005
30 3089
30 3184
30 3211
30 3261
30 3321
31 34
31 53
31 93
31 171
31 207
31 317
31 408
31 651
31 731
31 825
31 929
31 1054
31 1120
31 1135
31 1183
31 1467
31 1476
31 1505
31 1674
31 1855
31 1894
31 2021
31 2112
31 2248
31 2302
31 2324
31 2349
31 2883
31 3185
31 3196
31 3211
31 3287
32 93
32 200
32 309
32 337
32 411
32 441
32 462
32 469
32 547
32 718
32 774
32 777
32 938
32 1232
32 1236
32 1562
32 1619
32 1840
32 1879
32 2021
32 2095
32 2266
32 2637
32 2699
32 2805
32 2849
32 2925
32 3009
32 3196
32 3197
32 3256
32 3309
32 3345
33 82
33 185
33 192
33 248
33 283
33 366
33 405
33 415
33 418
33 422
33 478
33 497
33 591
33 601
33 651
33 804
33 841
33 903
33 1153
33 1198
33 1214
33 1353
33 1496
33 1507
33 1533
33 1602
33 1655
33 1827
33 2331
33 2540
33 2550
33 2817
33 3084
33 3346
34 31
34 40
34 44
34 58
34 63
34 64
34 163
34 908
34 958
34 1119
34 1171
34 1194
34 1333
34 1485
34 1607
34 1843
34 1874
34 2230
34 2349
34 2761
34 3098
34 3342
34 3347
34 3348
34 3349
34 3350
34 3351
34 3352
34 3353
34 3354
34 3355
34 3356
34 3917
34 5471
34 6102
35 116
35 137
35 279
35 341
35 390
35 451
35 637
35 714
35 741
35 813
35 956
35 1012
35 1160
35 1335
35 1555
35 1703
35 1817
35 1863
35 2131
35 2181
35 2196
35 2215
35 2261
35 2421
35 2439
35 2577
35 2767
35 2926
35 3076
35 3283
35 3357
35 3358
35 3359
35 3360
35 3361
35 3362
36 126
36 242
36 338
36 362
36 385
36 427
36 434
36 449
36 466
36 880
36 894
36 1067
36 1399
36 1423
36 1465
36 1510
36 1699
36 1760
36 1784
36 1823
36 1873
36 1957
36 2000
36 2173
36 2388
36 2463
36 2483
36 2567
36 2644
36 2663
36 2735
36 2753
36 2832
36 3000
36 3008
36 3201
36 3252
37 46
37 61
37 79
37 295
37 307
37 328
37 362
37 364
37 449
37 455
37 466
37 476
37 674
37 679
37 743
37 902
37 1137
37 1177
37 1541
37 1697
37 1699
37 1759
37 1957
37 2069
37 2113
37 2128
37 2129
37 2173
37 2267
37 2463
37 2799
37 2800
37 3252
37 3363
37 3364
37 3365
37 3366
37 3461
38 118
38 190
38 197
38 323
38 324
38 343
38 452
38 474
38 586
38 650
38 1043
38 1108
38 1136
38 1333
38 1345
38 1357
38 1383
38 1445
38 1511
38 1859
38 1874
38 1879
38 1961
38 2094
38 2143
38 2175
38 2336
38 2354
38 2525
38 2565
38 2579
38 2837
38 2951
38 3070
38 3173
38 3211
38 3244
38 3320
38 3367
39 24
39 58
39 63
39 64
39 75
39 172
39 227
39 314
39 324
39 404
39 426
39 460
39 470
39 689
39 690
39 952
39 1108
39 1136
39 1167
39 1242
39 1667
39 1854
39 1951
39 2065
39 2191
39 2327
39 2328
39 2623
39 2702
39 2734
39 2952
39 3079
39 3368
39 3369
39 3370
39 3371
39 3372
39 3373
39 3374
39 5591
40 24
40 34
40 44
40 185
40 190
40 314
40 322
40 383
40 388
40 406
40 474
40 475
40 536
40 553
40 684
40 752
40 821
40 987
40 1108
40 1109
40 1119
40 1120
40 1163
40 1169
40 1183
40 1319
40 1562
40 1827
40 1894
40 1959
40 1961
40 2252
40 2253
40 2349
40 2351
40 2761
40 2883
40 3089
40 3211
40 3261
40 3278
41 150
41 242
41 261
41 328
41 331
41 332
41 362
41 364
41 381
41 449
41 466
41 482
41 521
41 660
41 679
41 716
41 828
41 894
41 902
41 957
41 1022
41 1157
41 1362
41 1392
41 1487
41 1519
41 1662
41 1697
41 1784
41 1957
41 2000
41 2013
41 2043
41 2069
41 2120
41 2463
41 2624
41 2740
41 3008
41 3339
41 3341
41 3375
42 45
42 62
42 87
42 522
42 906
42 1029
42 1033
42 1170
42 1388
42 1773
42 1905
42 2006
42 2184
42 2274
42 2275
42 2632
42 2717
42 2793
42 2827
42 2885
42 3030
42 3146
42 3147
42 3227
42 3376
42 3377
42 3378
42 3379
42 3380
42 3381
42 3382
42 3383
42 3384
42 3385
42 3408
42 3495
42 3502
42 3503
42 3649
42 3661
42 3758
42 3859
43 75
43 92
43 94
43 187
43 197
43 325
43 419
43 426
43 452
43 468
43 472
43 547
43 681
43 683
43 702
43 776
43 829
43 848
43 853
43 1079
43 1109
43 1112
43 1138
43 1161
43 1316
43 1641
43 1656
43 1743
43 1776
43 1826
43 2235
43 2272
43 2383
43 2457
43 2554
43 2694
43 2908
43 2952
43 3021
43 3079
43 3260
43 3386
43 3387
43 3388
44 24
44 34
44 40
44 48
44 49
44 73
44 337
44 383
44 386
44 395
44 470
44 472
44 585
44 929
44 1345
44 1843
44 2106
44 2253
44 2734
44 2837
44 3349
44 3389
44 3390
44 3391
44 3392
44 3393
44 3394
44 3395
44 3396
44 3397
44 3398
44 3399
44 3943
44 4099
44 4924
44 5215
44 5486
44 5879
44 6112
44 6516
44 7341
44 8814
44 9591
44 9974
44 10714
45 42
45 62
45 77
45 87
45 345
45 496
45 739
45 835
45 1029
45 1033
45 1114
45 1191
45 1231
45 1235
45 1278
45 1482
45 1489
45 1709
45 1761
45 1886
45 1905
45 1994
45 2006
45 2074
45 2184
45 2268
45 2360
45 2626
45 2815
45 2912
45 2924
45 2929
45 3030
45 3325
45 3326
45 3327
45 3400
45 3401
45 3402
45 3403
45 3404
45 3405
45 3406
45 3407
45 3408
45 3655
46 37
46 105
46 217
46 242
46 295
46 310
46 328
46 339
46 362
46 364
46 427
46 449
46 455
46 466
46 476
46 482
46 660
46 674
46 743
46 880
46 894
46 902
46 1067
46 1362
46 1399
46 1487
46 1531
46 1541
46 1662
46 1697
46 1725
46 1759
46 1784
46 1812
46 1957
46 2000
46 2069
46 2128
46 2129
46 2267
46 2338
46 2463
46 2483
46 2567
46 2624
46 2799
46 2800
47 55
47 313
47 375
47 396
47 398
47 619
47 831
47 986
47 1041
47 1181
47 1519
47 1567
47 1606
47 1617
47 1784
47 1896
47 2060
47 2174
47 2220
47 2378
47 2467
47 2638
47 2641
47 2684
47 2740
47 2771
47 2786
47 2892
47 2893
47 2921
47 3409
47 3410
47 3411
47 3412
47 3413
47 3414
47 3415
47 3416
47 3417
47 3418
47 4714
47 4946
47 5315
47 5541
47 6561
48 24
48 44
48 93
48 190
48 322
48 337
48 474
48 553
48 731
48 929
48 930
48 1032
48 1111
48 1183
48 1186
48 1223
48 1232
48 1345
48 1566
48 1619
48 1741
48 1743
48 1828
48 1840
48 1849
48 1855
48 1879
48 1894
48 1962
48 2095
48 2732
48 2752
48 2804
48 2805
48 2849
48 2883
48 2884
48 2960
48 2973
48 3037
48 3079
48 3089
48 3160
48 3197
48 3202
48 3211
48 3287
48 3419
48 3420
49 44
49 54
49 60
49 77
49 93
49 95
49 186
49 246
49 264
49 331
49 333
49 353
49 375
49 441
49 452
49 457
49 462
49 466
49 470
49 472
49 730
49 739
49 775
49 802
49 938
49 967
49 1090
49 1110
49 1139
49 1184
49 1220
49 1222
49 1346
49 1372
49 1482
49 1531
49 1549
49 1601
49 1813
49 1926
49 1995
49 2205
49 2469
49 2651
49 2745
49 2797
49 2866
49 3077
49 3406
49 3421
50 60
50 73
50 93
50 115
50 337
50 349
50 441
50 468
50 469
50 471
50 717
50 821
50 938
50 987
50 1139
50 1146
50 1163
50 1223
50 1232
50 1418
50 1476
50 1500
50 1511
50 1619
50 1770
50 1840
50 1879
50 2021
50 2095
50 2143
50 2147
50 2190
50 2204
50 2266
50 2604
50 2637
50 2659
50 2699
50 2733
50 2761
50 2804
50 2805
50 2849
50 3009
50 3098
50 3197
50 3203
50 3255
50 3309
50 3422
50 3423
51 71
51 79
51 145
51 230
51 273
51 279
51 280
51 281
51 414
51 423
51 424
51 428
51 429
51 450
51 533
51 609
51 707
51 729
51 744
51 800
51 882
51 913
51 992
51 1021
51 1022
51 1113
51 1126
51 1164
51 1257
51 1260
51 1518
51 1539
51 1585
51 1863
51 1906
51 1925
51 1974
51 1990
51 2018
51 2160
51 2434
51 2442
51 2517
51 2518
51 2664
51 2835
51 2844
51 2949
51 2975
51 3088
51 3225
51 3424
52 172
52 186
52 237
52 283
52 285
52 343
52 350
52 366
52 383
52 441
52 462
52 474
52 475
52 683
52 711
52 804
52 821
52 822
52 1120
52 1133
52 1146
52 1169
52 1186
52 1319
52 1403
52 1496
52 1561
52 1655
52 1674
52 1681
52 1758
52 1837
52 1849
52 1961
52 2143
52 2147
52 2151
52 2336
52 2351
52 2377
52 2475
52 2579
52 2637
52 2674
52 2760
52 2761
52 2817
52 3005
52 3129
52 3236
52 3261
52 3278
52 3425
53 31
53 73
53 115
53 190
53 198
53 322
53 468
53 470
53 475
53 553
53 586
53 731
53 908
53 929
53 1132
53 1163
53 1183
53 1196
53 1507
53 1521
53 1663
53 1739
53 1776
53 1841
53 1843
53 1849
53 2094
53 2266
53 2302
53 2303
53 2331
53 2358
53 2883
53 2927
53 2973
53 2993
53 3211
53 3346
53 3349
53 3355
53 3391
53 3426
53 3427
53 3428
53 3429
53 3430
53 3431
53 3432
53 3433
53 3434
53 3435
53 3436
53 4313
53 6104
54 49
54 60
54 68
54 70
54 344
54 408
54 436
54 437
54 480
54 775
54 893
54 1114
54 1170
54 1184
54 1495
54 1729
54 2268
54 2274
54 2275
54 2420
54 2449
54 2895
54 2919
54 3077
54 3152
54 3399
54 3437
54 3438
54 3439
54 3440
54 3441
54 3442
54 3443
54 3444
54 3445
54 3446
54 3447
54 3448
54 3485
54 3551
54 3555
54 4370
54 4373
54 4595
54 4598
54 4604
54 4687
54 5146
54 5620
54 5847
54 6812
54 8798
54 9995
54 10559
55 47
55 203
55 331
55 398
55 459
55 526
55 730
55 1041
55 1143
55 1157
55 1399
55 1830
55 1831
55 2013
55 2014
55 2467
55 2640
55 2684
55 2956
55 3363
55 3414
55 3417
55 3449
55 3450
55 3451
55 3452
55 3453
55 3454
55 3455
55 3456
55 3457
55 3458
55 3459
55 3460
55 3461
55 3462
55 3463
55 3507
55 3768
55 4179
55 5061
55 5066
55 5233
55 5449
55 5482
55 5483
55 9606
55 9796
55 10638
55 10698
55 10776
56 72
56 79
56 106
56 134
56 138
56 195
56 208
56 216
56 250
56 307
56 328
56 387
56 396
56 417
56 423
56 430
56 557
56 687
56 755
56 856
56 882
56 943
56 1060
56 1121
56 1137
56 1148
56 1177
56 1202
56 1234
56 1339
56 1450
56 1568
56 1591
56 1604
56 1701
56 1727
56 1804
56 1937
56 1957
56 1960
56 2113
56 2133
56 2145
56 2355
56 2474
56 2600
56 2675
56 2693
56 2787
56 2836
56 2841
56 2844
56 2877
56 2997
56 3017
56 3464
56 3465
57 98
57 126
57 161
57 242
57 261
57 271
57 310
57 338
57 345
57 362
57 385
57 409
57 427
57 449
57 455
57 466
57 476
57 880
57 894
57 1030
57 1067
57 1192
57 1306
57 1423
57 1465
57 1487
57 1510
57 1653
57 1699
57 1702
57 1760
57 1784
57 1812
57 1823
57 1873
57 1956
57 1957
57 2000
57 2173
57 2267
57 2281
57 2315
57 2463
57 2483
57 2567
57 2589
57 2644
57 2663
57 2735
57 2753
57 2832
57 3008
57 3011
57 3252
57 3322
57 3466
57 3467
57 3468
58 24
58 34
58 39
58 75
58 83
58 92
58 115
58 186
58 237
58 321
58 343
58 350
58 406
58 415
58 426
58 452
58 460
58 462
58 470
58 474
58 553
58 570
58 683
58 684
58 721
58 776
58 821
58 1032
58 1108
58 1132
58 1133
58 1169
58 1171
58 1345
58 1549
58 1607
58 1619
58 1673
58 1700
58 1790
58 1849
58 1894
58 1951
58 1959
58 2021
58 2112
58 2191
58 2253
58 2302
58 2327
58 2377
58 2685
58 2734
58 2883
58 2969
58 2973
58 3106
58 3273
58 3321
59 78
59 94
59 126
59 161
59 242
59 261
59 313
59 338
59 362
59 385
59 409
59 427
59 434
59 449
59 455
59 476
59 622
59 880
59 902
59 1030
59 1067
59 1278
59 1399
59 1423
59 1465
59 1487
59 1510
59 1653
59 1697
59 1699
59 1702
59 1760
59 1784
59 1823
59 1873
59 1907
59 1957
59 2000
59 2267
59 2281
59 2463
59 2483
59 2567
59 2589
59 2624
59 2644
59 2663
59 2735
59 2753
59 2832
59 3008
59 3162
59 3201
59 3252
59 3322
59 3466
59 3469
59 3470
59 3471
59 3472
60 30
60 49
60 50
60 54
60 70
60 309
60 461
60 731
60 771
60 890
60 893
60 938
60 1400
60 1521
60 1640
60 1833
60 2094
60 2190
60 2339
60 2622
60 2632
60 2849
60 3203
60 3354
60 3355
60 3441
60 3446
60 3473
60 3474
60 3475
60 3476
60 3477
60 3478
60 3479
60 3480
60 3481
60 3482
60 3483
60 3484
60 3485
60 3486
60 3487
60 3488
60 3799
60 4142
60 4604
60 4831
60 4922
60 4990
60 5059
60 5079
60 6018
60 6022
60 6023
60 6241
60 6728
60 7336
60 7923
60 12336
61 37
61 120
61 260
61 262
61 328
61 425
61 449
61 482
61 555
61 563
61 633
61 674
61 706
61 797
61 814
61 883
61 942
61 957
61 1008
61 1012
61 1014
61 1046
61 1177
61 1181
61 1586
61 1699
61 1701
61 1712
61 1756
61 1866
61 1868
61 1935
61 1937
61 1969
61 2014
61 2015
61 2069
61 2113
61 2134
61 2173
61 2261
61 2426
61 2434
61 2472
61 2509
61 2593
61 2661
61 2714
61 2747
61 2833
61 2897
61 2904
61 2924
61 3115
61 3249
61 3252
61 3281
61 3489
61 3490
61 3491
61 3492
61 9880
62 42
62 45
62 70
62 345
62 522
62 906
62 1029
62 1033
62 1170
62 1191
62 1388
62 1552
62 1709
62 1773
62 1905
62 2006
62 2027
62 2184
62 2268
62 2274
62 2275
62 2717
62 2751
62 2793
62 2827
62 2885
62 2912
62 2929
62 3031
62 3127
62 3146
62 3147
62 3377
62 3381
62 3385
62 3403
62 3404
62 3408
62 3493
62 3494
62 3495
62 3496
62 3497
62 3498
62 3499
62 3500
62 3501
62 3502
62 3503
62 3654
62 3659
62 3665
62 3752
62 3756
62 5185
62 10666
62 11096
63 24
63 34
63 39
63 92
63 115
63 186
63 237
63 321
63 343
63 350
63 426
63 452
63 462
63 470
63 474
63 553
63 683
63 684
63 721
63 776
63 821
63 848
63 1013
63 1032
63 1108
63 1132
63 1133
63 1159
63 1169
63 1171
63 1316
63 1345
63 1607
63 1619
63 1641
63 1673
63 1674
63 1700
63 1790
63 1849
63 1951
63 1959
63 2021
63 2112
63 2253
63 2272
63 2302
63 2327
63 2358
63 2377
63 2674
63 2685
63 2734
63 2791
63 2883
63 2951
63 2969
63 2973
63 3106
63 3129
63 3244
63 3273
63 3321
63 3504
64 34
64 39
64 75
64 94
64 186
64 199
64 237
64 290
64 343
64 404
64 426
64 452
64 460
64 462
64 469
64 547
64 568
64 681
64 683
64 774
64 829
64 848
64 853
64 1079
64 1109
64 1138
64 1332
64 1470
64 1508
64 1656
64 1743
64 1776
64 1790
64 1805
64 1826
64 1860
64 1879
64 1951
64 2065
64 2067
64 2112
64 2175
64 2259
64 2327
64 2468
64 2523
64 2623
64 2635
64 2702
64 2733
64 2811
64 2908
64 2952
64 2955
64 2970
64 2973
64 3020
64 3021
64 3079
64 3200
64 3260
64 3297
64 3313
64 3370
64 3505
64 3506
65 81
65 396
65 421
65 2443
65 2738
65 3365
65 3507
65 3508
65 3509
65 3510
65 3511
65 3512
65 3513
65 3514
65 3515
65 3516
65 3517
65 3518
65 3519
65 3520
65 3521
65 3522
65 3596
65 3601
65 3668
65 3683
65 4009
65 4209
65 4349
65 5209
65 5210
65 5334
65 5426
65 5436
65 5749
65 5921
65 6524
65 6551
65 6626
65 8530
65 8685
65 9531
65 9710
65 9890
65 10095
65 10283
65 10518
65 10600
65 12114
65 12176
66 26
66 71
66 424
66 2247
66 2991
66 3522
66 3523
66 3524
66 3525
66 3526
66 3527
66 3528
66 3529
66 3530
66 3531
66 3532
66 3533
66 3534
66 3535
66 3536
66 4394
66 4395
66 4401
66 4406
66 4735
66 4736
66 4740
66 4741
66 4745
66 4762
66 4763
66 5092
66 5435
66 5741
66 5744
66 5750
66 5751
66 5753
66 5754
66 6060
66 6061
66 6068
66 6250
66 6541
66 6778
66 7324
66 8783
66 9367
66 10943
66 11112
66 11442
67 78
67 98
67 126
67 161
67 261
67 271
67 310
67 338
67 362
67 374
67 385
67 427
67 449
67 455
67 466
67 476
67 622
67 706
67 712
67 880
67 894
67 902
67 1030
67 1067
67 1192
67 1278
67 1297
67 1344
67 1399
67 1423
67 1465
67 1487
67 1510
67 1653
67 1699
67 1702
67 1760
67 1784
67 1812
67 1823
67 1873
67 1957
67 2000
67 2173
67 2267
67 2281
67 2289
67 2388
67 2463
67 2483
67 2567
67 2589
67 2590
67 2644
67 2663
67 2735
67 2753
67 2831
67 2832
67 2977
67 3008
67 3201
67 3252
67 3322
67 3466
67 3467
67 3468
67 3537
67 3538
68 54
68 70
68 77
68 200
68 340
68 344
68 392
68 436
68 437
68 452
68 621
68 737
68 874
68 938
68 1018
68 1136
68 1170
68 1184
68 1482
68 1495
68 1679
68 1709
68 1729
68 2191
68 2263
68 2367
68 2420
68 2561
68 2620
68 2720
68 2839
68 2870
68 2937
68 3009
68 3227
68 3320
68 3399
68 3539
68 3540
68 3541
68 3542
68 3543
68 3544
68 3545
68 3546
68 3547
68 3548
68 3549
68 3550
68 3551
68 3552
68 3553
68 3554
68 3555
68 3556
68 3557
68 4288
68 5075
68 5179
68 6664
68 6799
68 6800
68 7281
68 7282
68 7976
68 8824
68 9263
69 71
69 110
69 116
69 136
69 189
69 201
69 202
69 226
69 272
69 279
69 284
69 326
69 368
69 450
69 591
69 612
69 741
69 744
69 879
69 913
69 1002
69 1014
69 1021
69 1121
69 1147
69 1286
69 1335
69 1523
69 1524
69 1703
69 1724
69 1769
69 1817
69 1902
69 1980
69 2123
69 2149
69 2181
69 2196
69 2277
69 2421
69 2435
69 2518
69 2577
69 2609
69 2721
69 2796
69 2844
69 3062
69 3076
69 3239
69 3282
69 3328
69 3361
69 3558
69 3559
69 3560
69 3561
69 3562
69 3563
69 3564
69 3565
69 3566
69 3567
69 3568
69 3569
69 3570
69 3574
69 3578
69 3846
69 5951
70 54
70 60
70 62
70 68
70 77
70 93
70 95
70 184
70 188
70 237
70 246
70 263
70 337
70 340
70 344
70 395
70 408
70 411
70 441
70 458
70 462
70 469
70 472
70 737
70 775
70 816
70 893
70 938
70 1073
70 1112
70 1139
70 1162
70 1184
70 1232
70 1243
70 1345
70 1346
70 1497
70 1500
70 1506
70 1651
70 1729
70 1840
70 1879
70 2068
70 2074
70 2191
70 2192
70 2235
70 2253
70 2266
70 2268
70 2499
70 2559
70 2561
70 2699
70 2720
70 2761
70 2805
70 2895
70 2934
70 2951
70 2966
70 3009
70 3031
70 3129
70 3184
70 3185
70 3255
70 3313
70 3386
70 3548
70 3571
70 3572
71 51
71 66
71 69
71 81
71 88
71 110
71 202
71 223
71 273
71 275
71 276
71 279
71 284
71 315
71 316
71 341
71 342
71 360
71 378
71 387
71 410
71 414
71 423
71 424
71 425
71 431
71 576
71 578
71 781
71 882
71 883
71 968
71 1075
71 1113
71 1147
71 1523
71 1645
71 1688
71 1730
71 1835
71 1892
71 1974
71 2032
71 2107
71 2181
71 2333
71 2379
71 2399
71 2429
71 2518
71 2782
71 3010
71 3076
71 3087
71 3176
71 3310
71 3570
71 3573
71 3574
71 3575
71 3576
71 3577
71 3578
71 3579
71 3580
71 3581
71 3582
71 3583
71 3584
71 3585
71 3851
71 5166
71 6862
71 8944
72 56
72 79
72 239
72 421
72 939
72 1176
72 1963
72 3517
72 3535
72 3586
72 3587
72 3588
72 3589
72 3590
72 3591
72 3592
72 3593
72 3594
72 3595
72 3596
72 3597
72 3598
72 3599
72 3600
72 3601
72 3602
72 3742
72 4058
72 4206
72 4453
72 4901
72 4905
72 4909
72 5576
72 5686
72 5742
72 5796
72 5801
72 5870
72 6304
72 6949
72 7350
72 7572
72 7751
72 8616
72 8618
72 8953
72 9529
72 9634
72 10023
72 10315
73 24
73 44
73 50
73 53
73 92
73 93
73 190
73 197
73 237
73 322
73 337
73 472
73 474
73 537
73 553
73 565
73 717
73 731
73 929
73 930
73 1013
73 1032
73 1111
73 1163
73 1183
73 1194
73 1223
73 1229
73 1232
73 1305
73 1319
73 1345
73 1503
73 1566
73 1707
73 1743
73 1797
73 1828
73 1840
73 1849
73 1855
73 1879
73 1894
73 1959
73 1962
73 2095
73 2189
73 2264
73 2349
73 2558
73 2604
73 2622
73 2732
73 2752
73 2761
73 2784
73 2804
73 2805
73 2883
73 2884
73 2927
73 2960
73 2973
73 3089
73 3113
73 3126
73 3197
73 3202
73 3211
73 3273
73 3287
73 3297
73 3309
73 3313
73 3386
73 3419
73 3420
73 3603
73 3604
73 7199
74 838
74 1732
74 3605
74 3606
74 3607
74 3608
74 3609
74 3610
74 3611
74 5043
74 5048
74 5279
74 5280
74 5283
74 5857
74 5858
74 5863
74 6187
74 7657
74 7660
74 7819
74 8192
74 8193
74 8975
74 9308
74 9803
74 10114
74 10567
74 10568
74 10575
74 10899
74 12217
75 24
75 39
75 43
75 58
75 64
75 92
75 184
75 185
75 237
75 324
75 349
75 426
75 586
75 629
75 683
75 689
75 690
75 821
75 1138
75 1159
75 1183
75 1185
75 1316
75 1346
75 1412
75 1467
75 1533
75 1556
75 1673
75 1734
75 1761
75 2191
75 2253
75 2459
75 2540
75 2550
75 2734
75 2973
75 3373
75 3429
75 3612
75 3613
75 3614
75 3615
75 3616
75 3617
75 3618
75 3619
75 3620
75 3621
75 3622
75 3623
75 3624
75 3625
75 3626
75 3809
75 3972
75 4244
75 4253
75 4255
75 4302
75 4303
75 4307
75 4316
75 4318
75 4322
75 4686
75 4955
75 5349
75 5595
75 6034
75 6100
75 6129
75 6598
75 6658
75 7054
75 7083
75 8430
75 9855
75 10572
76 82
76 155
76 338
76 467
76 930
76 1020
76 1169
76 1505
76 1569
76 1770
76 1837
76 2311
76 2312
76 2655
76 2739
76 2853
76 3052
76 3196
76 3197
76 3627
76 3628
76 3629
76 3630
76 3631
76 3632
76 3633
76 3634
76 3635
76 3636
76 3637
76 3638
76 3639
76 3640
76 3656
76 3680
76 3719
76 3745
76 3854
76 3869
76 4050
76 4072
76 4265
76 4278
76 4359
76 4560
76 4787
76 4957
76 5101
76 5103
76 5128
76 5129
76 5202
76 5223
76 5350
76 5662
76 5663
76 6045
76 6234
76 6240
76 6618
76 6920
76 7433
76 7477
76 7518
76 7540
76 7543
76 7584
76 8059
76 8188
76 8236
76 8437
76 8446
76 8456
76 8586
76 8707
76 8943
76 9147
76 9149
76 9189
76 9299
76 9452
76 9712
76 9965
76 9998
76 10756
76 10764
76 10908
76 11687
77 45
77 49
77 68
77 70
77 344
77 395
77 548
77 587
77 705
77 904
77 1033
77 1170
77 1184
77 1196
77 1243
77 1552
77 1778
77 1905
77 1994
77 1996
77 2116
77 2275
77 2359
77 2401
77 2717
77 2751
77 3124
77 3381
77 3383
77 3384
77 3486
77 3501
77 3515
77 3544
77 3641
77 3642
77 3643
77 3644
77 3645
77 3646
77 3647
77 3648
77 3649
77 3650
77 3651
77 3652
77 3653
77 3654
77 3655
77 3656
77 3657
77 3658
77 3659
77 3660
77 3661
77 3662
77 3663
77 3664
77 3665
77 3779
77 3819
77 3924
77 4269
77 4287
77 4704
77 4777
77 5182
77 5184
77 5245
77 5730
77 5916
77 6120
77 6233
77 6429
77 6484
77 6486
77 6488
77 6492
77 6718
77 7049
77 7370
77 7575
77 9012
77 9127
77 9291
77 9561
77 9779
77 9920
77 10058
77 10073
77 10135
77 10136
77 10533
77 11689
77 11946
77 11957
78 23
78 59
78 67
78 81
78 208
78 377
78 396
78 555
78 886
78 1121
78 1355
78 1375
78 1621
78 1702
78 1740
78 1747
78 1750
78 2443
78 2467
78 2663
78 2880
78 2956
78 3449
78 3452
78 3507
78 3520
78 3529
78 3666
78 3667
78 3668
78 3669
78 3670
78 3671
78 3672
78 3673
78 3674
78 3675
78 3676
78 3677
78 3678
78 3679
78 3680
78 3681
78 3682
78 3683
78 3769
78 3900
78 3993
78 4047
78 4048
78 4093
78 4095
78 4096
78 4112
78 4213
78 4214
78 4218
78 4220
78 4293
78 4908
78 4948
78 5165
78 5238
78 5290
78 5291
78 5338
78 5503
78 5694
78 5717
78 5805
78 5806
78 6305
78 6528
78 6627
78 7109
78 7236
78 7625
78 7752
78 7972
78 8556
78 8672
78 9729
78 9847
78 11761
78 12158
78 12283
79 37
79 51
79 56
79 72
79 81
79 120
79 134
79 137
79 138
79 165
79 195
79 208
79 216
79 239
79 245
79 250
79 251
79 281
79 286
79 307
79 328
79 332
79 352
79 387
79 391
79 396
79 414
79 417
79 423
79 429
79 554
79 555
79 557
79 657
79 687
79 720
79 755
79 797
79 856
79 882
79 947
79 988
79 1012
79 1060
79 1121
79 1128
79 1137
79 1148
79 1176
79 1177
79 1181
79 1202
79 1234
79 1262
79 1420
79 1428
79 1431
79 1450
79 1515
79 1568
79 1572
79 1591
79 1604
79 1610
79 1645
79 1697
79 1701
79 1727
79 1756
79 1804
79 1808
79 1821
79 1875
79 1885
79 1892
79 1935
79 1937
79 1957
79 1960
79 2071
79 2079
79 2113
79 2115
79 2120
79 2133
79 2145
79 2173
79 2197
79 2201
79 2210
79 2231
79 2369
79 2425
79 2480
79 2600
79 2664
79 2672
79 2675
79 2679
79 2687
79 2693
79 2787
79 2814
79 2833
79 2836
79 2841
79 2844
79 2856
79 2877
79 2950
79 3017
79 3086
79 3136
79 3239
79 3464
79 3468
79 3562
79 3684
79 3685
79 3686
79 3687
79 3688
79 3689
79 3690
79 3691
79 3692
79 3693
79 3694
79 3695
79 3696
79 3697
80 85
80 99
80 127
80 149
80 168
80 170
80 193
80 202
80 205
80 220
80 223
80 229
80 233
80 273
80 279
80 297
80 308
80 334
80 348
80 368
80 378
80 382
80 389
80 390
80 402
80 416
80 423
80 435
80 451
80 453
80 454
80 456
80 465
80 516
80 520
80 523
80 558
80 589
80 591
80 593
80 605
80 613
80 617
80 628
80 634
80 669
80 673
80 677
80 698
80 704
80 757
80 765
80 781
80 826
80 841
80 845
80 882
80 889
80 899
80 933
80 951
80 968
80 969
80 994
80 1003
80 1011
80 1028
80 1068
80 1081
80 1113
80 1151
80 1164
80 1256
80 1314
80 1315
80 1352
80 1424
80 1474
80 1501
80 1509
80 1512
80 1518
80 1539
80 1543
80 1571
80 1581
80 1625
80 1645
80 1650
80 1657
80 1659
80 1687
80 1710
80 1757
80 1782
80 1807
80 1832
80 1885
80 1892
80 1974
80 2070
80 2074
80 2077
80 2078
80 2098
80 2107
80 2108
80 2201
80 2214
80 2216
80 2243
80 2246
80 2270
80 2284
80 2291
80 2292
80 2392
80 2460
80 2464
80 2577
80 2589
80 2647
80 2654
80 2655
80 2667
80 2763
80 2764
80 2767
80 2814
80 2835
80 2949
80 2992
80 3036
80 3054
80 3076
80 3176
80 3186
80 3193
80 3214
80 3230
80 3302
80 3311
80 3328
80 3698
80 3699
80 3700
80 3701
80 3702
80 3703
80 3704
80 3705
80 3706
80 8167
81 65
81 71
81 78
81 79
81 85
81 103
81 110
81 116
81 127
81 136
81 137
81 145
81 148
81 202
81 223
81 229
81 230
81 260
81 273
81 279
81 297
81 315
81 316
81 332
81 334
81 342
81 352
81 357
81 360
81 387
81 412
81 416
81 423
81 424
81 428
81 429
81 445
81 450
81 453
81 454
81 464
81 465
81 498
81 500
81 508
81 533
81 539
81 541
81 558
81 591
81 617
81 666
81 677
81 707
81 729
81 741
81 744
81 781
81 813
81 824
81 826
81 882
81 884
81 913
81 933
81 947
81 968
81 969
81 971
81 992
81 994
81 1003
81 1021
81 1075
81 1081
81 1095
81 1113
81 1121
81 1126
81 1147
81 1160
81 1164
81 1192
81 1260
81 1294
81 1352
81 1401
81 1474
81 1484
81 1518
81 1523
81 1524
81 1539
81 1555
81 1645
81 1703
81 1710
81 1730
81 1745
81 1769
81 1807
81 1863
81 1885
81 1892
81 1925
81 1960
81 2023
81 2036
81 2037
81 2048
81 2077
81 2079
81 2080
81 2097
81 2098
81 2123
81 2149
81 2181
81 2214
81 2222
81 2226
81 2246
81 2347
81 2355
81 2410
81 2421
81 2434
81 2435
81 2442
81 2460
81 2517
81 2518
81 2545
81 2574
81 2575
81 2577
81 2589
81 2598
81 2609
81 2796
81 2814
81 2835
81 2844
81 2876
81 2877
81 2914
81 2949
81 2978
81 3010
81 3076
81 3088
81 3175
81 3224
81 3225
81 3230
81 3239
81 3248
81 3282
81 3311
81 3328
81 3492
81 3565
81 3706
81 3707
81 3708
81 3709
81 3710
81 3711
81 3712
81 11167
82 33
82 76
82 317
82 351
82 405
82 406
82 804
82 2445
82 2555
82 3594
82 3713
82 3714
82 3715
82 3716
82 3717
82 3718
82 3719
82 3720
82 3721
83 24
83 58
83 92
83 241
83 426
83 740
83 1079
83 1194
83 1854
83 2118
83 2702
83 3722
83 3723
83 3724
83 3725
83 3726
83 3786
83 9589
84 701
84 923
84 1134
84 2296
84 2610
84 2893
84 3289
84 3727
84 3728
84 3729
84 3730
84 3731
84 3732
84 3733
84 3734
84 3735
84 7306
85 80
85 81
85 714
85 899
85 2079
85 3453
85 3736
85 3737
85 3738
85 3739
85 3740
85 3741
85 3742
85 3743
85 7952
85 10883
86 321
86 468
86 585
86 1508
86 3744
86 3745
86 3746
86 3747
86 3748
86 3749
86 3750
86 3751
86 6044
86 6045
86 9998
87 42
87 45
87 1029
87 3382
87 3494
87 3650
87 3752
87 3753
87 3754
87 3755
87 3756
87 3757
87 3758
87 3927
88 71
88 576
88 1375
88 3759
88 3760
88 3761
88 3762
88 3763
88 3764
88 3765
88 4921
88 10061
89 95
89 709
89 1953
89 2443
89 3235
89 3680
89 3766
89 3767
89 3768
89 3769
89 3770
89 3771
90 1458
90 2229
90 3772
90 3773
90 3774
90 3775
90 7092
90 8774
90 9869
91 3776
91 3777
91 3778
91 3779
91 3780
91 3781
91 3806
91 5047
92 43
92 58
92 63
92 73
92 75
92 83
92 191
92 198
92 468
92 538
92 586
92 740
92 1013
92 1079
92 1132
92 1159
92 1316
92 1641
92 2204
92 2303
92 2459
92 2759
92 3313
92 3350
92 3624
92 3726
92 3782
92 3783
92 3784
92 3785
92 3786
92 3787
92 3788
92 3789
92 5010
93 31
93 32
93 48
93 49
93 50
93 70
93 73
93 1198
93 1418
93 1521
93 2303
93 2556
93 2783
93 2784
93 3002
93 3439
93 3487
93 3790
93 3791
93 3792
93 3793
93 3794
93 3795
93 3796
93 3797
93 3798
93 3799
93 3800
93 4264
93 4266
93 7709
93 10586
94 43
94 59
94 64
94 161
94 408
94 420
94 547
94 743
94 774
94 776
94 1067
94 1138
94 1695
94 3801
94 3802
94 3803
94 3804
94 3805
94 3806
94 3807
94 3808
94 3809
94 3810
94 3811
94 3812
94 4251
94 5000
94 5599
94 5854
95 49
95 70
95 89
95 1250
95 2467
95 2956
95 3148
95 3391
95 3637
95 3687
95 3813
95 3814
95 3815
95 3816
95 3817
95 3818
95 3819
95 3820
95 3821
95 4171
95 5228
95 5669
95 6565
95 7089
95 9889
95 10279
96 1256
96 3822
96 3823
96 3824
96 3825
96 3826
96 3827
96 3828
96 3829
96 3830
96 5467
96 5869
96 6584
96 6828
96 7688
96 7689
96 8071
96 8073
96 10396
96 11541
96 11951
97 1436
97 1471
97 2660
97 2713
97 2777
97 12617
98 57
98 67
98 1195
98 1678
98 3836
99 80
99 3837
99 3838
99 4583
100 682
100 3839
100 3840
101 2232
101 3841
102 171
102 1120
102 1135
102 1186
102 1550
102 1941
102 2162
102 2939
102 2993
102 3625
102 3726
102 3793
102 3842
102 3843
103 81
103 116
103 913
103 1036
103 1638
103 1817
103 2435
103 2600
103 2855
103 3357
103 3558
103 3600
103 3844
104 27
104 1147
104 3560
104 3845
104 3846
104 3847
104 3848
104 3849
104 3850
104 3851
104 3852
104 4135
105 46
105 449
105 3341
105 3853
105 3854
105 3855
105 3856
105 3857
105 3858
105 3859
105 4664
106 56
106 1284
106 1963
106 3860
106 3861
106 3862
106 3863
106 3864
106 3865
106 3866
107 585
107 1183
107 1674
107 1695
107 3721
107 3867
107 3868
107 3869
107 3870
108 297
108 367
108 529
108 3290
108 3871
108 3872
108 3873
108 5357
109 3874
109 3875
109 3876
109 3877
109 5817
109 6219
110 69
110 71
110 81
110 3878
110 3879
110 3880
111 3881
111 3882
111 3883
111 3884
111 9075
112 3885
112 3886
112 3887
112 8934
113 435
113 3888
113 3889
114 3890
114 3891
115 50
115 53
115 58
115 63
115 343
115 1186
115 1233
115 1521
115 1837
115 1849
115 1961
115 2095
115 2190
115 2555
115 2798
115 3130
115 3350
115 3479
115 3540
115 3892
115 3893
115 3894
115 3895
115 3896
115 3897
115 8098
115 9089
116 35
116 69
116 81
116 103
116 956
116 2161
116 2630
116 2657
116 2723
116 3600
116 3674
116 3677
116 3682
116 3898
116 3899
116 3900
116 3901
116 3902
116 3903
116 3904
116 3905
116 3906
116 3907
116 3908
116 5242
117 259
117 336
117 407
117 444
117 662
117 753
117 1104
117 1690
117 1803
117 1847
117 2539
117 2616
117 2643
117 2962
117 3333
117 3909
117 3910
117 3911
117 3912
117 3913
117 3914
117 3915
117 3916
117 8793
118 29
118 38
118 172
118 206
118 283
118 405
118 585
118 629
118 1136
118 1138
118 1167
118 2424
118 2441
118 3346
118 3716
118 3721
118 3868
118 3917
118 3918
118 3919
118 3920
118 3921
118 6114
119 587
119 1709
119 3030
119 3403
119 3404
119 3752
119 3753
119 3756
119 3757
119 3922
119 3923
119 3924
119 3925
119 3926
119 3927
119 3928
119 4891
119 6917
119 8184
119 11890
120 61
120 79
120 939
120 1219
120 1401
120 3034
120 3742
120 3929
120 3930
120 3931
120 3932
120 3933
120 3934
120 3935
120 3936
120 3937
120 4223
120 6176
120 6550
120 8848
121 463
121 3938
121 3939
121 3940
121 3941
121 3942
121 3943
121 3944
121 3945
121 4162
121 5499
121 6322
121 7396
121 8107
121 8737
121 9652
122 806
122 1571
122 2073
122 2239
122 2298
122 2923
122 3946
122 3947
122 3948
122 3949
122 3950
122 7548
122 7682
122 8748
122 11304
123 136
123 1431
123 1884
123 2040
123 2053
123 3951
123 3952
123 3953
123 3954
123 3955
123 3956
123 3957
123 3958
123 4902
124 1432
124 3959
124 3960
124 3961
124 3962
124 3963
124 3964
124 4398
124 9100
124 9942
125 466
125 894
125 1067
125 1702
125 1760
125 1784
125 1957
125 2483
125 3008
125 3965
126 25
126 36
126 57
126 59
126 67
126 1195
126 3454
126 3966
126 3967
127 80
127 81
127 1095
127 1313
127 2039
127 2777
127 3968
127 3969
128 186
128 426
128 1346
128 3970
128 3971
128 3972
128 4255
129 394
129 1393
129 1639
129 3973
129 3974
129 3975
130 3979
130 3980
130 6185
130 9422
130 12864
131 1654
131 2653
131 3981
131 3982
132 3983
132 3984
132 3985
133 1324
133 2312
133 2330
133 3002
133 3058
133 3262
133 3986
133 3987
133 3988
133 3989
133 3990
133 3991
133 3992
134 26
134 56
134 79
134 1176
134 1450
134 2113
134 2841
134 3535
134 3993
134 3994
134 3995
134 4798
135 591
135 1977
135 3640
135 3768
135 3854
135 3996
135 3997
135 3998
135 3999
135 4776
135 5728
136 69
136 81
136 123
136 905
136 2213
136 3954
136 4000
136 4001
136 4002
136 7271
137 19
137 35
137 79
137 81
137 2609
137 4003
137 4004
137 4005
137 4006
138 56
138 79
138 1176
138 2536
138 2542
138 4007
138 4008
138 4009
139 3518
139 4010
139 4011
139 4012
139 4013
139 5124
139 5137
140 2232
140 4014
140 4015
140 4016
140 4017
140 4018
141 4019
141 4020
141 4021
141 4022
141 4023
142 456
142 3640
142 4024
142 4025
143 4026
143 4027
143 4028
144 644
144 1249
144 1971
144 1975
144 2179
144 2524
144 3148
144 4029
144 4030
144 4031
144 4032
145 51
145 81
145 464
145 1906
145 3086
145 3534
145 4033
145 4034
145 4035
145 4498
146 2296
146 2319
146 4036
146 4037
146 4038
146 4039
146 4040
146 4041
146 4042
147 1830
147 3507
147 4043
147 4044
147 4045
147 4046
147 4047
147 4048
148 81
148 2536
148 2596
148 4049
148 4050
148 4051
148 4052
149 80
149 2450
149 4053
149 4054
149 4055
149 4056
150 41
150 4057
150 4058
150 4059
150 5039
151 506
151 1027
151 4060
151 4061
152 4062
152 4063
153 792
153 948
153 2179
153 2508
153 2781
153 4032
153 4065
153 12626
154 1312
154 2908
154 3212
154 3264
154 3657
154 4068
154 4069
155 76
155 3350
155 3726
155 4070
155 4071
155 4072
156 1723
156 4073
156 4074
156 4075
156 4195
157 770
157 3973
157 4076
157 4077
158 1218
158 4078
158 4079
159 28
159 332
159 381
159 459
159 730
159 870
159 876
159 1575
159 2033
159 2043
159 3001
159 3453
159 3458
159 3460
159 3462
159 3957
159 4080
160 1446
160 3178
160 3179
160 3453
160 3462
160 3657
160 4081
160 4082
160 4083
160 4084
160 4085
160 4086
160 4087
160 5450
160 7060
160 9297
161 57
161 59
161 67
161 94
161 206
161 362
161 1067
161 1195
161 3030
161 3809
161 3925
161 4088
161 4089
161 4090
161 5733
162 208
162 1750
162 3681
162 3862
162 3993
162 4091
162 4092
162 4093
162 4094
162 4095
162 4096
162 4214
162 6531
162 6562
163 34
163 958
163 1500
163 1695
163 3273
163 3618
163 3720
163 4097
163 4098
163 4099
163 4100
163 6990
163 7338
164 20
164 300
164 346
164 682
164 916
164 2643
164 4101
164 4102
164 4103
164 4104
164 4105
164 4106
165 79
165 3134
165 3683
165 4107
165 4108
165 4109
165 4110
165 4111
165 4112
165 4113
165 4931
166 2179
166 2502
166 2505
166 2536
166 4114
166 4115
166 4116
166 4117
166 4118
166 7087
167 1639
167 3826
167 3936
167 4119
167 4120
167 4121
167 4122
167 5534
167 5707
168 80
168 1560
168 4123
168 4124
168 4125
168 4126
168 5768
168 8346
169 4127
169 4128
169 4129
169 4130
169 7228
169 8354
170 80
170 921
170 1273
170 1714
170 2123
170 2247
170 3560
170 3573
170 3574
170 3584
170 3675
170 3742
170 3933
170 4113
170 4131
170 4132
170 4133
170 4134
170 4135
170 4136
170 4137
170 4138
170 4139
170 4140
170 4141
170 4296
170 4515
170 5095
170 5300
170 7374
170 7622
170 8197
170 9002
170 9352
170 9622
170 9817
170 10824
170 10835
170 12467
171 31
171 102
171 190
171 474
171 1111
171 1120
171 1135
171 1194
171 1505
171 1663
171 1739
171 1791
171 2252
171 3321
171 3348
171 3429
171 3842
171 4142
171 4143
171 4144
171 4145
171 4146
172 39
172 52
172 118
172 206
172 527
172 650
172 1785
172 2441
172 3060
172 3917
172 3920
172 4147
172 4148
172 4149
172 4150
172 4151
172 4152
172 4153
172 4154
172 6106
172 6567
173 263
173 411
173 463
173 1452
173 2640
173 2760
173 2817
173 3072
173 3407
173 4155
173 4156
173 4157
173 4158
173 4159
173 4160
173 4161
173 4162
173 4163
173 4164
173 8646
174 769
174 1569
174 1862
174 2072
174 3488
174 3719
174 3768
174 3798
174 3940
174 4165
174 4166
174 4167
174 4168
174 4169
174 4170
174 4171
174 4172
174 4173
174 5607
175 23
175 26
175 203
175 1906
175 3531
175 3533
175 4174
175 4175
175 4176
175 4177
175 4178
175 4179
175 4180
175 4181
175 4182
175 4183
175 4744
175 5265
176 331
176 381
176 685
176 1812
176 3458
176 4184
176 4185
176 4186
176 4187
176 4188
176 4189
176 5828
176 5832
176 6078
176 6792
176 7062
176 9955
177 768
177 1212
177 1363
177 1723
177 4075
177 4190
177 4191
177 4192
177 4193
177 4194
177 4195
177 4196
177 6194
177 7797
177 9718
178 532
178 542
178 1080
178 2090
178 4197
178 4198
178 4199
178 4200
178 4201
178 4202
178 4203
178 4217
178 5814
178 6378
178 6379
179 1219
179 3519
179 3599
179 3866
179 4204
179 4205
179 4206
179 4207
179 4208
179 4209
179 4210
179 5517
179 7073
179 7074
180 939
180 4211
180 4212
180 4213
180 4214
180 4215
180 4216
180 4217
180 4218
180 4219
180 4220
181 2986
181 3653
181 4215
181 4221
181 4222
181 4223
181 4224
181 4225
181 4226
181 7371
181 10574
182 4179
182 4227
182 4228
182 4229
182 4230
182 4231
182 4232
182 4233
182 6191
182 7829
183 4240
183 12596
184 70
184 75
184 248
184 283
184 317
184 349
184 405
184 406
184 411
184 442
184 467
184 468
184 586
184 1032
184 1114
184 1132
184 1138
184 1316
184 1556
184 1761
184 1841
184 1858
184 2057
184 2204
184 2674
184 2685
184 2969
184 3084
184 3475
184 3624
184 3713
184 3784
184 4241
184 4242
184 4243
184 4244
184 4245
184 4246
184 4247
184 4248
184 6043
185 33
185 40
185 75
185 192
185 248
185 468
185 497
185 586
185 601
185 690
185 1172
185 1346
185 1496
185 1507
185 1533
185 1674
185 1677
185 1761
185 1798
185 1858
185 2402
185 2540
185 2550
185 3618
185 3625
185 3746
185 3808
185 3971
185 4070
185 4249
185 4250
185 4251
185 4252
185 4253
185 4254
185 4255
185 4256
185 4615
185 5498
186 49
186 52
186 58
186 63
186 64
186 128
186 238
186 547
186 853
186 1346
186 2623
186 3125
186 3370
186 3371
186 3429
186 3436
186 3439
186 3487
186 3795
186 3798
186 3811
186 4257
186 4258
186 4259
186 4260
186 4261
186 4262
186 4263
186 4264
186 4265
186 4266
186 4267
186 4268
186 4269
186 4308
186 5771
186 7140
186 8698
187 43
187 1196
187 1242
187 2122
187 2558
187 3992
187 4270
187 4271
187 4272
187 4273
187 4274
187 4275
187 4276
187 4277
187 4278
187 4279
187 4280
187 4281
187 4364
187 4530
187 4532
187 4852
187 5725
187 7076
187 7079
187 7224
187 7737
187 7790
187 8825
187 9128
187 9405
187 10890
187 11242
187 11602
187 11648
187 11849
188 70
188 344
188 1243
188 1506
188 2233
188 2621
188 3440
188 4090
188 4282
188 4283
188 4284
188 4285
188 4286
188 4287
188 4288
188 4682
188 5143
188 5403
188 5732
188 6020
188 6117
188 6620
188 7529
188 7531
188 8084
188 8264
188 8734
188 10607
189 27
189 69
189 1055
189 3131
189 3674
189 3845
189 3850
189 3852
189 4289
189 4290
189 4291
189 4292
189 4293
189 4294
189 4295
189 4296
189 6756
189 8392
189 8589
189 9826
189 11194
189 11512
190 30
190 38
190 40
190 48
190 53
190 73
190 171
190 207
190 1135
190 1196
190 1476
190 1505
190 1521
190 1758
190 1837
190 1843
190 2252
190 2358
190 2645
190 2993
190 3126
190 3211
190 3321
190 3349
190 3356
190 3430
190 3483
190 3842
190 3892
190 4142
190 4143
190 4297
190 4298
190 4299
190 4300
190 4301
191 92
191 192
191 237
191 349
191 426
191 442
191 586
191 731
191 1159
191 1183
191 1316
191 2191
191 2459
191 3624
191 3793
191 4269
191 4302
191 4303
191 4304
191 4305
191 4306
191 4307
191 4308
191 4309
191 4310
191 4311
191 4312
191 4313
191 4314
191 4315
191 4316
191 4318
191 4320
191 6098
191 7065
192 33
192 185
192 191
192 586
192 629
192 731
192 1132
192 1138
192 1183
192 1843
192 2094
192 2127
192 2248
192 2268
192 2459
192 2883
192 3623
192 3626
192 3651
192 4143
192 4269
192 4310
192 4314
192 4317
192 4318
192 4319
192 4320
192 4321
192 4322
192 4323
192 4324
192 5219
192 5348
192 6038
193 80
193 205
193 2547
193 3827
193 3830
193 3933
193 4055
193 4325
193 4326
193 4327
193 4328
193 4329
193 4330
193 4331
193 4332
193 4333
193 4550
193 4843
193 4844
193 4845
193 4847
193 5524
193 6740
193 7792
193 8383
193 8440
193 8641
193 8644
193 8785
193 9305
193 12052
194 1173
194 1617
194 2384
194 2892
194 2893
194 3082
194 3729
194 4229
194 4334
194 4335
194 4336
194 4337
194 4338
194 4339
194 4340
194 4341
194 4542
194 4546
194 4553
194 4817
194 4936
194 5473
194 5476
194 5477
194 5721
194 6210
194 7347
194 7828
194 9433
194 10627
195 19
195 56
195 79
195 377
195 1176
195 2113
195 3508
195 3509
195 3535
195 3592
195 4044
195 4046
195 4178
195 4342
195 4343
195 4344
195 4345
195 4346
195 4347
195 4774
195 4839
195 5334
195 5417
195 5765
195 7744
195 7884
196 230
196 3674
196 3677
196 4348
196 4349
196 4350
196 4351
196 4352
196 7328
196 8566
196 9528
197 29
197 38
197 43
197 73
197 475
197 958
197 1108
197 1194
197 1232
197 1316
197 1319
197 1476
197 1860
197 2459
197 2804
197 3125
197 3347
197 3352
197 3355
197 3434
197 3789
197 4150
197 4353
197 4354
197 4355
198 53
198 92
198 349
198 442
198 468
198 585
198 1054
198 1079
198 1345
198 2272
198 2973
198 3313
198 3396
198 3620
198 3623
198 3629
198 3662
198 3784
198 3971
198 4242
198 4356
198 4357
198 4358
198 4359
199 64
199 238
199 240
199 376
199 404
199 460
199 702
199 1790
199 2068
199 3223
199 3370
199 3371
199 4335
199 4360
199 4361
199 4362
199 4363
199 4364
199 4365
199 4366
199 4855
199 5406
199 5974
200 32
200 68
200 738
200 1170
200 1521
200 2083
200 2501
200 2839
200 2935
200 3140
200 3217
200 3556
200 3648
200 4367
200 4368
200 4369
200 4370
200 4371
200 4372
200 4373
200 4374
200 6661
201 69
201 632
201 917
201 2237
201 3239
201 3873
201 4375
201 4376
201 4377
201 4378
201 4379
201 4380
201 4381
201 4382
201 5255
201 5256
201 6385
201 8345
201 8557
201 9897
201 11104
202 69
202 71
202 80
202 81
202 1137
202 2291
202 3675
202 3741
202 4383
202 4384
202 4385
202 4386
202 4387
202 4388
202 4389
202 4390
202 6582
202 6587
202 6860
202 10554
203 55
203 175
203 2231
203 2508
203 3522
203 3532
203 4391
203 4392
203 4393
203 4394
203 4395
203 4396
203 4397
203 4398
203 4399
203 4651
203 8516
203 8668
204 22
204 26
204 3534
204 4395
204 4400
204 4401
204 4402
204 4403
204 4404
204 4405
204 4406
204 4500
204 4611
204 4738
204 4764
204 10439
204 11443
205 80
205 193
205 1918
205 3579
205 4407
205 4408
205 4409
205 4410
205 5466
205 8064
206 118
206 161
206 172
206 314
206 347
206 527
206 650
206 1136
206 1146
206 1167
206 1447
206 1570
206 1798
206 2525
206 4411
207 31
207 190
207 475
207 1169
207 1183
207 1476
207 1843
207 2268
207 3349
207 3430
207 3626
207 4412
207 4413
207 4414
208 56
208 78
208 79
208 162
208 1176
208 3088
208 4215
208 4415
208 4416
208 4417
208 4418
208 4419
208 4885
209 303
209 577
209 664
209 682
209 765
209 1721
209 2521
209 2522
209 4420
209 4421
209 4422
209 4423
210 630
210 2114
210 2516
210 2618
210 4424
210 4425
210 4426
210 4427
210 4632
210 6963
210 11536
211 1164
211 2322
211 3208
211 4109
211 4423
211 4428
211 4429
211 4430
211 4431
211 4432
212 1466
212 1705
212 2643
212 3910
212 4433
212 4434
212 4435
212 4436
212 4437
213 859
213 4438
213 4439
213 4440
213 4441
213 4442
213 5789
213 5910
214 4443
214 4444
214 4445
214 4446
214 4447
214 8206
214 8649
215 4448
215 4449
215 4450
215 4451
215 8596
216 56
216 79
216 988
216 1137
216 1176
216 1177
216 1804
216 2120
216 2672
216 4452
216 4453
216 4454
217 46
217 2799
217 3856
217 4455
217 4456
217 4457
217 4458
217 4459
217 4460
217 4662
217 4664
218 925
218 1939
218 2047
218 2423
218 2736
218 2739
218 2896
218 4461
218 4462
218 4463
219 2066
219 3518
219 3594
219 3600
219 3618
219 4464
219 4465
219 4466
219 5606
220 80
220 3186
220 3675
220 4467
220 4468
220 4469
220 4470
220 5289
221 3212
221 4014
221 4016
221 4069
221 4471
221 4472
221 4473
222 403
222 783
222 2882
222 4335
222 4474
222 4475
223 71
223 80
223 81
223 4476
223 4477
224 4478
224 4479
224 4480
224 5760
225 4481
225 4482
225 5367
226 69
226 879
226 933
226 956
226 1021
226 1121
226 1147
226 1863
226 1925
226 3362
226 3558
226 3933
226 4332
226 4483
226 4484
226 4485
227 39
227 463
227 585
227 2044
227 2046
227 2116
227 2424
227 2622
227 2734
227 3925
227 4164
227 4486
227 4487
227 4488
227 4623
228 745
228 1027
228 2240
228 2296
228 2381
228 2444
228 2697
228 3094
228 3727
228 4489
228 4490
228 4491
228 4492
228 4493
229 27
229 80
229 81
229 1551
229 2055
229 2307
229 2690
229 3567
229 3852
229 4494
229 4495
229 4496
229 4497
230 23
230 51
230 81
230 196
230 3677
230 4035
230 4498
230 4499
230 4500
230 4501
230 4502
230 4503
231 832
231 2041
231 4236
231 4504
231 4505
231 4506
231 4507
231 4508
231 5369
231 7359
231 8038
232 2137
232 3189
232 4509
232 4510
232 4511
232 4512
232 4513
232 5704
232 7319
233 80
233 770
233 781
233 1553
233 2251
233 4077
233 4514
233 4515
233 4516
234 1638
234 1929
234 3762
234 4386
234 4517
234 4518
234 4519
234 4520
235 2051
235 2357
235 4390
235 4521
235 4522
235 4523
235 4524
236 6271
236 9093
236 9097
236 12903
237 52
237 58
237 63
237 64
237 70
237 73
237 75
237 191
237 470
237 586
237 689
237 1108
237 1132
237 1196
237 1776
237 1879
237 2045
237 2191
237 2303
237 2328
237 2459
237 3072
237 3079
237 3273
237 3429
237 3430
237 3795
237 4527
237 4528
237 4529
238 186
238 199
238 296
238 376
238 404
238 568
238 681
238 829
238 853
238 1332
238 1656
238 1805
238 2065
238 2067
238 2068
238 2112
238 2175
238 2191
238 2253
238 2259
238 2468
238 2495
238 4262
238 4364
238 4530
238 4531
238 4532
238 4533
238 4852
239 72
239 79
239 307
239 352
239 815
239 882
239 1137
239 1177
239 1727
239 1804
239 1825
239 1875
239 1960
239 2844
239 3295
239 3694
239 3731
239 4534
239 4535
239 4536
239 4537
239 4538
239 4539
239 4540
239 4541
239 5720
239 9066
239 11155
240 199
240 331
240 435
240 845
240 954
240 1581
240 2655
240 3732
240 3805
240 3830
240 4326
240 4447
240 4542
240 4543
240 4544
240 4545
240 4546
240 4547
240 4548
240 4549
240 4550
240 4551
240 4552
240 4553
240 5473
240 6440
240 10627
241 83
241 463
241 474
241 585
241 601
241 924
241 1119
241 1169
241 1814
241 2804
241 2943
241 2944
241 3089
241 4554
241 4555
241 4556
241 4557
241 4558
241 4559
241 4560
241 4561
241 4562
241 4563
241 4564
241 4621
241 9041
242 36
242 41
242 46
242 57
242 59
242 364
242 434
242 1195
242 1618
242 1662
242 1699
242 2625
242 2663
242 2753
242 3366
242 3507
242 4565
242 4566
242 4567
242 4568
242 4569
242 4570
242 4571
242 7022
242 7870
243 887
243 1211
243 1398
243 1543
243 2238
243 4572
243 4573
243 4574
243 4575
243 4576
243 4577
243 4578
243 4579
243 4917
243 4976
243 5653
243 5938
243 6477
243 7871
243 7902
243 7908
243 9180
244 2041
244 4507
244 4580
244 4581
244 4582
244 4583
244 4584
244 4585
244 4919
244 5529
244 5531
244 6274
244 7474
244 7785
244 8862
245 79
245 809
245 4586
245 4587
245 4588
245 4589
245 7554
246 30
246 49
246 70
246 343
246 395
246 436
246 467
246 587
246 738
246 1018
246 1170
246 1521
246 1887
246 2082
246 2272
246 2405
246 2919
246 3217
246 3227
246 3345
246 3398
246 3433
246 3439
246 3440
246 3446
246 3479
246 3485
246 3515
246 3648
246 4370
246 4590
246 4591
246 4592
246 4593
246 4594
246 4595
246 4596
246 4597
246 4598
246 4599
246 4600
246 4601
246 4602
246 4603
246 4604
246 5147
246 5317
246 5520
246 5773
246 6012
246 6014
247 21
247 327
247 554
247 939
247 1048
247 2042
247 3534
247 3684
247 3763
247 4289
247 4605
247 4606
247 4607
247 4608
247 4609
247 4610
247 4611
247 4612
247 4613
247 5028
247 5029
247 5031
247 5032
247 5428
247 5797
247 6293
247 6624
247 8640
247 11539
248 33
248 184
248 185
248 405
248 418
248 422
248 465
248 601
248 661
248 1196
248 1353
248 1445
248 1533
248 1677
248 1761
248 1836
248 2272
248 2292
248 2540
248 2550
248 2848
248 2944
248 3313
248 3397
248 3594
248 3615
248 3618
248 3631
248 3716
248 3720
248 3746
248 3785
248 3971
248 4256
248 4562
248 4563
248 4564
248 4614
248 4615
248 4616
248 4617
248 4618
248 4619
248 4620
248 4621
248 4622
248 4623
248 5442
248 5596
248 5598
248 5626
248 5643
248 5699
248 5708
248 5726
248 7139
248 8243
248 8247
248 8706
248 8709
248 9107
248 9590
248 9836
249 467
249 572
249 835
249 985
249 2709
249 3285
249 12608
250 56
250 79
250 1176
250 4626
250 4627
250 4628
251 79
251 1176
251 1284
251 2297
251 4629
252 2980
252 4630
252 4631
252 4632
253 773
253 4633
253 4634
254 3535
254 4635
255 1060
255 1740
255 1750
255 4637
255 12615
256 675
256 2025
256 4641
256 12646
257 1228
257 4641
257 12793
258 4644
258 4645
259 117
259 336
259 407
259 479
259 512
259 1248
259 1292
259 1534
259 1675
259 1705
259 2616
259 3910
259 3915
259 4646
259 4647
259 4648
259 4649
259 4650
259 6695
259 7526
260 26
260 61
260 81
260 3522
260 3526
260 3529
260 3532
260 3600
260 4399
260 4651
260 4652
260 4653
260 4654
260 4655
260 4656
260 4739
260 5271
260 5695
260 5791
261 25
261 41
261 57
261 59
261 67
261 1026
261 1195
261 3124
261 3363
261 4657
261 4658
261 4659
261 4660
261 4661
261 4662
261 4663
261 4664
261 4665
262 61
262 1249
262 1618
262 2179
262 2344
262 2967
262 3192
262 3235
262 3518
262 3770
262 4666
262 4667
262 4668
262 4669
262 4670
262 4671
262 4672
263 70
263 173
263 349
263 1235
263 1651
263 2330
263 3063
263 3796
263 3989
263 4268
263 4673
263 4674
263 4675
263 4676
263 4677
263 4678
264 49
264 319
264 1506
264 4679
264 4680
264 4681
264 4682
264 4683
264 4684
264 4685
264 4686
264 4687
264 5845
264 6130
264 6321
265 1219
265 1825
265 1936
265 3736
265 4536
265 4541
265 4610
265 4688
265 4689
265 4690
265 4691
265 4692
265 4693
265 8262
266 885
266 4694
266 4695
266 4696
266 4697
266 4698
266 4699
266 4700
266 5819
266 6693
266 7492
266 9535
266 10103
267 641
267 3033
267 3942
267 4701
267 4702
267 4703
267 4704
267 4705
267 4706
267 4707
267 5071
267 5234
268 1618
268 4708
268 4709
268 4710
268 4711
268 4712
268 5195
268 7430
268 8983
268 8992
268 10105
269 2467
269 2739
269 2956
269 3449
269 4713
269 4714
269 4715
269 7999
269 10946
269 11264
270 4716
270 4717
270 4718
270 4719
270 6943
270 11562
270 11757
271 57
271 67
271 459
271 1195
271 1905
271 3146
271 3147
271 3404
271 4720
272 69
272 352
272 2161
272 2630
272 3899
272 3905
272 4721
272 5242
273 51
273 71
273 80
273 81
273 3670
273 3675
273 4722
274 642
274 675
274 1228
274 4723
274 4724
274 4725
275 71
275 465
275 1145
275 4726
275 4727
276 71
276 4728
276 4729
276 4730
277 2660
277 2690
277 4731
278 4732
278 4733
279 26
279 35
279 51
279 69
279 71
279 80
279 81
279 465
279 1145
279 1164
279 3068
279 3522
279 3526
279 3531
279 3535
279 3590
279 3682
279 4395
279 4401
279 4726
279 4734
279 4735
279 4736
279 4737
279 4738
279 4739
279 4740
279 4741
279 4742
279 4743
279 4744
279 4745
279 4746
279 4763
279 5092
279 5751
279 5756
279 6061
279 6064
279 6245
279 6250
279 6541
279 7144
280 22
280 51
280 3518
280 3529
280 3763
280 4136
280 4138
280 4609
280 4747
280 4748
280 4749
280 4750
280 4751
280 4752
280 4753
280 4754
280 5295
280 5296
280 5336
280 5583
280 5672
280 5758
280 5764
280 5766
280 5788
280 5892
280 5896
280 5949
280 6134
280 6135
280 6143
280 7524
280 7564
280 8128
280 8212
280 8509
280 9082
280 9253
280 10214
280 11590
281 26
281 51
281 79
281 708
281 925
281 1145
281 3134
281 3522
281 3526
281 3530
281 3533
281 3535
281 3731
281 3906
281 4039
281 4178
281 4401
281 4755
281 4756
281 4757
281 4758
281 4759
281 4760
281 4761
281 4762
281 4763
281 4764
281 4765
281 4766
281 5226
281 5268
281 5270
281 5438
281 5755
281 5769
281 6070
281 6248
281 6513
281 6519
281 8017
281 8592
281 10614
282 403
282 473
282 620
282 794
282 837
282 1975
282 2179
282 2453
282 2988
282 3508
282 3509
282 3518
282 3594
282 4170
282 4347
282 4670
282 4767
282 4768
282 4769
282 4770
282 4771
282 4772
282 4773
282 4774
282 4775
282 4776
282 5102
282 5212
282 5293
282 5333
282 5334
282 5574
282 5579
282 6133
282 6138
282 6144
282 6793
282 6795
283 33
283 52
283 118
283 184
283 405
283 564
283 822
283 1561
283 1655
283 1695
283 2622
283 3346
283 3475
283 3716
283 3721
283 4152
283 4777
283 4778
283 4779
283 4780
283 4781
284 69
284 71
284 563
284 830
284 933
284 939
284 1219
284 2824
284 3225
284 3567
284 3573
284 3574
284 3578
284 3584
284 3847
284 4782
284 4783
284 4784
284 4785
284 5959
285 52
285 661
285 1169
285 1356
285 1695
285 1797
285 1837
285 3129
285 3297
285 4786
285 4787
285 4788
285 4789
285 4790
285 4791
285 4792
285 4793
285 6108
285 7291
286 19
286 79
286 352
286 1021
286 1176
286 2297
286 3899
286 4794
286 4795
286 4796
286 4797
286 4798
286 4799
286 4800
286 4911
286 5360
286 7292
287 1227
287 1253
287 1426
287 2484
287 3082
287 3177
287 3178
287 3264
287 3462
287 3657
287 3729
287 4801
287 4802
287 4803
287 4804
287 5069
287 5944
288 780
288 923
288 1335
288 1491
288 3206
288 4141
288 4805
288 4806
288 4807
288 4808
288 4809
288 4810
288 4811
288 5015
288 6724
288 10650
289 346
289 682
289 980
289 1248
289 4101
289 4812
289 4813
289 4814
289 4815
289 4816
289 5110
289 5615
289 6309
289 6350
289 7186
290 64
290 1035
290 1696
290 1810
290 1866
290 4817
290 4818
290 4819
290 4820
290 4821
290 4822
290 5132
290 5928
290 8670
291 407
291 770
291 4823
291 4824
291 4825
291 4826
291 4827
291 4828
291 6008
291 7937
291 8411
291 9565
291 11766
292 3121
292 3726
292 4601
292 4604
292 4829
292 4830
292 4831
292 4832
292 4833
292 4834
292 6883
293 843
293 4109
293 4835
293 4836
293 4837
293 4838
293 4839
293 4840
293 5288
293 9201
293 10792
294 1639
294 4841
294 4842
294 4843
294 4844
294 4845
294 4846
294 4847
295 37
295 46
295 466
295 674
295 743
295 919
295 1177
295 1541
295 2463
295 3856
295 4456
295 4459
295 4460
295 4664
295 4848
295 4849
295 4850
295 4851
296 238
296 1667
296 1887
296 2328
296 3141
296 3398
296 3540
296 4276
296 4280
296 4852
296 4853
296 4854
296 4855
296 4856
296 4857
296 4858
296 5408
297 80
297 81
297 108
297 465
297 812
297 1355
297 2575
297 3933
297 4332
297 4484
297 4859
297 4860
297 4861
297 4862
297 5240
297 5305
298 630
298 660
298 1774
298 2114
298 2299
298 2619
298 3201
298 4425
298 4863
298 4864
298 4865
298 4866
298 4867
298 4868
298 5783
299 2555
299 2783
299 3058
299 3063
299 3165
299 3487
299 3796
299 3991
299 4268
299 4674
299 4676
299 4869
299 4870
299 4871
300 164
300 682
300 1248
300 1471
300 1675
300 2306
300 2712
300 4020
300 4816
300 4872
300 4873
300 4874
300 4875
301 465
301 1011
301 1352
301 1832
301 4876
301 4877
301 4878
301 4879
301 4880
301 4881
301 4882
301 5307
302 1660
302 3291
302 3741
302 4388
302 4417
302 4883
302 4884
302 4885
302 4886
302 6442
302 7219
303 209
303 577
303 1141
303 4109
303 4431
303 4432
303 4836
303 4887
303 4888
303 4889
304 3014
304 3753
304 3754
304 3928
304 4492
304 4890
304 4891
304 4892
304 4893
305 1145
305 3590
305 4759
305 4894
305 4895
305 4896
305 4897
305 4900
306 939
306 4898
306 4899
306 4900
306 9575
306 10371
307 19
307 23
307 37
307 56
307 79
307 239
307 328
307 421
307 465
307 679
307 815
307 1121
307 1137
307 1176
307 1177
307 1701
307 1722
307 1804
307 2113
307 2115
307 2693
307 3529
307 3535
307 3590
307 3592
307 3597
307 3690
307 3694
307 3770
307 3993
307 4002
307 4795
307 4799
307 4901
307 4902
307 4903
307 4904
307 4905
307 4906
307 4907
307 4908
307 4909
307 4910
307 4911
307 4929
307 5799
307 6384
307 7037
308 80
308 393
308 917
308 1704
308 2482
308 2847
308 3884
308 4582
308 4583
308 4912
308 4913
308 4914
308 4915
308 4916
308 4917
308 4918
308 4919
308 4920
308 4921
308 5529
308 6508
308 6836
308 6837
308 7020
308 7200
308 7201
308 7202
308 7205
308 7814
308 7910
308 8300
308 8358
308 10012
308 11250
308 11288
308 11348
308 12007
309 32
309 60
309 321
309 461
309 564
309 777
309 938
309 1139
309 1354
309 1521
309 1843
309 2339
309 3066
309 3196
309 3345
309 3479
309 3629
309 3791
309 3799
309 4922
309 4923
309 4924
309 4925
310 46
310 57
310 67
310 332
310 449
310 526
310 1195
310 2129
310 3856
310 4456
310 4459
310 4460
310 4664
310 4848
310 4849
310 4850
310 4926
310 4927
310 4928
310 4929
310 4930
310 5328
311 595
311 1479
311 1999
311 2030
311 2089
311 2254
311 2257
311 2258
311 2537
311 2868
311 2897
311 2938
311 3218
311 4931
311 4932
311 4933
311 4934
311 4935
311 4936
311 4937
311 7505
312 341
312 1491
312 1766
312 3107
312 3875
312 3961
312 4807
312 4809
312 4938
312 4939
312 4940
312 4941
312 4942
312 4943
312 5196
312 6979
312 8050
312 8272
312 8607
312 8613
313 47
313 59
313 362
313 396
313 492
313 1617
313 1760
313 2060
313 2640
313 3124
313 3414
313 4944
313 4945
313 4946
313 4947
313 4948
313 4949
313 5551
313 8531
314 39
314 40
314 206
314 3126
314 3515
314 3793
314 4151
314 4950
314 4951
314 4952
314 4953
314 4954
314 4955
314 4956
314 4957
314 4958
314 5218
314 5646
315 71
315 81
315 339
315 465
315 871
315 2824
315 3675
315 3677
315 4959
315 4960
315 4961
315 4962
315 4963
315 4964
315 4965
315 5963
315 6636
316 71
316 81
316 871
316 879
316 1145
316 2161
316 3529
316 3674
316 3900
316 4002
316 4966
316 4967
316 4968
316 4969
316 5685
316 9923
317 31
317 82
317 184
317 375
317 1695
317 2179
317 2754
317 3005
317 3253
317 3435
317 3615
317 4970
317 4971
317 4972
317 6730
318 648
318 1006
318 1451
318 2462
318 4578
318 4973
318 4974
318 4975
318 4976
318 4977
318 4978
318 4979
318 5816
318 10344
319 264
319 934
319 4444
319 4685
319 4980
319 4981
319 4982
319 4983
319 8078
319 8322
319 10028
319 12259
320 1649
320 1856
320 4984
320 4985
320 4986
320 4987
320 6628
320 6632
320 9355
320 9941
320 10375
321 30
321 58
321 63
321 86
321 309
321 386
321 415
321 468
321 825
321 877
321 929
321 1167
321 1496
321 1508
321 1550
321 1570
321 1615
321 2029
321 2034
321 2248
321 2331
321 2911
321 2969
321 3084
321 3261
321 3435
321 3624
321 4142
321 4988
321 4989
321 4990
322 40
322 48
322 53
322 73
322 471
322 908
322 958
322 1194
322 1233
322 1475
322 1827
322 1828
322 1837
322 2303
322 2637
322 2692
322 3126
322 3309
322 3336
322 3342
322 3347
322 3629
322 3636
322 4529
322 4793
322 4952
322 4991
322 4992
322 4993
322 4994
323 29
323 38
323 731
323 1135
323 1475
323 1476
323 1570
323 1785
323 1841
323 1843
323 2094
323 2358
323 3261
323 3349
323 3356
323 3430
323 3434
323 4264
323 4269
323 4298
323 4300
323 4413
323 4529
323 4956
323 4995
323 4996
323 4997
323 4998
323 4999
324 29
324 38
324 39
324 75
324 426
324 690
324 833
324 874
324 875
324 1242
324 1502
324 1667
324 1734
324 1785
324 2253
324 3079
324 3663
324 3812
324 4151
324 4955
324 5000
324 5001
324 5002
324 5003
324 5004
324 5005
324 5006
324 7840
325 43
325 442
325 477
325 1109
325 1285
325 1771
325 2068
325 3751
325 3808
325 3817
325 4315
325 4444
325 4447
325 4549
325 4678
325 5007
325 5008
325 5009
325 5010
325 5011
325 5012
325 5013
325 5014
325 5174
325 5523
325 5888
325 9390
326 69
326 2217
326 3567
326 3875
326 5015
326 5016
326 5017
326 5018
326 5019
326 5020
326 5021
326 5022
326 5150
326 5152
326 5957
326 5964
326 7914
326 8131
326 8232
326 8273
326 8276
326 9522
326 10174
326 11338
326 11856
327 21
327 247
327 465
327 2079
327 4440
327 4469
327 4882
327 4965
327 5023
327 5024
327 5025
327 5026
327 5027
327 5028
327 5029
327 5030
327 5031
327 5032
327 5033
327 5034
327 5085
327 7602
327 11166
328 37
328 41
328 46
328 56
328 61
328 79
328 307
328 434
328 957
328 1137
328 1176
328 1177
328 1804
328 2113
328 2120
328 3461
328 4657
328 4661
328 5035
328 5036
328 5037
328 5038
328 5039
328 7039
329 645
329 2961
329 3780
329 3781
329 5040
329 5041
329 5042
329 5043
329 5044
329 5045
329 5046
329 5047
329 5048
329 5324
329 5325
329 7125
329 7126
329 7703
329 7706
330 921
330 3212
330 3729
330 4107
330 4821
330 5049
330 5050
330 5051
330 5052
330 5053
330 5054
330 5299
330 7523
330 8255
330 8371
330 8424
330 9136
330 9397
330 9829
330 10625
330 10771
331 28
331 41
331 49
331 55
331 176
331 240
331 374
331 385
331 427
331 459
331 466
331 526
331 543
331 730
331 870
331 919
331 939
331 1017
331 1378
331 1446
331 1575
331 1653
331 1662
331 1830
331 1831
331 2013
331 3111
331 3123
331 3217
331 3453
331 3458
331 3460
331 3462
331 3484
331 4083
331 4085
331 4446
331 4447
331 4549
331 5055
331 5056
331 5057
331 5058
331 5059
331 5060
331 5061
331 5062
331 5070
331 5451
331 8986
332 28
332 41
332 79
332 81
332 159
332 310
332 375
332 459
332 526
332 543
332 730
332 870
332 880
332 1017
332 1575
332 1725
332 1830
332 1831
332 2013
332 2014
332 2043
332 2129
332 3001
332 3178
332 3179
332 3191
332 3453
332 3460
332 3462
332 4444
332 4834
332 5063
332 5064
332 5065
332 5066
332 5067
332 5068
332 5069
332 5070
332 5071
332 5072
332 5073
332 5390
332 5396
332 5455
332 5784
332 6806
332 7844
333 49
333 457
333 587
333 967
333 1170
333 1220
333 1222
333 1250
333 1372
333 1482
333 1495
333 1531
333 1640
333 1833
333 1887
333 2256
333 2912
333 3227
333 3325
333 3380
333 3381
333 3383
333 3398
333 3439
333 3485
333 3515
333 3663
333 3924
333 4597
333 4679
333 5074
333 5075
333 5076
333 5077
333 5078
333 5079
333 5080
333 5081
333 5082
333 5407
333 6013
333 6536
333 7153
333 7532
333 8219
333 10329
334 21
334 22
334 80
334 81
334 485
334 898
334 3526
334 3600
334 4395
334 4760
334 4881
334 5083
334 5084
334 5085
334 5086
334 5087
334 5088
334 5089
334 5090
334 5091
334 5092
334 5093
334 5094
334 5095
334 5163
334 5267
334 5303
334 5310
334 5427
334 5434
334 5792
334 5978
334 7414
334 7447
334 7450
334 7644
334 7926
334 9083
334 9137
334 9380
334 10223
335 591
335 649
335 839
335 893
335 1131
335 1138
335 1695
335 1700
335 2292
335 2376
335 3615
335 3632
335 3640
335 3854
335 4024
335 4353
335 5096
335 5097
335 5098
335 5099
335 5100
335 5101
335 5102
335 5103
335 5104
335 6905
335 6918
335 6930
335 7567
335 7824
335 7826
335 8187
335 8441
335 9584
335 10711
335 11055
335 11159
335 11635
335 11637
336 117
336 259
336 407
336 444
336 682
336 753
336 801
336 945
336 1104
336 1130
336 1141
336 1373
336 1534
336 1661
336 1675
336 1705
336 2306
336 2643
336 3909
336 3910
336 3913
336 4101
336 4106
336 4649
336 4650
336 4873
336 5105
336 5106
336 5107
336 5108
336 5109
336 5110
336 5111
336 5112
336 5113
336 5114
336 5115
336 5508
336 5611
336 5613
336 5615
336 5898
336 5904
336 8295
337 16
337 18
337 32
337 44
337 48
337 50
337 70
337 73
337 774
337 938
337 1400
337 1521
337 1619
337 1887
337 2094
337 2143
337 2147
337 2190
337 2367
337 2637
337 2805
337 3126
337 3128
337 3184
337 3203
337 3389
337 3391
337 3426
337 3786
337 3791
337 3895
337 4353
337 4363
337 4592
337 4922
337 4925
337 4952
337 5116
337 5117
337 5118
337 5119
337 5120
337 5121
337 5122
338 36
338 57
338 59
338 67
338 76
338 339
338 409
338 709
338 925
338 1010
338 1195
338 2250
338 2423
338 2739
338 2905
338 3518
338 3680
338 3769
338 3857
338 4461
338 4669
338 4775
338 5123
338 5124
338 5125
338 5126
338 5127
338 5128
338 5129
338 5130
338 5131
338 5136
338 5138
338 5581
338 7159
338 7759
338 10009
338 10799
338 10849
338 11674
339 19
339 25
339 46
339 315
339 338
339 406
339 421
339 427
339 434
339 476
339 857
339 871
339 925
339 1041
339 1618
339 2347
339 2640
339 2892
339 3375
339 3415
339 3449
339 3518
339 3592
339 3858
339 4461
339 5072
339 5129
339 5132
339 5133
339 5134
339 5135
339 5136
339 5137
339 5138
339 5139
339 5633
339 5637
339 6062
339 6155
339 7159
339 8015
340 68
340 70
340 376
340 395
340 408
340 621
340 737
340 1742
340 2345
340 2367
340 2931
340 2934
340 2937
340 3227
340 3440
340 3444
340 3553
340 3648
340 3791
340 3821
340 5140
340 5141
340 5142
340 5143
340 5144
340 5145
340 5146
340 5147
340 5148
340 5176
340 5973
340 6131
340 7275
340 10558
340 11918
340 11920
341 27
341 35
341 71
341 312
341 977
341 1147
341 1913
341 2298
341 2409
341 3065
341 3107
341 3850
341 3852
341 4135
341 4730
341 5022
341 5149
341 5150
341 5151
341 5152
341 5153
341 5154
341 5155
341 5156
341 5157
341 5158
341 5960
341 6076
341 6760
341 6977
341 7358
341 7553
341 8611
341 10985
342 22
342 71
342 81
342 421
342 939
342 974
342 1280
342 4895
342 5159
342 5160
342 5161
342 5162
342 5163
342 5164
342 5165
342 5166
342 5310
342 5736
342 5743
342 7334
342 8873
342 8874
343 30
343 38
343 52
343 58
343 63
343 64
343 115
343 246
343 349
343 386
343 462
343 683
343 1163
343 1183
343 1843
343 2147
343 2674
343 2685
343 3079
343 3349
343 3352
343 3430
343 3624
343 3723
343 4144
343 4151
343 4241
343 4261
343 4265
343 4312
343 4363
343 4992
343 5167
343 5168
343 5169
343 5170
343 5171
343 5645
343 8057
344 54
344 68
344 70
344 77
344 188
344 392
344 395
344 467
344 548
344 1161
344 1243
344 1400
344 1729
344 1742
344 2367
344 2794
344 2934
344 2936
344 2937
344 3440
344 3542
344 3551
344 3553
344 3557
344 3821
344 4687
344 4922
344 5172
344 5173
344 5174
344 5175
344 5176
344 5177
344 5178
344 5179
344 5523
344 5711
344 7936
345 45
345 57
345 62
345 1033
345 1552
345 1709
345 1905
345 2185
345 2341
345 2717
345 2793
345 2885
345 3147
345 3380
345 3403
345 3404
345 3497
345 3501
345 3859
345 4777
345 5180
345 5181
345 5182
345 5183
345 5184
345 5185
345 5186
345 5187
345 6092
345 6490
345 6718
345 9235
346 164
346 289
346 400
346 407
346 598
346 1065
346 1141
346 1675
346 1686
346 2306
346 2616
346 3910
346 4067
346 4435
346 5106
346 5188
346 5189
346 5190
346 5191
346 5192
346 5193
346 5194
346 5195
346 5196
346 5197
346 6220
346 8724
346 8980
346 9279
346 10083
346 11129
347 206
347 405
347 411
347 603
347 668
347 1079
347 1108
347 1136
347 1445
347 1798
347 2045
347 3720
347 3917
347 4242
347 4622
347 5198
347 5199
347 5200
347 5201
347 5202
347 5203
347 5204
347 5205
347 5677
347 6091
347 8029
347 8584
347 9045
347 10170
348 80
348 845
348 2292
348 4896
348 5206
348 5207
348 5208
348 5209
348 5210
348 5211
348 5212
348 6547
348 11012
349 50
349 75
349 184
349 191
349 198
349 263
349 343
349 442
349 468
349 629
349 1114
349 1316
349 1979
349 2057
349 2459
349 2674
349 3486
349 3623
349 3664
349 3784
349 4241
349 5213
349 5214
349 5215
349 5216
349 5217
349 5218
349 5219
349 5220
350 52
350 58
350 63
350 411
350 474
350 475
350 585
350 661
350 804
350 872
350 958
350 1013
350 2125
350 2150
350 2151
350 2272
350 2402
350 2798
350 2817
350 3236
350 3623
350 3799
350 4561
350 5221
350 5222
350 5223
350 5224
350 5225
351 15
351 26
351 82
351 708
351 871
351 889
351 1095
351 1532
351 1713
351 2425
351 2515
351 2807
351 2913
351 3942
351 4233
351 4706
351 4707
351 5226
351 5227
351 5228
351 5229
351 5230
351 5231
351 5232
351 5233
351 5234
351 5235
352 19
352 79
352 81
352 239
352 272
352 286
352 815
352 1121
352 2298
352 2723
352 3574
352 3688
352 3907
352 4799
352 4901
352 5236
352 5237
352 5238
352 5239
352 5240
352 5241
352 5242
352 5243
352 5458
352 7571
352 7878
353 49
353 1250
353 1482
353 1640
353 1833
353 2168
353 2233
353 2935
353 3515
353 3645
353 4120
353 4373
353 4677
353 4831
353 5186
353 5244
353 5245
353 5246
353 5247
353 5248
353 5249
353 5968
353 8139
354 1691
354 1912
354 2131
354 2639
354 3873
354 4382
354 5227
354 5250
354 5251
354 5252
354 5253
354 5254
354 5255
354 5256
354 5257
354 5361
354 6472
354 7475
354 9896
354 9900
354 10475
355 1044
355 2099
355 2398
355 2578
355 2653
355 5258
355 5259
355 5260
355 5261
355 5262
355 5616
355 5985
355 5992
355 7812
355 8286
355 8545
355 10110
355 11251
355 11317
356 1618
356 3529
356 4181
356 4401
356 4406
356 4611
356 4764
356 5263
356 5264
356 5265
356 5266
356 5267
356 5268
356 5269
356 5270
356 5271
356 6072
356 7861
356 7885
356 7888
357 81
357 795
357 2161
357 4877
357 4882
357 5034
357 5272
357 5273
357 5274
357 5275
357 5276
357 5277
357 5422
357 5489
357 6067
357 7142
357 7502
357 8209
357 8505
358 3608
358 3610
358 4239
358 5043
358 5278
358 5279
358 5280
358 5281
358 5282
358 5283
358 5863
358 9803
359 4840
359 5284
359 5285
359 5286
359 5287
359 5288
359 5289
359 5290
359 5291
359 5292
359 5835
359 8882
359 10509
359 11416
360 26
360 71
360 81
360 485
360 1782
360 2347
360 3508
360 3509
360 3529
360 4880
360 5293
360 5294
360 5295
360 5296
360 5297
360 5298
360 5299
360 5300
360 5301
360 5302
360 5303
360 5304
360 5305
360 5306
360 5307
360 5308
360 5309
360 5310
360 5334
360 5420
360 5745
360 5767
360 5798
360 5913
360 6200
360 6450
360 7162
360 8384
360 10585
360 11332
361 381
361 1446
361 2806
361 3264
361 3365
361 3366
361 3415
361 3417
361 3461
361 3507
361 4609
361 4834
361 5039
361 5311
361 5312
361 5313
361 5314
361 5315
361 5316
361 5317
361 5318
361 5459
361 6027
361 6179
361 6466
361 7036
361 7559
361 8079
361 8932
361 9629
361 10578
361 11516
361 12034
362 25
362 36
362 37
362 41
362 46
362 57
362 59
362 67
362 161
362 313
362 381
362 421
362 476
362 894
362 1030
362 1195
362 1465
362 2173
362 2281
362 2483
362 2589
362 3000
362 3366
362 4459
362 4460
362 4657
362 5316
362 5319
363 380
363 463
363 1770
363 2791
363 3792
363 3806
363 4957
363 5002
363 5004
363 5119
363 5320
363 5321
363 5322
363 5323
363 5324
363 5325
363 5326
363 5439
363 5445
363 5660
363 6596
363 6884
363 7706
363 9257
363 9874
363 9989
363 10052
364 25
364 37
364 41
364 46
364 242
364 449
364 1541
364 3365
364 3856
364 4456
364 4459
364 4460
364 4568
364 4658
364 4662
364 4664
364 4848
364 4849
364 4850
364 5327
364 5328
364 5329
364 5330
364 5331
364 5332
364 10485
365 27
365 2881
365 4135
365 4497
365 4749
365 4772
365 4821
365 5211
365 5333
365 5334
365 5335
365 5336
365 5337
365 5338
365 5339
365 5340
365 5341
365 5342
365 5490
365 5585
365 5952
365 7241
365 7312
365 9873
365 12186
366 33
366 52
366 1681
366 1828
366 2622
366 3071
366 3389
366 3475
366 3627
366 3721
366 3726
366 3809
366 3971
366 4256
366 5343
366 5344
366 5345
366 5346
366 5347
366 5348
366 5349
366 5350
366 5608
367 108
367 459
367 828
367 2917
367 2988
367 3363
367 3463
367 4137
367 5351
367 5352
367 5353
367 5354
367 5355
367 5356
367 5357
367 5358
367 5359
367 5360
367 5361
367 5907
367 6948
367 7233
367 11543
368 69
368 80
368 435
368 921
368 1323
368 3579
368 3849
368 4330
368 5150
368 5362
368 5363
368 5364
368 5365
368 5366
368 5367
368 5368
368 5840
368 6326
368 6365
368 6766
368 7780
368 11883
369 1082
369 1451
369 4202
369 5369
369 5370
369 5371
369 5372
369 5373
369 5374
369 5375
369 5376
369 5377
369 5815
369 5983
369 6609
369 7761
369 7787
369 8970
369 9684
369 10204
370 5378
370 5379
370 5380
370 8200
370 8761
370 9144
370 9571
371 4235
371 5384
371 5385
371 12643
372 2494
372 5386
372 12879
373 5382
373 12730
374 67
374 331
374 375
374 459
374 521
374 730
374 1760
374 1830
374 2013
374 2209
374 3124
374 3178
374 3455
374 3460
374 3462
374 3463
374 3957
374 4083
374 5061
374 5066
374 5073
374 5389
374 5390
374 5391
374 5392
374 5393
374 5394
374 5395
374 5396
374 5478
374 6335
374 6467
375 47
375 49
375 317
375 332
375 374
375 482
375 730
375 870
375 1301
375 1446
375 1698
375 1823
375 1830
375 1831
375 2013
375 2947
375 3001
375 3018
375 3082
375 3168
375 3178
375 3179
375 3439
375 3453
375 3462
375 3657
375 5063
375 5397
375 5398
375 5399
375 7245
376 199
376 238
376 340
376 547
376 702
376 1108
376 1161
376 1191
376 2195
376 2253
376 2259
376 2345
376 2811
376 3368
376 3369
376 3811
376 4364
376 4446
376 4854
376 5400
376 5401
376 5402
376 5403
376 5404
376 5405
376 5406
376 5407
376 5408
376 7045
376 7765
377 15
377 78
377 195
377 498
377 639
377 716
377 871
377 939
377 1095
377 1160
377 1301
377 3454
377 4044
377 4046
377 4047
377 5409
377 5410
377 5411
377 5412
377 5413
377 5414
377 5415
377 5416
377 5417
377 8528
377 10144
377 11806
377 11969
377 12208
378 21
378 22
378 71
378 80
378 416
378 968
378 2574
378 3508
378 4440
378 4468
378 4881
378 4965
378 4968
378 5212
378 5240
378 5302
378 5334
378 5418
378 5419
378 5420
378 5421
378 5422
378 5423
378 5424
378 5425
378 5426
378 5895
379 21
379 22
379 485
379 3534
379 4882
379 5023
379 5034
379 5095
379 5131
379 5424
379 5427
379 5428
379 5429
379 5430
379 5431
379 5432
379 5433
379 5434
379 5435
379 5436
379 5437
379 5438
379 5507
379 6069
379 6439
379 7160
380 363
380 645
380 1241
380 1550
380 2087
380 4248
380 5004
380 5439
380 5440
380 5441
380 5442
380 5443
380 5444
380 5445
380 5446
380 5500
380 9257
380 9258
380 9260
380 9449
380 10124
380 10217
380 11232
380 11293
381 25
381 28
381 41
381 159
381 176
381 361
381 362
381 421
381 679
381 1041
381 1279
381 1575
381 1701
381 1784
381 2043
381 2308
381 2625
381 2769
381 3001
381 3366
381 3415
381 3458
381 4083
381 4084
381 4085
381 4834
381 5070
381 5315
381 5447
381 5448
381 5449
381 5450
381 5451
381 5452
381 5453
381 5454
381 5455
381 5456
381 5457
381 5458
381 5459
381 6029
381 6346
381 6347
381 7841
381 7843
381 9871
381 10489
381 10581
382 80
382 1042
382 1239
382 2519
382 3153
382 3830
382 4511
382 4513
382 5424
382 5460
382 5461
382 5462
382 5463
382 5464
382 5465
382 5466
382 5467
382 5468
382 5641
382 5868
382 6448
382 6475
382 6994
382 8380
382 8643
382 12050
383 24
383 40
383 44
383 52
383 553
383 958
383 1120
383 1171
383 1186
383 1475
383 1827
383 1828
383 1859
383 2351
383 2637
383 3342
383 3350
383 3354
383 3434
383 4992
383 5469
383 5470
383 5471
383 5472
384 772
384 1173
384 1617
384 2442
384 2892
384 2893
384 3017
384 3082
384 3729
384 3732
384 4108
384 4335
384 4546
384 4553
384 4765
384 4817
384 4936
384 5161
384 5473
384 5474
384 5475
384 5476
384 5477
385 36
385 57
385 59
385 67
385 331
385 730
385 1195
385 1830
385 3455
385 3459
385 3460
385 3902
385 3967
385 5478
385 5479
385 5480
385 5481
385 5482
385 5483
385 5484
385 5781
385 9454
386 44
386 321
386 343
386 683
386 689
386 1345
386 1346
386 2253
386 2734
386 2973
386 3198
386 3621
386 3749
386 3805
386 4152
386 5058
386 5485
386 5486
386 5487
386 5488
386 5681
387 23
387 56
387 71
387 79
387 81
387 421
387 465
387 1618
387 2291
387 3993
387 4503
387 5276
387 5277
387 5489
387 5490
387 5491
387 5492
387 5493
387 5494
387 11718
388 40
388 2328
388 3777
388 4306
388 4307
388 4308
388 4311
388 5002
388 5006
388 5445
388 5495
388 5496
388 5497
388 5498
388 5499
388 5500
388 7136
388 9260
388 9946
389 80
389 435
389 710
389 1094
389 1314
389 1404
389 2141
389 2216
389 2291
389 2660
389 5501
389 5502
389 5503
389 5504
389 5505
389 7786
389 9638
389 9639
390 35
390 80
390 3682
390 3880
390 4109
390 4289
390 4431
390 4897
390 5287
390 5506
390 5507
390 5508
390 5509
390 5510
390 5511
390 5512
390 6683
391 79
391 421
391 1238
391 4206
391 4706
391 4891
391 5227
391 5513
391 5514
391 5515
391 5516
391 5517
391 5518
391 5877
391 6086
391 6201
392 68
392 344
392 452
392 1887
392 3369
392 3540
392 4279
392 5519
392 5520
392 5521
392 5522
392 5523
392 5524
392 5525
392 8316
393 308
393 2062
393 4584
393 5526
393 5527
393 5528
393 5529
393 5530
393 5531
393 5532
393 5610
393 8893
394 129
394 949
394 1639
394 2279
394 5533
394 5534
394 5535
394 5536
394 5537
395 44
395 70
395 77
395 246
395 340
395 344
395 436
395 470
395 1018
395 1231
395 1345
395 1346
395 1729
395 1742
395 2271
395 2621
395 2699
395 2745
395 2895
395 3398
395 3399
395 3440
395 3548
395 3553
395 5538
395 5539
396 47
396 56
396 65
396 78
396 79
396 313
396 831
396 986
396 1176
396 1747
396 2174
396 2467
396 2640
396 2851
396 2956
396 3145
396 3452
396 3602
396 3676
396 4009
396 4112
396 5540
396 5541
396 5542
396 6387
397 20
397 916
397 927
397 1006
397 1551
397 1685
397 1942
397 2126
397 2158
397 2918
397 5190
397 5192
397 5543
397 5544
397 5545
397 5546
397 5547
397 6897
397 8021
397 8900
397 11274
397 11436
398 47
398 55
398 492
398 577
398 1767
398 2638
398 2740
398 2771
398 3730
398 4065
398 4714
398 4946
398 5548
398 5549
398 5550
398 5551
398 5552
398 5553
398 5554
398 6958
398 8444
398 11798
399 763
399 1248
399 1292
399 1675
399 2488
399 2643
399 4437
399 4648
399 5555
399 5556
399 5557
399 5558
399 5559
399 6373
399 7379
399 7815
399 8574
399 8598
399 8792
400 346
400 664
400 682
400 2370
400 2777
400 2869
400 4105
400 4494
400 5560
400 5561
400 5562
400 5563
400 5564
400 7263
400 8051
400 8378
400 8770
400 11652
400 12009
401 1871
401 3774
401 3883
401 5565
401 5566
401 5567
401 5989
401 6221
401 6872
401 7011
401 8359
401 9075
401 10307
402 80
402 2117
402 4386
402 4784
402 5562
402 5568
402 5569
402 5570
402 5571
402 5572
402 8024
403 222
403 282
403 620
403 886
403 2445
403 2882
403 3508
403 3509
403 3518
403 3521
403 3529
403 4335
403 4347
403 4670
403 4776
403 5124
403 5137
403 5309
403 5333
403 5426
403 5490
403 5494
403 5573
403 5574
403 5575
403 5576
403 5577
403 5578
403 5579
403 5580
403 5581
403 5582
403 5583
403 5584
403 5585
403 5586
403 5587
403 5635
403 5894
403 5897
403 5917
403 6138
403 6139
403 6140
403 6796
403 7235
403 7901
403 10603
403 10868
404 39
404 64
404 199
404 238
404 460
404 547
404 565
404 853
404 952
404 1242
404 1332
404 1470
404 1502
404 1805
404 1826
404 2067
404 2191
404 2468
404 2623
404 3369
404 3371
404 3398
404 3506
404 4363
404 4364
404 4601
404 5525
404 5588
404 5589
404 5590
404 5591
404 5592
404 5593
404 6571
404 8158
404 9036
404 9044
404 9402
405 33
405 82
405 118
405 184
405 248
405 283
405 347
405 468
405 661
405 804
405 1083
405 1108
405 1138
405 1198
405 1214
405 1333
405 1447
405 1674
405 1695
405 1734
405 1827
405 2622
405 3475
405 3615
405 3720
405 3721
405 3746
405 3917
405 4622
405 5204
405 5594
405 5595
405 5596
405 5597
405 5598
405 5647
405 8246
406 40
406 58
406 82
406 184
406 339
406 442
406 475
406 731
406 1169
406 1242
406 1475
406 1798
406 1841
406 3261
406 3521
406 3594
406 3623
406 3713
406 3720
406 3805
406 4170
406 5200
406 5202
406 5599
406 5600
406 5601
406 5602
406 5603
406 5604
406 5605
406 5606
406 5607
406 5608
406 8490
406 9274
406 11772
407 117
407 259
407 291
407 336
407 346
407 444
407 801
407 1130
407 1141
407 1248
407 1535
407 1675
407 1705
407 2643
407 3909
407 3910
407 3915
407 4020
407 4435
407 4649
407 5105
407 5112
407 5609
407 5610
407 5611
407 5612
407 5613
407 5614
407 5615
407 5616
407 5617
407 5618
407 7095
407 8895
408 31
408 54
408 70
408 94
408 340
408 621
408 893
408 1073
408 1162
408 1497
408 1858
408 2937
408 3501
408 3662
408 4686
408 5142
408 5173
408 5619
408 5620
408 5621
408 5622
408 5623
408 5624
408 5625
408 5626
408 5627
408 5628
408 6118
408 6128
408 7253
408 8055
408 8800
408 9017
409 57
409 59
409 338
409 676
409 1618
409 1696
409 2011
409 2907
409 3518
409 4011
409 4771
409 5137
409 5629
409 5630
409 5631
409 5632
409 5633
409 5634
409 5635
409 5636
409 5637
409 5931
409 6062
409 6913
409 7749
409 7757
409 8132
409 8968
409 9484
409 9683
409 9859
409 11769
410 21
410 71
410 453
410 1517
410 2803
410 3637
410 4389
410 4469
410 4656
410 4882
410 5030
410 5034
410 5090
410 5421
410 5428
410 5492
410 5638
410 5639
410 5640
410 5641
410 5642
410 5905
410 5975
410 7443
410 7768
410 8225
411 32
411 70
411 173
411 184
411 347
411 350
411 463
411 496
411 585
411 661
411 668
411 822
411 1054
411 1169
411 1642
411 1695
411 2151
411 2760
411 3407
411 3868
411 4155
411 4161
411 4164
411 4562
411 4778
411 5214
411 5219
411 5224
411 5643
411 5644
411 5645
411 5646
411 5647
412 81
412 500
412 541
412 840
412 887
412 1211
412 2238
412 2291
412 2416
412 4573
412 4578
412 4579
412 5648
412 5649
412 5650
412 5651
412 5652
412 5653
412 5654
412 5818
412 6453
412 6454
412 6455
412 6458
412 7408
412 7669
412 7905
412 8281
412 11238
413 564
413 924
413 1169
413 1247
413 1674
413 1695
413 1770
413 2958
413 3261
413 3273
413 3278
413 3346
413 3380
413 4300
413 5655
413 5656
413 5657
413 5658
413 5659
413 5660
413 5661
413 5662
413 5663
413 6041
413 9057
413 9277
413 9726
413 10133
413 10385
414 22
414 23
414 51
414 71
414 79
414 1697
414 3529
414 3534
414 3600
414 3670
414 3679
414 3684
414 3770
414 4402
414 4477
414 4672
414 5293
414 5308
414 5309
414 5582
414 5664
414 5665
414 5666
414 5667
414 5668
414 5669
414 5670
414 5671
414 5672
415 33
415 58
415 321
415 803
415 1771
415 1962
415 2112
415 2970
415 3716
415 3726
415 4802
415 5009
415 5013
415 5673
415 5674
415 5675
415 5676
415 5677
415 5678
415 5679
415 5680
415 5681
415 5889
415 6051
415 6657
415 7596
415 8245
415 11164
416 80
416 81
416 378
416 520
416 1638
416 3508
416 3509
416 4965
416 5212
416 5334
416 5422
416 5423
416 5682
416 5683
416 5684
416 5685
416 5686
416 5687
416 5688
416 5689
416 6864
416 6932
416 6935
416 7769
416 7773
416 8220
417 56
417 79
417 708
417 1176
417 3170
417 3518
417 3535
417 3592
417 3600
417 3770
417 4628
417 4669
417 5690
417 5691
417 5692
417 5693
417 5694
417 5695
417 6071
417 10491
417 11075
417 12138
418 33
418 248
418 681
418 2292
418 3720
418 3802
418 3805
418 4256
418 4279
418 4315
418 4596
418 4603
418 5008
418 5696
418 5697
418 5698
418 5699
418 5700
418 5701
418 6084
418 6090
418 7064
418 10326
419 43
419 2552
419 2694
419 3631
419 3964
419 3974
419 4513
419 5702
419 5703
419 5704
419 5705
419 5706
419 5707
419 5708
419 7327
419 7416
419 7724
419 7788
419 8958
419 9396
419 10659
419 11163
420 94
420 3817
420 4549
420 5032
420 5700
420 5709
420 5710
420 5711
420 5712
420 5713
420 5714
421 65
421 72
421 307
421 339
421 342
421 362
421 381
421 387
421 391
421 521
421 566
421 708
421 828
421 886
421 939
421 1030
421 1182
421 1515
421 1519
421 1875
421 2159
421 2536
421 2537
421 2739
421 2879
421 2892
421 2893
421 2938
421 3000
421 3082
421 3412
421 3729
421 4045
421 4475
421 4553
421 4765
421 5715
421 5716
421 5717
421 5718
421 5719
421 5720
421 5721
421 5722
421 6574
421 9552
421 9858
422 33
422 248
422 1827
422 3594
422 3618
422 3627
422 3632
422 3720
422 3785
422 3838
422 4224
422 4256
422 4274
422 4355
422 4619
422 4623
422 5596
422 5699
422 5723
422 5724
422 5725
422 5726
422 5727
422 5728
422 5729
422 5730
422 5731
422 5732
422 5733
422 5920
422 6973
422 7066
422 7541
422 7675
422 7678
422 8243
422 8244
422 10078
422 10604
422 11058
423 19
423 51
423 56
423 71
423 79
423 80
423 81
423 429
423 1176
423 1280
423 1618
423 1666
423 3534
423 3536
423 3587
423 3592
423 3675
423 4136
423 4759
423 5127
423 5438
423 5734
423 5735
423 5736
423 5737
423 5738
423 5739
423 5740
423 5741
423 5742
423 5743
423 5744
423 5745
423 5790
423 7879
423 10034
424 22
424 23
424 26
424 51
424 66
424 71
424 81
424 708
424 3526
424 3529
424 3530
424 3531
424 3533
424 3535
424 3536
424 3600
424 3677
424 4174
424 4178
424 4180
424 4395
424 4401
424 4503
424 4652
424 4726
424 4735
424 4738
424 4745
424 4760
424 4762
424 4822
424 5024
424 5092
424 5267
424 5269
424 5271
424 5437
424 5740
424 5741
424 5746
424 5747
424 5748
424 5749
424 5750
424 5751
424 5752
424 5753
424 5754
424 5755
424 5756
424 6065
424 6510
424 6520
424 6541
424 6543
424 6602
424 8783
424 11114
424 11446
424 11706
425 23
425 61
425 71
425 1876
425 3508
425 3529
425 3534
425 3679
425 4136
425 4750
425 4751
425 4766
425 5269
425 5295
425 5308
425 5309
425 5336
425 5337
425 5578
425 5667
425 5670
425 5757
425 5758
425 5759
425 5760
425 5761
425 5762
425 5763
425 5764
425 5765
425 5766
425 5767
425 5768
425 5769
425 5788
425 5948
425 6135
425 6141
425 7899
425 8256
425 8512
425 9830
425 10858
426 39
426 43
426 58
426 63
426 64
426 75
426 83
426 128
426 191
426 324
426 468
426 731
426 1159
426 1172
426 1196
426 1346
426 1502
426 1700
426 1734
426 2094
426 2204
426 2259
426 2459
426 2623
426 2702
426 3255
426 3723
426 3725
426 3784
426 4308
426 4313
426 4528
426 5522
426 5770
426 5771
426 5772
426 5773
426 5774
426 5775
426 5776
426 7249
426 7736
427 36
427 46
427 57
427 59
427 67
427 331
427 339
427 495
427 730
427 1026
427 1195
427 1423
427 1830
427 2536
427 3191
427 3455
427 3459
427 3460
427 3461
427 3518
427 4011
427 5127
427 5351
427 5459
427 5478
427 5718
427 5777
427 5778
427 5779
427 5780
427 5781
427 5782
427 5783
427 5784
427 5785
427 5991
427 6364
427 7698
427 9720
427 11071
427 11592
428 22
428 51
428 81
428 485
428 2161
428 2770
428 2782
428 3534
428 3600
428 3674
428 3677
428 4362
428 4439
428 4440
428 4442
428 4468
428 4609
428 5023
428 5433
428 5511
428 5786
428 5787
428 5788
428 5789
428 5790
428 5791
428 5792
428 5912
428 5999
428 6443
428 6604
429 19
429 26
429 51
429 79
429 81
429 423
429 1176
429 2113
429 2693
429 3535
429 3582
429 3587
429 3590
429 3851
429 4404
429 5093
429 5507
429 5793
429 5794
429 5795
429 5796
429 5797
429 5798
429 5799
429 5800
429 5801
429 7588
429 8394
429 8524
429 8879
429 10093
429 10502
430 56
430 939
430 1219
430 1735
430 1816
430 2104
430 2447
430 3602
430 3683
430 3862
430 3964
430 4112
430 4138
430 4218
430 5802
430 5803
430 5804
430 5805
430 5806
430 5807
430 5808
430 6532
430 6892
430 7208
430 8537
431 23
431 26
431 27
431 71
431 1438
431 1573
431 1669
431 2161
431 2522
431 3674
431 3677
431 3852
431 3904
431 4183
431 4293
431 4503
431 4694
431 4746
431 4978
431 5374
431 5375
431 5809
431 5810
431 5811
431 5812
431 5813
431 5814
431 5815
431 5816
431 5817
431 5818
431 5819
431 6376
431 6380
431 6637
431 6646
431 6752
431 6753
431 9443
431 9445
431 9659
431 9730
431 9813
431 9816
431 9823
431 10731
431 10945
432 3831
432 3833
432 12733
433 5826
433 12748
434 15
434 36
434 59
434 242
434 328
434 339
434 449
434 633
434 957
434 1392
434 2443
434 2625
434 3082
434 3366
434 3507
434 3518
434 3666
434 4189
434 4569
434 4570
434 4571
434 5415
434 5457
434 5827
434 5828
434 5829
434 5830
434 5831
434 5832
434 5833
434 5995
434 6082
434 7948
434 8472
435 80
435 113
435 240
435 368
435 389
435 465
435 628
435 951
435 954
435 1164
435 1314
435 1501
435 1650
435 1800
435 2216
435 2292
435 2464
435 2654
435 3065
435 3214
435 3703
435 3961
435 3964
435 4551
435 5022
435 5834
435 5835
435 5836
435 5837
435 5838
435 5839
435 5840
435 5841
436 54
436 68
436 246
436 395
436 893
436 934
436 1018
436 1506
436 2642
436 2895
436 3437
436 3438
436 3440
436 3441
436 3645
436 3791
436 4285
436 4924
436 5142
436 5620
436 5842
436 5843
436 5844
436 5845
436 5846
436 5847
436 5848
436 8448
436 9560
437 54
437 68
437 1114
437 1172
437 1191
437 2255
437 2268
437 2449
437 2717
437 2839
437 3382
437 3402
437 3403
437 3474
437 3476
437 3540
437 4090
437 5732
437 5848
437 5849
437 5850
437 5851
437 5852
437 5853
437 5854
437 5855
437 6019
437 6021
437 6731
437 9939
438 838
438 1155
438 3608
438 3610
438 3611
438 4239
438 5043
438 5856
438 5857
438 5858
438 5859
438 5860
438 5861
438 5862
438 5863
438 7660
438 8191
438 9574
438 9803
438 10568
439 21
439 22
439 2988
439 3529
439 4226
439 4877
439 4882
439 5034
439 5072
439 5301
439 5424
439 5428
439 5791
439 5864
439 5865
439 5866
439 5867
439 5868
439 5869
439 6890
439 7676
439 8413
439 9580
440 574
440 757
440 1334
440 1963
440 2134
440 3519
440 5870
440 5871
440 5872
440 5873
440 5874
440 5875
440 5876
440 5877
440 6613
440 7817
440 8633
440 8951
441 16
441 18
441 30
441 32
441 49
441 50
441 52
441 70
441 469
441 471
441 472
441 527
441 821
441 1169
441 1497
441 1673
441 1879
441 2190
441 2303
441 2849
441 3128
441 3185
441 3203
441 3308
441 3309
441 3389
441 3391
441 3397
441 3426
441 3428
441 3430
441 3726
441 3791
441 5118
441 5619
441 5878
441 5879
441 5880
441 5881
441 5882
442 14
442 184
442 191
442 198
442 325
442 349
442 406
442 468
442 629
442 853
442 1172
442 1174
442 1316
442 1508
442 1561
442 1797
442 2331
442 2459
442 3084
442 3346
442 3713
442 3786
442 3805
442 3810
442 4090
442 5058
442 5883
442 5884
442 5885
442 5886
442 5887
442 5888
442 5889
442 7048
442 7137
442 7138
442 7712
442 9046
442 12227
443 620
443 794
443 3508
443 3509
443 3594
443 3670
443 4750
443 4770
443 4965
443 5212
443 5295
443 5296
443 5308
443 5309
443 5334
443 5337
443 5490
443 5494
443 5574
443 5578
443 5584
443 5587
443 5664
443 5667
443 5670
443 5766
443 5890
443 5891
443 5892
443 5893
443 5894
443 5895
443 5896
443 5897
443 5911
443 7239
443 8511
444 117
444 336
444 407
444 658
444 682
444 753
444 763
444 801
444 1104
444 1130
444 1141
444 1675
444 2643
444 3909
444 3910
444 3913
444 3915
444 4649
444 4650
444 5106
444 5108
444 5109
444 5110
444 5112
444 5532
444 5611
444 5613
444 5614
444 5615
444 5898
444 5899
444 5900
444 5901
444 5902
444 5903
444 5904
444 6667
445 21
445 81
445 465
445 2292
445 3507
445 3814
445 4439
445 4440
445 4442
445 4469
445 4609
445 4652
445 5789
445 5905
445 5906
445 5907
445 5908
445 5909
445 5910
445 5911
445 5912
445 5913
445 5979
445 5980
445 7768
445 7771
445 8416
446 467
446 974
446 1019
446 1490
446 1722
446 1990
446 2355
446 3285
446 3679
446 3814
446 3854
446 4906
446 5626
446 5914
446 5915
446 5916
446 5917
446 5918
446 5919
446 5920
446 5921
446 6908
446 8257
446 8320
446 8449
447 1208
447 3216
447 3657
447 5922
447 5923
447 5924
447 5925
447 5926
447 5927
447 5928
447 5929
447 5930
447 6651
447 7330
447 7335
447 7755
447 9316
447 9382
447 11547
447 11949
448 2285
448 3108
448 5128
448 5931
448 5932
448 5933
448 5934
448 5935
448 5936
448 5937
448 5938
448 5939
448 6308
448 6929
448 7993
448 7997
448 8391
448 8529
448 8731
448 8972
448 9176
448 9670
448 9877
449 25
449 36
449 37
449 41
449 46
449 57
449 59
449 61
449 67
449 105
449 310
449 364
449 434
449 466
449 476
449 620
449 674
449 679
449 743
449 894
449 1195
449 1957
449 2128
449 2129
449 2483
449 2800
449 2882
449 3602
449 3856
449 4459
449 4460
449 4664
449 4849
449 4850
449 4928
449 5582
449 5940
449 5941
449 5942
449 5943
449 5944
449 5945
450 51
450 69
450 81
450 620
450 1145
450 2536
450 3594
450 3600
450 3670
450 3679
450 3846
450 4750
450 4753
450 4754
450 5295
450 5296
450 5308
450 5309
450 5578
450 5584
450 5587
450 5664
450 5667
450 5670
450 5762
450 5763
450 5766
450 5896
450 5946
450 5947
450 5948
450 5949
450 5950
450 5951
450 5952
450 11708
450 11742
451 27
451 35
451 80
451 2298
451 3845
451 3849
451 3850
451 4135
451 4141
451 4389
451 4551
451 4805
451 5153
451 5953
451 5954
451 5955
451 5956
451 5957
451 5958
451 5959
451 5960
451 5961
451 5962
451 5963
451 5964
451 6702
451 8089
451 8090
451 8131
451 8708
451 8722
451 9617
451 11509
451 11598
451 11668
451 11721
452 29
452 38
452 43
452 49
452 58
452 63
452 64
452 68
452 392
452 1079
452 1170
452 1242
452 1887
452 2171
452 2272
452 2441
452 2632
452 2635
452 3337
452 3369
452 3398
452 3440
452 3515
452 3631
452 3725
452 3784
452 3785
452 3821
452 4279
452 4285
452 4355
452 4532
452 4619
452 4620
452 5005
452 5075
452 5148
452 5322
452 5404
452 5407
452 5701
452 5708
452 5729
452 5965
452 5966
452 5967
452 5968
452 5969
452 5970
452 5971
452 5972
452 5973
452 5974
452 6126
452 6166
452 7155
452 7216
452 7739
452 8139
452 8242
452 10008
452 10053
452 11503
453 21
453 22
453 80
453 81
453 410
453 465
453 3529
453 3534
453 3675
453 4404
453 4439
453 4440
453 4442
453 4469
453 4609
453 4881
453 4882
453 4965
453 5023
453 5034
453 5276
453 5303
453 5433
453 5642
453 5791
453 5975
453 5976
453 5977
453 5978
453 5979
453 5980
453 5981
453 5982
453 8215
453 9583
453 10505
454 80
454 81
454 1044
454 1670
454 2232
454 2653
454 3713
454 4644
454 5983
454 5984
454 5985
454 5986
454 5987
454 5988
454 5989
454 5990
454 5991
454 5992
454 5993
454 6216
454 7747
454 7969
454 8982
454 9754
454 10148
454 10200
454 10203
454 10758
455 37
455 46
455 57
455 59
455 67
455 1195
455 1541
455 1618
455 3856
455 4455
455 4456
455 4459
455 4460
455 4568
455 4658
455 4662
455 4664
455 4848
455 4850
455 4926
455 4928
455 4929
455 4930
455 5328
455 5329
455 5331
455 5332
455 5479
455 5994
455 5995
455 5996
455 5997
455 5998
455 5999
455 6081
455 7301
455 7868
455 7973
455 8088
455 9302
455 9631
455 10367
455 10485
455 10486
455 10778
455 11276
455 12119
455 12348
456 80
456 142
456 634
456 666
456 1353
456 1473
456 1976
456 2070
456 2690
456 3640
456 4313
456 5102
456 6000
456 6001
456 6002
456 6003
456 6004
456 6005
456 6006
456 6007
456 6008
456 6009
456 6010
456 7029
456 7030
456 7400
456 7435
456 8003
456 9763
456 9914
456 11199
456 11474
456 11619
456 12211
457 49
457 333
457 458
457 775
457 938
457 967
457 1139
457 1170
457 1184
457 1222
457 1831
457 1887
457 1926
457 2205
457 2256
457 2632
457 2866
457 2935
457 3009
457 3319
457 3439
457 3446
457 3479
457 3485
457 4370
457 4592
457 4597
457 4599
457 4604
457 4679
457 5076
457 5317
457 6011
457 6012
457 6013
457 6014
457 6015
458 30
458 70
458 457
458 587
458 655
458 802
458 893
458 938
458 1184
458 1709
458 2205
458 2268
458 2274
458 2437
458 2449
458 2642
458 2840
458 2885
458 3053
458 3437
458 3440
458 3441
458 4319
458 5848
458 6016
458 6017
458 6018
458 6019
458 6020
458 6021
458 6022
458 6023
458 6024
458 6025
458 7274
458 8904
459 55
459 159
459 271
459 331
459 332
459 367
459 374
459 526
459 730
459 870
459 1017
459 1157
459 1575
459 1823
459 1830
459 1831
459 2013
459 2014
459 2209
459 2388
459 2625
459 3123
459 3178
459 3179
459 3217
459 3453
459 3460
459 3462
459 3657
459 4083
459 5061
459 6026
459 6027
459 6028
459 6029
460 14
460 39
460 58
460 64
460 199
460 404
460 803
460 1470
460 1771
460 1805
460 1826
460 2065
460 2175
460 2191
460 2253
460 2259
460 2468
460 2734
460 4857
460 4955
460 5680
460 5709
460 6030
460 6031
460 6032
460 6033
460 6034
460 6035
460 6481
460 7534
460 7537
460 8796
460 8813
460 9906
461 60
461 309
461 1146
461 1674
461 1695
461 2147
461 2302
461 2817
461 3066
461 3390
461 3407
461 3482
461 3750
461 3751
461 3799
461 4412
461 4564
461 4621
461 5346
461 6036
461 6037
461 6038
461 6039
461 6040
461 6041
461 6042
461 6043
461 6044
461 6045
461 6046
461 6047
461 7546
462 30
462 32
462 49
462 52
462 58
462 63
462 64
462 70
462 343
462 538
462 2147
462 2204
462 2554
462 3125
462 3184
462 3308
462 3309
462 3391
462 3396
462 3933
462 4257
462 4356
462 5116
462 5486
462 6048
462 6049
462 6050
462 6051
462 6052
462 6653
462 9832
463 121
463 173
463 227
463 241
463 363
463 411
463 585
463 661
463 668
463 1054
463 1507
463 1602
463 1674
463 1770
463 1827
463 2102
463 2125
463 2150
463 2151
463 2540
463 2637
463 2798
463 2817
463 2943
463 2944
463 3073
463 3294
463 3321
463 3383
463 4070
463 4099
463 4160
463 4162
463 4300
463 4308
463 4559
463 4562
463 4563
463 4779
463 4789
463 4956
463 5661
463 6053
463 6054
463 6055
463 6056
463 6057
463 6058
463 9727
464 22
464 81
464 145
464 708
464 2434
464 3525
464 3526
464 3529
464 3592
464 4181
464 4395
464 4401
464 4611
464 4745
464 4762
464 4775
464 5023
464 5127
464 5265
464 5268
464 5750
464 5767
464 6059
464 6060
464 6061
464 6062
464 6063
464 6064
464 6065
464 6066
464 6067
464 6068
464 6069
464 6070
464 6071
464 6072
464 7566
464 8781
464 9130
464 9133
464 10834
464 12094
465 80
465 81
465 248
465 275
465 279
465 297
465 301
465 307
465 315
465 327
465 387
465 435
465 445
465 453
465 558
465 628
465 666
465 686
465 724
465 766
465 781
465 871
465 889
465 891
465 899
465 921
465 951
465 954
465 1011
465 1103
465 1164
465 1325
465 1501
465 1539
465 1645
465 1687
465 1718
465 1832
465 1885
465 1974
465 2078
465 2216
465 2292
465 2517
465 2667
465 3076
465 3186
465 3815
465 3933
465 3964
465 4547
465 5229
465 5505
465 6073
465 6074
465 6075
465 6076
465 6077
465 8152
466 25
466 28
466 36
466 37
466 41
466 46
466 49
466 57
466 67
466 125
466 295
466 331
466 449
466 660
466 730
466 876
466 1026
466 1195
466 1575
466 1760
466 1830
466 1831
466 2624
466 2625
466 3124
466 3201
466 3366
466 3439
466 3455
466 3460
466 3461
466 3468
466 4059
466 4083
466 4084
466 4188
466 4568
466 4570
466 4866
466 4929
466 4959
466 5066
466 5394
466 5451
466 5478
466 5831
466 6078
466 6079
466 6080
466 6081
466 6082
466 6083
466 7161
466 8472
466 9653
466 10934
467 14
467 76
467 184
467 246
467 249
467 344
467 446
467 1170
467 1184
467 1640
467 1833
467 2632
467 2717
467 3304
467 3403
467 3486
467 3615
467 3632
467 3640
467 3664
467 3720
467 3752
467 3757
467 3758
467 3808
467 4256
467 4261
467 4308
467 4315
467 4532
467 4603
467 4615
467 4622
467 4677
467 4682
467 4771
467 5008
467 5058
467 5147
467 5444
467 5596
467 5699
467 5700
467 6084
467 6085
467 6086
467 6087
467 6088
467 6089
467 6090
467 6091
467 6092
467 6093
467 6094
468 43
468 50
468 53
468 86
468 92
468 184
468 185
468 198
468 321
468 349
468 405
468 426
468 442
468 586
468 629
468 1138
468 1159
468 1172
468 1183
468 1316
468 1346
468 1700
468 1841
468 2057
468 2204
468 2459
468 2490
468 3429
468 3615
468 3620
468 3624
468 3802
468 4243
468 4251
468 4302
468 4303
468 4314
468 5200
468 6095
468 6096
468 6097
468 6098
468 6099
468 6100
468 8551
468 9050
468 9106
468 9751
468 10289
469 16
469 18
469 32
469 50
469 64
469 70
469 441
469 471
469 774
469 821
469 1133
469 1163
469 1194
469 1232
469 2147
469 2190
469 2248
469 2637
469 2761
469 2804
469 2849
469 3106
469 3125
469 3126
469 3128
469 3203
469 3386
469 3389
469 3391
469 3426
469 3428
469 3480
469 3483
469 3811
469 3895
469 4150
469 4601
469 4925
469 5116
469 6046
469 6101
469 6102
469 6103
469 7251
470 16
470 39
470 44
470 49
470 53
470 58
470 63
470 237
470 395
470 1345
470 1673
470 1729
470 1843
470 2259
470 2328
470 2367
470 2734
470 2973
470 3349
470 3355
470 3368
470 3371
470 3399
470 3433
470 4601
470 4667
470 4857
470 5588
470 5774
470 6104
470 6105
470 6106
470 6107
470 6108
470 6109
470 6110
470 6111
470 6112
470 6127
470 6428
470 7576
471 16
471 18
471 30
471 50
471 322
471 441
471 469
471 821
471 1174
471 1243
471 1549
471 2147
471 2303
471 3128
471 3203
471 3294
471 3391
471 3428
471 3639
471 3640
471 3662
471 4152
471 4278
471 4993
471 5350
471 5628
471 6113
471 6114
471 6115
471 6116
471 6117
471 6118
471 6119
471 6120
471 7594
471 8914
471 9061
471 9956
472 43
472 44
472 49
472 70
472 73
472 441
472 587
472 689
472 1170
472 1184
472 1194
472 1521
472 1640
472 1833
472 1854
472 2147
472 2328
472 2632
472 2834
472 3398
472 3432
472 3476
472 3486
472 3501
472 3662
472 3664
472 3819
472 3821
472 4277
472 4312
472 4315
472 4317
472 4592
472 4597
472 4679
472 4683
472 4684
472 5058
472 5142
472 5214
472 5774
472 6023
472 6025
472 6117
472 6121
472 6122
472 6123
472 6124
472 6125
472 6126
472 6127
472 6128
472 6129
472 6130
472 6131
472 6491
472 6743
472 6744
472 7528
472 7545
472 7580
472 8161
472 8676
472 9019
472 9034
472 9085
472 9241
472 9977
472 11179
473 282
473 620
473 3279
473 3508
473 3509
473 3521
473 3670
473 4670
473 4749
473 4750
473 4754
473 4776
473 4821
473 4965
473 5293
473 5295
473 5296
473 5309
473 5336
473 5337
473 5490
473 5494
473 5576
473 5578
473 5584
473 5586
473 5587
473 5664
473 5667
473 5670
473 5757
473 5764
473 5766
473 5893
473 5894
473 5896
473 5897
473 5911
473 6132
473 6133
473 6134
473 6135
473 6136
473 6137
473 6138
473 6139
473 6140
473 6141
473 6142
473 6143
473 6144
473 7240
473 7900
473 8681
473 10015
473 10213
474 30
474 38
474 40
474 48
474 52
474 58
474 63
474 73
474 171
474 241
474 350
474 475
474 683
474 804
474 872
474 924
474 930
474 1120
474 1133
474 1146
474 1169
474 1171
474 1186
474 1268
474 1476
474 1648
474 1655
474 1674
474 1797
474 1828
474 1961
474 2272
474 2377
474 2475
474 2637
474 2645
474 2804
474 2817
474 2837
474 3160
474 3261
474 3273
474 3297
474 3313
474 3336
474 3350
474 3396
474 3435
474 3488
474 3624
474 3795
474 3897
474 4257
474 4258
474 4263
474 4958
474 4992
474 4997
474 6145
474 6146
474 6147
474 6148
474 11500
475 40
475 52
475 53
475 197
475 207
475 350
475 406
475 474
475 527
475 629
475 650
475 804
475 822
475 924
475 1146
475 1162
475 1169
475 1561
475 1587
475 1655
475 1674
475 1785
475 1797
475 1799
475 1837
475 1843
475 1849
475 1858
475 1961
475 2151
475 2303
475 2324
475 2760
475 3005
475 3129
475 3278
475 3349
475 3356
475 3373
475 3397
475 3420
475 3430
475 3488
475 3504
475 3625
475 3726
475 4143
475 4258
475 4412
475 4600
475 4954
475 5218
475 6050
475 6149
475 6150
475 6151
475 6152
476 23
476 37
476 46
476 57
476 59
476 67
476 339
476 362
476 449
476 1195
476 3518
476 3529
476 3535
476 3954
476 4503
476 6153
476 6154
476 6155
476 6156
476 8715
477 325
477 803
477 1285
477 1390
477 3810
477 4447
477 4549
477 4678
477 4802
477 5009
477 5174
477 5679
477 5680
477 5709
477 6157
477 6158
477 6159
477 6160
477 8799
477 8812
478 33
478 1310
478 2291
478 3210
478 3971
478 4269
478 4677
478 4852
478 5602
478 5626
478 5731
478 6093
478 6161
478 6162
478 6163
478 6164
478 6165
478 6166
478 7960
478 11770
479 259
479 682
479 1130
479 1199
479 1240
479 1705
479 3274
479 3913
479 4450
479 5106
479 6167
479 6168
479 6169
479 6170
479 7649
479 9123
479 9256
479 9280
479 9509
480 54
480 621
480 2359
480 3441
480 3476
480 3647
480 4323
480 5848
480 5855
480 5916
480 6171
480 6172
481 751
481 1568
481 1618
481 4223
481 4425
481 4444
481 5076
481 5330
481 5864
481 6173
481 6174
481 6175
482 28
482 41
482 46
482 61
482 375
482 3463
482 3957
482 6176
482 6177
482 6178
482 6179
482 10769
483 23
483 2975
483 3531
483 3533
483 4035
483 4174
483 4500
483 6180
483 6181
483 6714
483 7862
483 9576
484 1512
484 1896
484 6182
484 6183
484 6184
484 6185
484 6186
484 6187
484 6479
484 7171
484 10923
485 334
485 360
485 379
485 428
485 571
485 1126
485 6188
486 939
486 1437
486 1568
486 1688
486 4659
486 6189
487 28
487 1577
487 3891
487 5292
487 6190
487 6191
488 1363
488 6192
488 6193
488 6194
488 6195
488 6202
488 8142
489 5780
489 6196
489 6197
489 6265
489 7130
489 9457
489 9469
490 11789
490 12933
491 873
491 1097
491 1134
491 2030
491 2058
491 3730
491 4041
491 4042
491 4340
491 4945
491 6204
491 6205
491 6206
491 6207
491 6208
491 6209
491 6210
492 313
492 398
492 754
492 764
492 1134
492 2536
492 2549
492 4339
492 4936
492 6209
492 6210
492 6211
492 6212
492 6213
492 6214
492 6254
493 532
493 916
493 1635
493 2090
493 5197
493 5813
493 6215
493 6216
493 6217
493 6218
493 6219
493 6220
493 6221
493 6222
493 6223
493 6224
493 6500
494 1025
494 2701
494 5250
494 5257
494 6225
494 6226
494 6227
494 6228
494 6229
494 6329
494 6470
494 6523
494 6583
494 7475
495 427
495 693
495 1041
495 1249
495 2179
495 2348
495 2374
495 2445
495 2446
495 2548
495 3120
495 3148
495 3180
495 3190
495 3191
495 3192
495 5397
495 6230
495 6231
495 6232
496 45
496 411
496 651
496 1619
496 2717
496 3407
496 5643
496 6038
496 6233
496 6234
496 6235
496 6236
496 6237
496 6238
496 6239
496 6240
496 6241
496 7339
496 10383
496 10384
497 33
497 185
497 629
497 1776
497 3259
497 3614
497 3618
497 3620
497 3621
497 3971
497 4164
497 4251
497 4858
497 5008
497 5058
497 6242
497 6243
497 6244
497 10423
497 10676
498 23
498 26
498 81
498 377
498 2052
498 3529
498 3531
498 3533
498 4182
498 4503
498 4746
498 5740
498 6245
498 6246
498 6247
498 6248
498 6249
498 6250
498 6251
498 11764
499 986
499 1097
499 1134
499 1330
499 1606
499 2537
499 2549
499 2612
499 3218
499 3730
499 4041
499 6206
499 6252
499 6253
499 6254
499 6255
500 13
500 81
500 412
500 541
500 871
500 1551
500 2238
500 2292
500 4575
500 6256
500 6257
500 6258
500 6259
500 6459
500 7402
500 7793
500 10045
501 2839
501 4639
501 6268
502 6269
502 6270
502 12302
503 6273
503 8998
503 10076
504 1303
504 2684
504 2947
504 6274
504 6275
504 6276
504 6277
505 2338
505 3507
505 4047
505 4048
505 6278
505 6279
505 6824
506 151
506 509
506 4061
506 6280
506 6281
507 722
507 1347
507 6282
507 6283
507 6284
507 6285
508 81
508 5384
508 6286
508 6287
508 6288
508 9843
509 506
509 4061
509 6280
509 6289
510 4140
510 6290
510 6291
510 6292
510 6293
510 8418
511 782
511 795
511 1745
511 2107
511 4468
511 4469
511 5303
511 6294
511 6295
512 259
512 2643
512 6296
512 6297
512 6298
512 6299
512 6300
512 8855
512 10881
513 3599
513 4207
513 6301
513 6302
513 6303
513 6304
513 6305
513 9541
513 11285
514 525
514 694
514 3942
514 6306
514 6307
514 6308
514 6309
515 1402
515 6310
515 6311
515 6312
515 7857
515 11306
516 80
516 984
516 1945
516 4056
516 4329
516 5368
516 6313
516 6314
516 6315
516 6316
517 3598
517 4588
517 4589
517 4705
517 4706
517 4707
517 5232
517 5518
517 6317
517 6318
518 681
518 2794
518 3444
518 4677
518 6319
518 6320
518 6321
518 6322
518 6323
518 7050
519 921
519 5834
519 6324
519 6325
519 6326
519 6327
519 8208
519 8636
520 80
520 416
520 2465
520 5302
520 5689
520 6228
520 6328
520 6329
520 6330
520 6331
520 6332
520 6333
521 25
521 41
521 374
521 421
521 622
521 2882
521 3770
521 6334
521 6335
521 6336
521 6337
521 6338
522 42
522 62
522 1029
522 3273
522 3380
522 3385
522 3651
522 5183
522 5185
522 6339
523 80
523 1588
523 2292
523 2978
523 3291
523 6340
523 6341
523 6342
523 6343
523 7966
523 7982
523 10024
524 1701
524 3529
524 6027
524 6173
524 6344
524 6345
524 6346
524 6347
524 6348
524 6353
524 7947
524 10482
525 514
525 3637
525 6306
525 6349
525 6350
525 6351
525 6352
525 8342
525 10242
526 55
526 310
526 331
526 332
526 459
526 630
526 802
526 870
526 1157
526 1227
526 1276
526 1297
526 1725
526 1830
526 1831
526 2013
526 2129
526 2338
526 3018
526 3191
526 3453
526 3462
526 3732
526 4227
526 4659
526 4801
526 5069
526 5397
526 6027
526 6346
526 6353
526 6354
526 6355
526 6356
526 6842
527 172
527 206
527 441
527 475
527 683
527 1032
527 1120
527 2732
527 3352
527 3426
527 4258
527 4958
527 6357
527 6358
528 878
528 1402
528 2373
528 3217
528 3264
528 3657
528 4087
528 5069
528 5408
528 5456
528 5833
528 6359
528 6360
528 11239
529 108
529 1825
529 2701
529 3872
529 4223
529 4386
529 4536
529 4693
529 5257
529 6361
529 6362
529 6363
529 6364
529 6365
530 2424
530 4155
530 4164
530 4617
530 5223
530 5661
530 6366
530 6367
530 6368
530 6434
530 6970
530 10440
531 1903
531 2063
531 5558
531 6369
531 6370
531 6371
531 6372
531 6373
531 7090
531 7091
531 9901
531 11193
532 178
532 493
532 542
532 1670
532 2090
532 4200
532 4201
532 5375
532 5376
532 6276
532 6374
532 6375
532 6376
532 6377
532 6378
532 6379
532 6380
532 6381
532 6672
532 6675
532 8790
533 51
533 81
533 989
533 1375
533 3676
533 3678
533 4039
533 4095
533 4215
533 4218
533 6382
533 6383
533 6384
533 6385
533 6386
533 6387
533 6388
533 6389
533 6566
533 8425
533 9757
534 6262
534 12716
535 5194
535 6426
536 40
536 1159
536 1185
536 1194
536 1198
536 1412
536 1507
536 2328
536 2377
536 3972
536 4249
536 4274
536 5348
536 5885
536 6427
536 6428
536 6429
536 6430
537 73
537 1770
537 2190
537 2303
537 2490
537 2732
537 2843
537 3196
537 3354
537 3434
537 3488
537 3805
537 5472
537 5619
537 6431
537 6432
537 6433
537 6434
538 92
538 462
538 1079
538 1356
538 1843
538 2272
538 3435
538 3624
538 3787
538 3788
538 3789
538 4363
538 5199
538 6435
538 6436
538 6437
538 7740
538 9101
539 81
539 2829
539 3529
539 3534
539 3675
539 3765
539 4441
539 4502
539 4610
539 5668
539 5981
539 6438
539 6439
539 6440
539 6441
539 6442
539 6443
539 6444
540 1415
540 1439
540 4055
540 4328
540 4548
540 6445
540 6446
540 6447
540 6448
540 6449
540 6450
540 6893
540 8533
540 8561
540 8967
540 9792
541 81
541 412
541 500
541 1211
541 1551
541 2292
541 2713
541 4482
541 4573
541 4577
541 4578
541 4579
541 5374
541 5653
541 5818
541 6451
541 6452
541 6453
541 6454
541 6455
541 6456
541 6457
541 6458
541 6459
541 6777
541 7671
541 8767
541 8771
541 8805
541 11238
542 178
542 532
542 1080
542 2090
542 3876
542 5197
542 5813
542 5837
542 6222
542 6276
542 6378
542 6460
542 6461
542 6462
542 6463
542 6464
542 6771
542 7431
542 9850
542 10121
542 10432
542 11090
542 11943
543 331
543 332
543 1952
543 3363
543 6465
543 6466
543 6467
543 6468
544 4536
544 6226
544 6331
544 6469
544 6470
544 6471
544 6472
545 762
545 2597
545 6473
545 6474
545 6475
545 6689
545 7557
545 9793
546 4176
546 6476
546 6477
546 6478
546 6479
546 6544
546 6607
546 9368
547 32
547 43
547 64
547 94
547 186
547 376
547 404
547 776
547 1079
547 1185
547 1743
547 2952
547 3021
547 3079
547 3374
547 3480
547 3804
547 3811
547 4366
547 4854
547 4925
547 5322
547 5967
547 5974
547 6437
547 6480
547 6481
547 6482
547 6483
547 7731
548 77
548 344
548 587
548 1250
548 1552
548 1742
548 3381
548 3383
548 3651
548 3660
548 3819
548 5070
548 6120
548 6429
548 6484
548 6485
548 6486
548 6487
548 6488
548 6489
548 6490
548 6491
548 6492
548 10135
548 10533
549 2893
549 3218
549 3412
549 4334
549 6493
549 6494
549 6495
549 6496
549 6497
550 2954
550 5197
550 6498
550 6499
550 6500
550 6501
550 6502
550 6503
550 10388
551 889
551 3973
551 5552
551 6504
551 6505
551 6506
551 6507
551 6508
551 7203
552 1074
552 1126
552 3598
552 6509
552 6510
552 6511
552 6512
552 6513
553 24
553 40
553 48
553 53
553 58
553 63
553 73
553 383
553 908
553 958
553 1013
553 1333
553 1797
553 2272
553 2804
553 3198
553 3349
553 4072
553 4356
553 5676
553 5677
553 6051
553 6114
553 6514
553 6515
553 6516
554 22
554 79
554 247
554 1145
554 2379
554 3017
554 3873
554 4606
554 4656
554 5355
554 5358
554 5438
554 5740
554 6364
554 6517
554 6518
554 6519
554 6520
554 6521
554 6522
554 6523
554 6524
554 7984
554 9811
554 10122
554 10856
555 61
555 78
555 79
555 831
555 1375
555 3673
555 3681
555 4093
555 4094
555 4095
555 4096
555 4418
555 6389
555 6525
555 6526
555 6527
555 6528
555 6529
555 6530
555 6531
555 6532
555 8419
555 8423
555 9847
555 10622
556 4151
556 4224
556 5443
556 5591
556 5696
556 6122
556 6533
556 6534
556 6535
556 6536
556 6537
556 6538
556 6539
556 6540
556 6811
556 6942
556 7585
556 7632
556 7640
556 7835
556 8159
556 9039
556 9245
556 10330
556 10725
557 15
557 23
557 56
557 79
557 1176
557 3525
557 3528
557 3530
557 3592
557 4726
557 4760
557 5265
557 5435
557 5740
557 6246
557 6541
557 6542
557 6543
557 6544
557 6545
557 7863
557 8461
557 8679
557 8875
557 9331
557 10032
558 80
558 81
558 465
558 2655
558 3579
558 3600
558 4326
558 4469
558 5165
558 5208
558 5209
558 5951
558 6546
558 6547
558 6548
558 6549
558 6550
558 6551
558 11012
559 2377
559 2837
559 3070
559 6553
559 7003
560 722
560 3101
560 6282
560 6555
561 1147
561 6556
561 6557
561 10821
562 6400
562 6558
562 6559
563 61
563 284
563 1375
563 2477
563 3676
563 3678
563 6383
563 6389
563 6560
563 6561
563 6562
563 6563
563 6564
563 6565
563 6566
564 283
564 309
564 413
564 585
564 1521
564 1640
564 3346
564 4779
564 4990
564 5224
564 6567
564 6568
564 6569
564 6570
564 10075
565 73
565 404
565 1242
565 1478
565 2065
565 3792
565 3986
565 4364
565 4601
565 6482
565 6571
565 6572
565 6573
565 9790
565 11198
566 421
566 607
566 1954
566 2269
566 3316
566 3995
566 5243
566 6574
566 6575
566 6576
566 6577
566 6578
566 6579
566 6580
566 7234
567 995
567 2228
567 2992
567 6581
567 6582
567 6583
567 6584
567 6585
567 6586
567 6587
567 6588
567 7387
567 7693
567 7963
567 8565
568 64
568 238
568 1185
568 1332
568 1826
568 2908
568 3021
568 3022
568 3223
568 3369
568 3371
568 3811
568 4802
568 4857
568 5046
568 6111
568 6589
568 6590
569 658
569 1373
569 1661
569 2488
569 2616
569 4437
569 4585
569 5557
569 5611
569 5618
569 6591
569 6592
569 6593
569 6594
569 6960
569 6961
569 7392
569 9644
570 14
570 58
570 2264
570 3313
570 3386
570 3401
570 3618
570 3629
570 3726
570 4072
570 4952
570 5839
570 6595
570 6596
570 6597
570 6598
570 6599
570 11733
571 21
571 485
571 3530
571 3532
571 3582
571 4136
571 4402
571 4440
571 5433
571 5437
571 5790
571 6365
571 6600
571 6601
571 6602
571 6603
571 6604
571 11113
572 249
572 2268
572 3382
572 3494
572 3650
572 5916
572 6605
572 6606
573 2398
573 5651
573 6607
573 6608
573 6609
573 6610
573 8283
573 8993
574 440
574 1284
574 1963
574 3865
574 4206
574 4541
574 5722
574 6611
574 6612
574 6613
574 6614
574 6615
574 6625
574 9386
575 1798
575 2853
575 3627
575 4788
575 4789
575 4793
575 6616
575 6617
575 6618
575 6619
575 6620
575 6621
575 9031
575 9102
576 71
576 88
576 3759
576 3760
576 3765
576 4609
576 6622
576 6623
576 6624
576 6625
576 6626
576 10061
576 10062
577 209
577 303
577 398
577 1371
577 1721
577 4888
577 6627
577 6628
577 6629
577 6630
577 6631
577 6632
577 7919
577 11823
578 71
578 1355
578 4859
578 4963
578 6633
578 6634
578 6635
578 6636
578 6637
578 6638
578 6761
578 11415
578 11464
578 12016
579 1374
579 1376
579 2234
579 2597
579 6639
579 6640
580 641
580 697
580 3839
580 6641
580 6642
580 7589
581 2645
581 6643
581 6644
581 6645
581 6646
581 10766
582 3569
582 5385
582 9357
582 12774
583 3319
583 6651
583 6652
584 6653
584 6654
584 6655
584 8955
585 44
585 86
585 107
585 118
585 198
585 227
585 241
585 350
585 411
585 463
585 564
585 656
585 668
585 822
585 872
585 897
585 903
585 1016
585 1246
585 1311
585 1452
585 1561
585 1655
585 1674
585 1905
585 2125
585 2143
585 2151
585 2331
585 2424
585 2560
585 2760
585 2798
585 2817
585 2958
585 3005
585 3084
585 3089
585 3236
585 3278
585 6656
586 14
586 24
586 38
586 53
586 75
586 92
586 184
586 185
586 191
586 192
586 237
586 468
586 1198
586 1734
586 1761
586 1798
586 1843
586 1987
586 2248
586 2268
586 2302
586 3313
586 3349
586 3373
586 3614
586 3615
586 3616
586 3621
586 3624
586 3784
586 3896
586 4307
586 4311
586 4318
586 4319
586 5169
586 5217
586 6657
586 6658
586 6659
586 6660
587 77
587 119
587 246
587 333
587 458
587 472
587 548
587 1114
587 1170
587 1184
587 1495
587 1601
587 1746
587 1813
587 1887
587 2043
587 2082
587 2083
587 2205
587 2274
587 2283
587 2359
587 2618
587 2797
587 2885
587 2912
587 3077
587 3288
587 3443
587 3467
587 3556
587 3648
587 4370
587 4374
587 6661
587 6662
587 6663
587 6664
587 6665
587 8929
587 11223
588 1675
588 4431
588 5108
588 6666
588 6667
589 80
589 6668
589 6669
589 6670
589 6671
590 6672
590 6673
590 6674
590 6675
590 9919
591 33
591 69
591 80
591 81
591 135
591 335
591 789
591 1147
591 1977
591 2816
591 3640
591 3997
591 3998
591 4013
591 5099
591 5101
591 5103
591 5150
591 5347
591 5368
591 5728
591 5731
591 6676
591 6677
591 6678
591 6679
591 6816
591 7645
591 9789
591 10025
592 2398
592 3906
592 5127
592 6680
592 6681
592 6682
592 6683
592 6684
592 10013
593 80
593 762
593 810
593 1273
593 6685
593 6686
593 6687
593 6688
593 6689
594 20
594 885
594 1337
594 1705
594 1845
594 2158
594 2616
594 3247
594 3329
594 3909
594 4649
594 5190
594 5557
594 6690
594 6691
594 6692
594 6693
594 6694
594 6695
594 6959
594 7892
594 8048
594 8400
594 9444
594 9533
594 11329
595 311
595 631
595 2170
595 2254
595 6696
595 6697
595 6698
595 6699
595 7506
595 10611
595 11350
595 12029
596 1816
596 6074
596 6077
596 6700
596 6701
596 6702
596 6703
596 6704
596 6707
596 8148
596 8481
597 1008
597 4841
597 6704
597 6705
597 6706
597 6707
598 346
598 1379
598 2109
598 6708
598 6709
598 6710
599 2293
599 2506
599 2646
599 6711
599 6712
599 9474
600 1147
600 4431
600 6713
600 6714
600 6715
600 7460
601 33
601 185
601 241
601 248
601 1045
601 1533
601 2550
601 3720
601 4532
601 6716
601 6717
601 6718
601 6719
602 20
602 1411
602 1775
602 2158
602 2690
602 2918
602 5190
602 6720
602 6721
602 6722
602 6723
602 6724
602 9747
603 347
603 2132
603 4248
603 4990
603 5216
603 6725
603 6726
603 6727
603 6728
603 6729
603 6730
603 6731
603 7579
604 1598
604 5824
604 6732
604 6733
604 6734
604 6735
604 6736
604 6737
604 7355
604 9651
604 11016
604 11207
604 11893
605 80
605 1024
605 1069
605 1256
605 1754
605 1763
605 4326
605 6738
605 6739
605 6740
605 6741
606 1170
606 1184
606 1854
606 2490
606 2632
606 2793
606 6490
606 6742
606 6743
606 6744
606 6745
607 566
607 2159
607 3637
607 6577
607 6746
607 6747
607 6748
607 7446
607 7930
607 11022
607 11496
608 3808
608 4458
608 5943
608 6160
608 6492
608 6749
608 6750
608 6751
608 7850
608 10739
608 11695
609 51
609 2722
609 4035
609 4138
609 6752
609 6753
609 6754
609 6755
609 7521
610 2124
610 3845
610 4141
610 6556
610 6756
610 6757
610 6758
610 6759
610 6760
610 6761
611 2978
611 5023
611 5424
611 5428
611 5430
611 5433
611 6762
611 6763
611 6764
611 11588
612 69
612 613
612 4073
612 5649
612 6765
612 6766
612 6767
612 6768
612 7648
612 8008
613 80
613 612
613 1530
613 3035
613 3561
613 6505
613 6769
613 6770
614 1494
614 1723
614 6222
614 6771
614 6772
614 6773
614 6774
614 8867
615 5738
615 6775
615 6776
615 6777
615 6778
615 6779
615 7629
616 1103
616 4634
616 6780
616 6781
616 6782
617 80
617 81
617 6783
617 6784
617 10287
618 6785
618 6786
618 6787
618 6788
618 9328
619 10
619 47
619 1023
619 1907
619 2028
619 2060
619 2467
619 2640
619 2786
619 2956
619 3449
619 3452
619 5452
619 6789
619 6790
619 6791
619 6792
619 7038
620 282
620 403
620 443
620 449
620 450
620 473
620 884
620 974
620 1037
620 1385
620 2142
620 4772
620 5582
620 5585
620 6793
620 6794
620 6795
620 6796
621 68
621 340
621 408
621 480
621 1243
621 1346
621 1729
621 2499
621 2642
621 3227
621 3550
621 6797
621 6798
621 6799
621 6800
621 7281
621 9784
622 59
622 67
622 521
622 828
622 1195
622 2338
622 3379
622 3463
622 4137
622 5998
622 6801
622 6802
622 6803
622 6804
622 6805
622 6806
622 9682
623 29
623 655
623 3350
623 5081
623 5969
623 6539
623 6807
623 6808
623 6809
623 6810
623 6811
623 6812
623 6813
623 6939
623 6940
623 9014
623 10557
623 10869
624 1726
624 3124
624 3127
624 5364
624 5958
624 6814
624 6815
624 6816
624 6817
624 6818
624 7779
624 10150
624 10547
624 10644
624 10825
624 12698
625 687
625 1176
625 2474
625 3363
625 3465
625 4004
625 6819
625 6820
625 6821
625 11269
626 2338
626 3714
626 4047
626 4048
626 4295
626 6822
626 6823
626 6824
626 6825
626 8632
627 3830
627 6826
627 6827
627 6828
627 6829
627 6830
627 6831
627 8965
627 10334
627 10694
628 80
628 435
628 465
628 1164
628 1632
628 1650
628 1902
628 2292
628 2431
628 4548
628 6831
628 6832
628 6833
628 6834
628 6835
628 6836
628 6837
628 7262
628 8313
628 8555
628 10333
628 10380
628 10937
629 75
629 118
629 192
629 349
629 442
629 468
629 475
629 497
629 1138
629 1183
629 1412
629 1507
629 1673
629 1785
629 1841
629 1843
629 2883
629 3349
629 3620
629 3623
629 5673
629 6838
629 6839
629 10488
630 210
630 298
630 526
630 1774
630 2299
630 2516
630 2618
630 2619
630 2750
630 2980
630 3439
630 4427
630 4632
630 4864
630 4866
630 4867
630 6840
630 6841
630 6842
630 6843
630 6844
630 10668
630 11536
630 11916
631 595
631 1122
631 1479
631 1708
631 1751
631 1852
631 2254
631 2628
631 2697
631 2726
631 2727
631 2864
631 4039
631 4493
631 6495
631 6696
631 6845
631 6846
631 6847
631 6848
632 201
632 1596
632 2011
632 2369
632 2687
632 3110
632 3111
632 6849
633 61
633 434
633 1830
633 3454
633 5415
633 6179
633 6850
633 9619
634 80
634 456
634 3632
634 3997
634 6010
634 6851
634 10188
634 11620
635 1120
635 3719
635 6852
635 6853
635 6854
635 6915
635 10374
635 12455
636 1219
636 1572
636 1963
636 3862
636 4111
636 5352
636 5803
636 6532
636 6855
636 6856
637 35
637 995
637 1355
637 4111
637 4628
637 5956
637 6857
637 6858
637 6859
637 6860
638 1730
638 5054
638 5423
638 6329
638 6861
638 6862
638 6863
638 6864
638 6865
638 7165
639 377
639 871
639 907
639 5059
639 6866
639 6867
639 6868
639 7971
639 8858
639 8990
640 5195
640 6869
640 6870
640 6871
640 6872
640 9321
640 9913
640 10106
640 10433
640 10915
641 267
641 580
641 6873
641 6874
641 6875
641 7459
641 8838
642 274
642 677
642 860
642 990
642 1528
642 2025
642 2392
642 6876
642 6877
643 681
643 1744
643 2955
643 3210
643 6878
643 6879
643 6880
643 6881
643 12214
644 144
644 1919
644 1975
644 2179
644 4031
644 6230
644 6231
644 6882
644 9284
645 329
645 380
645 5445
645 5500
645 6883
645 6884
645 6885
645 9260
646 862
646 1047
646 1081
646 1153
646 1439
646 2233
646 6830
646 6886
646 6887
646 6888
646 6889
646 6890
646 6891
646 6892
646 6893
647 1744
647 4148
647 4667
647 6108
647 6894
647 6895
647 6896
647 6897
647 6898
647 6899
647 8901
647 8926
647 11003
647 11208
648 318
648 1010
648 1156
648 4717
648 5197
648 5990
648 5993
648 6900
648 6901
648 6902
648 6903
649 335
649 666
649 1982
649 3632
649 6904
649 6905
649 6906
649 6907
649 6908
649 6909
649 6996
650 38
650 172
650 206
650 475
650 1169
650 1183
650 2337
650 2671
650 4153
650 4790
650 5633
650 6039
650 6854
650 6910
650 6911
650 6912
650 6913
650 6914
650 6926
651 31
651 33
651 496
651 839
651 1311
651 3198
651 3353
651 3475
651 4561
651 5643
651 6152
651 6914
651 6915
651 6916
651 6917
651 6918
651 6919
651 6920
651 7664
652 1616
652 1646
652 2168
652 3314
652 3515
652 4677
652 5005
652 6808
652 6810
652 6921
652 6922
652 6923
652 6924
652 6925
652 6938
652 6939
652 11502
653 731
653 1196
653 1310
653 1798
653 3355
653 3798
653 4170
653 5600
653 6163
653 6164
653 6853
653 6926
653 6927
653 6928
653 6929
653 6930
654 943
654 2160
654 4966
654 5302
654 5425
654 5685
654 5687
654 5689
654 6864
654 6931
654 6932
654 6933
654 6934
654 6935
654 11964
655 458
655 623
655 3924
655 5081
655 5187
655 6924
655 6936
655 6937
655 6938
655 6939
655 6940
655 6941
655 6942
655 11175
656 585
656 4250
656 5965
656 6943
656 6944
656 6945
656 6946
656 7468
656 8011
656 9219
656 10452
657 79
657 1176
657 3861
657 6678
657 6947
657 6948
657 6949
657 6950
657 6951
657 6952
657 6953
657 6954
657 11543
657 11941
658 444
658 569
658 1010
658 4437
658 5106
658 5618
658 6955
658 6956
658 6957
658 6958
658 6959
658 6960
658 6961
658 9814
659 2979
659 4425
659 4632
659 4866
659 4867
659 6844
659 6962
659 6963
659 6964
659 6965
659 6966
659 7591
659 11535
660 25
660 41
660 46
660 298
660 466
660 894
660 1067
660 1487
660 1702
660 1784
660 1957
660 3008
660 3201
660 3366
660 3468
660 4188
660 4189
660 4866
660 4867
660 6966
660 6967
660 6968
661 248
661 285
661 350
661 405
661 411
661 463
661 804
661 1319
661 1642
661 2125
661 3868
661 3921
661 4155
661 4164
661 6969
661 6970
661 6971
661 6972
661 6973
661 7178
661 8845
661 10479
661 11315
662 13
662 117
662 742
662 753
662 1130
662 1620
662 1690
662 1803
662 1847
662 2539
662 2643
662 3910
662 4101
662 4106
662 4874
662 6709
662 6974
662 6975
662 6976
662 9891
662 10733
663 17
663 1058
663 1844
663 2055
663 2298
663 2409
663 2802
663 3107
663 3961
663 4941
663 5015
663 5840
663 6977
663 6978
663 6979
663 6980
664 209
664 400
664 682
664 734
664 765
664 3044
664 5563
664 6981
664 6982
664 6983
664 6984
664 6985
664 6986
664 6987
664 8145
664 9822
665 756
665 839
665 1520
665 2008
665 3061
665 3726
665 3940
665 4575
665 5862
665 6988
665 6989
665 6990
665 6991
665 6992
665 8746
665 10039
666 81
666 456
666 465
666 649
666 1792
666 2292
666 3639
666 3640
666 3999
666 6993
666 6994
666 6995
666 6996
666 6997
666 8189
666 10713
667 3599
667 3866
667 4208
667 5517
667 6549
667 6998
667 6999
667 7000
667 7001
667 7002
667 7458
667 8568
667 8569
667 8696
667 8947
668 347
668 411
668 463
668 585
668 804
668 903
668 973
668 1013
668 1229
668 1254
668 1422
668 1556
668 1602
668 1642
668 2760
668 3084
668 3294
668 3721
668 3746
668 4560
668 4561
668 5224
668 7003
668 7004
668 7005
668 7006
669 80
669 4291
669 4294
669 7007
669 7008
670 913
670 1275
670 7009
670 7010
671 7011
671 7012
671 7013
671 8597
672 1147
672 3467
672 4974
672 4979
672 7014
672 7015
672 7016
672 10047
673 80
673 1398
673 7017
673 7018
673 7019
673 7020
673 8125
674 37
674 46
674 61
674 295
674 449
674 4045
674 4928
674 5332
674 7021
674 7022
675 256
675 274
675 1228
675 1842
675 4020
675 4431
675 4725
675 7023
675 7024
675 7389
676 409
676 1696
676 2417
676 2485
676 4671
676 4820
676 7025
676 7026
676 9676
677 80
677 81
677 642
677 912
677 1147
677 6877
677 7027
677 7028
677 7777
677 11713
678 6003
678 6010
678 7029
678 7030
678 7031
678 7032
678 7400
679 25
679 28
679 37
679 41
679 307
679 381
679 449
679 876
679 923
679 1618
679 1701
679 1702
679 2267
679 3001
679 3461
679 4058
679 5944
679 5945
679 6949
679 7033
679 7034
679 7035
679 7036
679 7037
679 7038
679 7039
679 7985
679 7988
679 10063
679 10579
680 20
680 735
680 937
680 1115
680 1491
680 1844
680 1913
680 2409
680 2418
680 2996
680 4730
680 4942
680 5961
680 6977
680 7040
680 7041
680 7042
680 7043
680 7044
680 8094
680 8303
680 9199
680 10401
680 12204
681 43
681 64
681 238
681 418
681 518
681 643
681 803
681 877
681 1109
681 1161
681 1185
681 3020
681 3223
681 3369
681 3371
681 3805
681 3810
681 3812
681 4446
681 4854
681 4855
681 5081
681 5186
681 5404
681 5701
681 6084
681 6111
681 6590
681 7045
681 7046
681 7047
681 7048
681 7049
681 7050
681 7051
681 7138
681 7535
681 7849
682 100
682 164
682 209
682 289
682 300
682 336
682 400
682 444
682 479
682 664
682 912
682 950
682 979
682 980
682 1095
682 1127
682 1141
682 1661
682 1781
682 2109
682 2712
682 2777
682 3910
682 3949
682 4101
682 6986
682 7052
682 7053
683 43
683 52
683 58
683 63
683 64
683 75
683 343
683 386
683 474
683 527
683 821
683 1138
683 2147
683 2490
683 2685
683 2973
683 3198
683 3386
683 3480
683 3787
683 4356
683 4952
683 6357
683 7005
683 7054
683 7055
683 7056
683 7057
684 40
684 58
684 63
684 1233
684 2095
684 2377
684 2637
684 3184
684 3336
684 3342
684 3352
684 3479
684 4992
684 7058
684 7059
685 176
685 730
685 1575
685 3082
685 3458
685 4083
685 4084
685 4085
685 4188
685 4189
685 5828
685 7060
685 7061
685 7062
685 7063
686 465
686 4314
686 4583
686 4917
686 5347
686 5530
686 5728
686 5731
686 6164
686 7064
686 7065
686 7066
686 7067
686 7068
686 7069
687 56
687 79
687 625
687 1176
687 3688
687 3689
687 3993
687 4206
687 7070
687 7071
687 7072
687 7073
687 7074
687 7293
687 9845
688 1261
688 2364
688 3007
688 3259
688 4856
688 7075
688 7076
688 7077
688 7078
688 7079
688 11376
688 11621
688 11622
688 11737
689 39
689 75
689 237
689 386
689 472
689 1254
689 1412
689 2191
689 2253
689 2734
689 3198
689 4686
689 4955
689 5774
689 6050
689 7080
689 7081
690 39
690 75
690 185
690 324
690 952
690 1185
690 1533
690 1677
690 1761
690 2259
690 2540
690 2550
690 5680
690 7082
690 7083
690 7084
690 7085
691 764
691 996
691 1708
691 2030
691 2179
691 2282
691 2536
691 4008
691 4051
691 6204
691 6214
691 6496
691 7086
691 7087
691 7088
691 7089
691 7346
692 3158
692 4649
692 5558
692 5903
692 6370
692 6372
692 7090
692 7091
692 7092
692 7093
692 7094
692 7095
692 7096
692 9867
692 9901
692 11193
693 15
693 495
693 1249
693 2179
693 2374
693 3042
693 4030
693 7097
693 7098
693 7099
693 7100
693 7101
693 9696
693 10513
693 10654
693 12162
694 514
694 836
694 922
694 1512
694 1644
694 2091
694 3889
694 7102
694 7103
694 7104
694 7105
694 7106
694 7174
694 7650
694 7670
694 7782
694 8388
695 917
695 7107
695 7108
696 7109
696 7110
696 7111
697 580
697 897
697 912
697 2713
697 3963
697 4168
697 5155
697 6984
697 7112
697 7113
697 7114
697 7115
698 80
698 704
698 1545
698 1721
698 3083
698 4423
698 4430
698 7116
698 7117
698 7118
698 7119
698 9421
699 1374
699 2234
699 3153
699 3830
699 3937
699 7120
699 7121
699 7123
699 7124
699 12889
700 847
700 2586
700 2961
700 3781
700 5044
700 5324
700 7125
700 7126
700 7127
700 7128
700 7704
701 84
701 923
701 4087
701 4335
701 5454
701 7129
701 7130
701 7131
701 7132
701 9224
701 9969
701 11921
702 43
702 199
702 376
702 776
702 1185
702 1656
702 2067
702 2068
702 2328
702 3021
702 3200
702 3625
702 3804
702 3805
702 3810
702 3812
702 5401
702 7133
702 7134
702 7135
702 7136
702 7137
702 7138
702 7139
702 7140
702 7741
702 7851
702 10836
703 23
703 26
703 3531
703 4176
703 4180
703 4183
703 4394
703 4503
703 4745
703 6251
703 7141
703 7142
703 7143
703 7144
704 80
704 698
704 889
704 1721
704 4191
704 7145
704 7146
704 7147
704 7148
704 7149
704 7150
704 7151
704 9184
704 9185
705 14
705 77
705 853
705 1136
705 1250
705 3663
705 3805
705 4090
705 7048
705 7152
705 7153
705 7154
705 7155
705 9001
706 61
706 67
706 1362
706 3454
706 5669
706 5944
706 7156
706 7157
706 7158
706 7159
706 7160
706 7161
706 9426
707 51
707 81
707 2886
707 4886
707 5302
707 5689
707 6865
707 7162
707 7163
707 7164
707 7165
707 10560
707 11672
708 281
708 351
708 417
708 421
708 424
708 464
708 1989
708 2113
708 2892
708 3592
708 4539
708 6520
708 7166
708 7167
709 89
709 338
709 1838
709 1953
709 2284
709 3232
709 3816
709 6259
709 7168
709 7169
709 7170
709 7171
709 7172
709 8757
710 389
710 912
710 921
710 979
710 1441
710 2712
710 2777
710 5115
710 6986
710 7053
710 7173
710 7174
710 7175
710 7176
711 52
711 1138
711 1416
711 1695
711 3716
711 4152
711 4622
711 4778
711 7177
711 7178
711 7179
711 12046
711 12135
712 67
712 1662
712 2589
712 2977
712 3688
712 5480
712 7180
712 7181
713 23
713 26
713 4176
713 4180
713 4503
713 7182
713 7183
713 11445
714 35
714 85
714 4606
714 5031
714 7184
714 7185
714 8645
714 10514
715 4449
715 7186
715 7187
715 7188
715 7189
715 7190
715 7544
715 10050
716 25
716 28
716 41
716 377
716 1519
716 2338
716 2443
716 3082
716 3327
716 3365
716 3415
716 3449
716 3666
716 4045
716 4188
716 4189
716 4928
716 7191
716 7192
717 12
717 50
717 73
717 1232
717 1840
717 2659
717 3125
717 3128
717 3203
717 3348
717 3351
717 3389
717 3391
717 3426
717 5881
717 6046
717 7193
717 7194
717 9048
718 32
718 1131
718 1828
718 1877
718 2190
718 2698
718 3355
718 3428
718 3895
718 4353
718 4530
718 5972
718 7195
718 7196
718 7197
718 7198
718 7199
718 7418
718 8925
719 1704
719 2380
719 4582
719 7020
719 7200
719 7201
719 7202
719 7203
719 7204
719 7205
719 7206
719 7814
719 8358
719 10012
719 11348
720 79
720 1137
720 1804
720 3934
720 4417
720 7207
720 7208
721 58
721 63
721 2328
721 3746
721 7209
721 7210
721 9999
722 507
722 560
722 6282
722 7211
722 7212
722 7213
723 756
723 2361
723 7214
723 7215
723 7216
723 7217
724 465
724 1539
724 6581
724 7218
724 7219
724 7220
724 7221
725 1196
725 1310
725 4275
725 4277
725 7222
725 7223
725 7224
726 2655
726 3820
726 3964
726 4552
726 7225
726 7226
726 9312
727 5939
727 7227
727 7228
727 7229
727 7230
727 8117
727 10041
728 7231
728 7232
728 7233
728 7234
728 8306
728 8730
728 10020
729 51
729 81
729 794
729 3509
729 3529
729 4465
729 4670
729 4770
729 5293
729 5334
729 5337
729 5490
729 5574
729 5893
729 5952
729 6144
729 7235
729 7236
729 7237
729 7238
729 7239
729 7240
729 7241
729 7897
729 9922
730 49
730 55
730 159
730 331
730 332
730 374
730 375
730 385
730 427
730 459
730 466
730 685
730 870
730 1157
730 1227
730 1575
730 1830
730 1831
730 2013
730 2014
730 2069
730 2224
730 2624
730 3001
730 3018
730 3178
730 3179
730 3234
730 3322
730 3453
730 3462
730 3538
730 4801
730 5069
730 5397
730 7242
730 7243
730 7244
730 7245
730 7246
730 9360
731 31
731 48
731 53
731 60
731 73
731 191
731 192
731 323
731 406
731 426
731 653
731 858
731 1111
731 1132
731 1196
731 1310
731 1345
731 1619
731 1761
731 2094
731 2127
731 2268
731 2459
731 3644
731 4146
731 4150
731 4308
731 4313
731 4361
731 4788
731 4995
731 6163
731 7247
731 7248
731 7249
731 7250
731 7251
731 7252
731 7253
731 7254
731 7617
732 1058
732 1590
732 1844
732 2055
732 3107
732 3875
732 4941
732 7255
732 7256
732 7257
732 7258
733 1748
733 3632
733 3854
733 4122
733 6315
733 6331
733 7259
733 7260
733 7261
733 7262
733 12132
734 664
734 765
734 2039
734 4105
734 4449
734 6986
734 7263
734 7264
734 7265
734 7266
734 10342
735 680
735 1217
735 3093
735 3205
735 4141
735 7042
735 7267
735 7268
735 9198
735 12409
736 3906
736 7269
736 7270
736 7271
736 7272
736 7273
736 9329
736 11339
736 11410
736 11975
737 68
737 70
737 340
737 1243
737 1506
737 1729
737 2555
737 2621
737 2934
737 3197
737 3428
737 3440
737 3444
737 5145
737 5148
737 5173
737 5176
737 5538
737 7274
737 7275
737 7276
737 7277
738 200
738 246
738 904
738 1427
738 1679
738 1778
738 2086
738 2334
738 2501
738 2839
738 2870
738 2930
738 2931
738 2934
738 2946
738 3544
738 3545
738 3550
738 5060
738 5203
738 6881
738 7278
738 7279
738 7280
738 7281
738 7282
738 7283
738 8196
738 9785
738 9786
738 10336
738 10446
738 10597
738 11231
738 11790
739 45
739 49
739 1184
739 1640
739 1905
739 2632
739 2717
739 3382
739 3501
739 4679
739 7284
739 7285
739 7286
740 24
740 83
740 92
740 1641
740 2324
740 3726
740 5225
740 5486
740 7287
740 7288
740 7289
740 7290
740 7291
741 35
741 69
741 81
741 3687
741 3688
741 3906
741 3907
741 5151
741 7292
741 7293
741 7294
741 7295
741 7351
742 13
742 662
742 1620
742 4202
742 7296
742 7297
742 7298
742 7299
742 10299
742 10319
742 12237
743 37
743 46
743 94
743 295
743 449
743 1195
743 2624
743 2635
743 4456
743 4459
743 4849
743 7300
743 7301
744 51
744 69
744 81
744 1980
744 2888
744 3584
744 3741
744 5384
744 6288
744 7302
744 7303
744 7304
744 8112
745 228
745 1010
745 2073
745 2742
745 3727
745 3735
745 5115
745 5569
745 7305
745 7306
745 7307
745 7308
746 1871
746 2413
746 2415
746 2703
746 2704
746 4871
746 7309
746 7310
746 7311
746 7312
746 7313
746 7314
747 4511
747 4815
747 6830
747 7315
747 7316
747 7317
747 7318
747 7319
747 7320
747 7438
747 7439
747 11229
747 11490
748 5382
748 7322
748 12766
749 7323
749 7324
749 7325
750 7328
750 12923
751 10
751 481
751 1281
751 2619
751 4425
751 4804
751 4834
751 4866
751 4867
751 5075
751 6173
751 6175
751 6312
751 7329
751 7330
751 7331
751 7332
751 7333
751 7334
751 7335
751 7854
751 7858
751 7859
751 9315
751 10146
752 30
752 40
752 1110
752 1521
752 1619
752 2717
752 2793
752 3273
752 3350
752 3390
752 3477
752 3486
752 3664
752 5659
752 5852
752 6236
752 7336
752 7337
752 7338
752 7339
752 7340
752 7341
752 10383
753 117
753 336
753 444
753 662
753 801
753 1466
753 1675
753 1803
753 2643
753 3910
753 3913
753 4101
753 4102
753 4106
753 4874
753 5106
753 5109
753 5557
753 6169
753 6299
753 7342
753 7343
753 8144
754 492
754 873
754 1134
754 1708
754 2254
754 2536
754 2537
754 2549
754 2893
754 2985
754 3218
754 3730
754 4339
754 4936
754 6209
754 6213
754 6214
754 6496
754 7344
754 7345
754 7346
754 7347
754 7508
755 19
755 56
755 79
755 1025
755 1121
755 1176
755 1515
755 1555
755 1722
755 1808
755 3592
755 3597
755 3688
755 3907
755 4534
755 5687
755 7348
755 7349
755 7350
755 7351
755 7352
755 8170
755 10175
756 665
756 723
756 1520
756 4166
756 4578
756 4667
756 5104
756 6669
756 7101
756 7353
756 7354
756 7355
757 80
757 440
757 3583
757 5153
757 5962
757 7112
757 7356
757 7357
757 7358
757 7359
757 7360
757 7361
758 931
758 1134
758 1919
758 2536
758 4036
758 4490
758 7308
758 7362
758 7363
758 7364
758 8062
758 12332
759 30
759 972
759 1247
759 2026
759 2323
759 3350
759 4925
759 7365
759 7366
759 8239
759 8776
759 11053
760 3381
760 3383
760 4597
760 4832
760 6429
760 6489
760 7367
760 7368
760 7369
760 7370
760 10059
761 7371
761 7372
762 545
762 593
762 1949
762 4515
762 6686
762 6687
762 7373
762 7374
762 7375
763 399
763 444
763 2488
763 7376
763 7377
763 7378
763 7379
763 10895
764 492
764 691
764 1567
764 4946
764 6204
764 6207
764 7089
764 7380
765 80
765 209
765 664
765 734
765 6986
765 7381
765 7382
765 8995
766 465
766 1043
766 1164
766 4742
766 7383
766 7384
766 8612
766 8752
767 2682
767 4608
767 6581
767 7385
767 7386
767 7387
767 7964
768 177
768 1096
768 1130
768 1379
768 2411
768 2673
768 4913
768 7149
768 7150
768 7388
768 7389
768 7390
768 7391
768 7392
768 7393
768 7394
768 8026
768 8298
768 8573
768 8759
768 9893
769 174
769 1020
769 2570
769 6259
769 7103
769 7395
769 7396
769 7397
769 7398
769 7399
769 7400
769 7401
769 7402
769 7909
769 8110
769 8369
769 8455
769 8457
769 10794
769 11206
770 157
770 233
770 291
770 780
770 1918
770 2178
770 2262
770 7403
770 7404
771 60
771 775
771 2367
771 2937
771 3896
771 6011
771 7405
771 7406
772 384
772 979
772 1436
772 6212
772 7150
772 7407
772 7408
772 7409
772 7410
773 253
773 1964
773 7411
773 7412
773 7413
773 7414
773 7415
773 7416
773 12342
774 32
774 64
774 94
774 337
774 469
774 776
774 1232
774 1828
774 2190
774 2266
774 2554
774 2733
774 2804
774 2952
774 3125
774 3203
774 3297
774 3355
774 3386
774 3428
774 4988
774 6437
774 7417
774 7418
775 49
775 54
775 70
775 457
775 771
775 967
775 1184
775 1521
775 1593
775 1778
775 1887
775 1995
775 2632
775 2866
775 3439
775 3446
775 3479
775 4592
775 4597
775 4604
775 6011
775 7405
775 7419
776 43
776 58
776 63
776 94
776 547
776 702
776 774
776 1171
776 1656
776 1828
776 2067
776 2328
776 2823
776 3373
776 3374
776 3386
776 3811
776 4257
776 4258
776 7420
776 7421
776 7422
776 11484
776 12110
777 32
777 309
777 1139
777 1400
777 1521
777 2805
777 3126
777 3130
777 3185
777 3479
777 4601
777 4922
777 5614
777 7423
777 7424
778 1481
778 5197
778 6217
778 6222
778 6276
778 6500
778 6501
778 7425
778 7426
778 7427
778 7428
778 7429
778 7430
778 7431
778 7894
779 1609
779 1678
779 2179
779 2626
779 4246
779 5102
779 6108
779 6109
779 7101
779 7354
779 7432
779 7433
779 7434
779 7435
779 7436
780 288
780 770
780 921
780 979
780 1918
780 2325
780 2332
780 3974
780 7437
780 7438
780 7439
780 7440
780 7441
780 10239
781 71
781 80
781 81
781 233
781 465
781 2291
781 3637
781 4386
781 7442
781 7443
781 7444
781 7445
781 7446
781 7929
781 11802
782 511
782 1021
782 1718
782 2410
782 7447
782 7448
782 7449
782 7450
783 222
783 837
783 2285
783 4475
783 5053
783 7451
783 7452
783 7654
784 916
784 1071
784 1914
784 7453
784 7454
784 7455
784 8664
784 10807
785 2500
785 6772
785 6999
785 7456
785 7457
785 7458
785 8579
786 5292
786 6875
786 7459
786 7460
786 7461
786 7462
787 2394
787 4017
787 4667
787 7463
787 7464
787 7465
787 7466
787 7467
787 7468
787 7469
787 7881
787 10157
788 1099
788 2743
788 4472
788 4916
788 7470
788 7471
788 7472
788 7473
788 7474
788 7475
788 7482
789 591
789 3632
789 7476
789 7477
790 3023
790 7479
790 12805
791 7482
791 7483
791 12915
792 153
792 2247
792 2282
792 2443
792 2508
792 2738
792 2781
792 4032
792 4040
792 4233
792 7168
792 7484
792 7485
792 7486
792 7487
792 7488
792 7497
793 881
793 885
793 1629
793 1801
793 2182
793 2218
793 4698
793 4699
793 6377
793 6461
793 7489
793 7490
793 7491
793 7492
793 7493
793 7494
793 11404
794 282
794 443
794 729
794 3594
794 4465
794 4670
794 4770
794 5293
794 5574
794 6684
794 7485
794 7495
794 7496
794 7497
794 7498
794 7499
794 11165
795 21
795 22
795 357
795 511
795 4609
795 4877
795 4882
795 5023
795 5034
795 5276
795 5303
795 5421
795 7500
795 7501
795 7502
795 8415
795 10224
796 1072
796 1999
796 2719
796 2938
796 3134
796 4039
796 5735
796 7503
796 7504
796 7505
796 7506
796 7507
796 7508
796 7509
796 7510
796 7511
796 7800
797 61
797 79
797 1137
797 1176
797 1804
797 7512
797 7513
798 982
798 1573
798 2176
798 7514
798 7515
798 7516
799 2645
799 3640
799 3854
799 7517
799 7518
799 7519
799 9949
800 51
800 4136
800 4138
800 7520
800 7521
800 7522
800 7523
800 7524
801 336
801 407
801 444
801 753
801 950
801 1130
801 1141
801 1259
801 1534
801 1535
801 1675
801 1772
801 2009
801 2643
801 3158
801 3228
801 3910
801 3915
801 4649
801 4650
801 5105
801 5113
801 7525
801 7526
801 7527
802 49
802 458
802 526
802 1139
802 1250
802 1495
802 1521
802 1640
802 1833
802 2632
802 2797
802 3439
802 3446
802 3479
802 4679
802 4683
802 5732
802 6018
802 6241
802 7528
802 7529
802 7530
802 7531
802 7532
802 7533
803 415
803 460
803 477
803 681
803 1285
803 1771
803 2970
803 3371
803 3805
803 3810
803 4594
803 5009
803 5013
803 5680
803 6035
803 6158
803 7049
803 7534
803 7535
803 7536
803 7537
803 7538
803 7539
803 8796
804 33
804 52
804 82
804 350
804 405
804 474
804 475
804 661
804 668
804 1169
804 1172
804 1254
804 1319
804 1422
804 1496
804 1674
804 2622
804 3236
804 3594
804 3716
804 3717
804 3720
804 3870
804 4152
804 4488
804 4772
804 4778
804 5221
804 5224
804 6795
804 7188
804 7540
804 7541
804 7542
804 7543
804 7544
804 7545
804 7546
805 899
805 1638
805 2104
805 2156
805 2846
805 7547
806 122
806 2073
806 2239
806 3947
806 7548
806 7549
807 2697
807 4892
807 7550
807 7551
807 8663
807 11995
808 27
808 6766
808 7552
808 7553
808 10803
809 245
809 7554
809 7555
810 593
810 7556
810 7557
811 7558
811 7559
811 7560
812 297
812 813
812 956
812 1121
812 1234
812 1863
812 2123
812 2844
812 3424
812 4785
812 7561
813 35
813 81
813 812
813 4332
813 4609
813 4861
813 7562
813 7563
813 7564
813 7565
813 7566
814 61
814 2376
814 2422
814 3666
814 4429
814 4430
814 7567
814 7568
814 7569
814 7570
814 12238
815 239
815 307
815 352
815 2267
815 2672
815 3535
815 3688
815 7571
815 7572
816 14
816 70
816 2345
816 4365
816 4603
816 5046
816 5047
816 5700
816 6084
816 6087
816 6323
816 7573
816 7574
816 7575
816 7576
816 7577
816 7635
817 1167
817 1242
817 3819
817 3920
817 4953
817 5005
817 7578
817 7579
817 7580
817 7581
817 7582
817 7583
817 7584
817 7585
817 8155
817 9039
817 10862
818 4018
818 7586
818 7587
818 7588
818 7589
818 8876
818 10535
818 11372
819 4425
819 4866
819 7590
819 7591
820 3963
820 7592
820 7593
820 8370
821 16
821 18
821 40
821 50
821 52
821 58
821 63
821 75
821 441
821 469
821 471
821 683
821 1146
821 1231
821 1790
821 2143
821 2147
821 2685
821 3203
821 3391
821 5169
821 5676
821 5773
821 7594
821 7595
822 52
822 283
822 411
822 475
822 585
822 1655
822 1799
822 1849
822 2125
822 2331
822 2377
822 2760
822 2798
822 2817
822 3278
822 3721
822 4560
822 4562
822 4563
822 5221
822 5346
822 6152
822 6428
822 7596
822 7597
823 1176
823 1409
823 1693
823 2526
823 3595
823 4206
823 6949
823 7598
823 7599
824 81
824 3675
824 3698
824 4606
824 4610
824 7600
824 7601
824 7602
824 10853
825 31
825 321
825 2754
825 2849
825 3749
825 7603
825 7604
825 7605
826 80
826 81
826 7606
826 7607
826 7608
826 7610
826 8719
827 1040
827 1824
827 7609
827 7610
827 7611
827 7612
827 8718
827 10419
828 41
828 367
828 421
828 622
828 1446
828 2209
828 2806
828 5778
828 6337
828 6338
828 7038
828 7613
828 7614
828 7615
829 43
829 64
829 238
829 1196
829 1310
829 3007
829 3434
829 3540
829 4279
829 4313
829 4856
829 7616
829 7617
829 7618
830 27
830 284
830 1980
830 3560
830 3682
830 4859
830 5509
830 5951
830 7619
830 7620
830 7621
830 7622
830 7623
830 8961
831 47
831 396
831 555
831 2467
831 2921
831 4095
831 4213
831 4219
831 4418
831 7624
831 7625
831 7626
832 231
832 1775
832 2901
832 4504
832 6776
832 6777
832 7627
832 7628
832 7629
832 7630
832 9197
832 9745
833 14
833 324
833 874
833 875
833 1447
833 1785
833 4151
833 4446
833 5444
833 6539
833 7631
833 7632
833 7633
833 7634
833 7635
833 7839
834 1475
834 1500
834 1898
834 2710
834 3126
834 3130
834 3483
834 4529
834 4532
834 4952
834 5175
834 7636
834 7637
834 7638
834 7639
835 45
835 249
835 3380
835 4224
835 4444
835 5444
835 6094
835 6953
835 7640
835 7641
835 7642
835 7643
835 7644
835 7645
835 8319
835 9108
836 694
836 922
836 2091
836 2386
836 2492
836 7103
836 7104
836 7105
836 7646
836 7647
836 7648
836 7649
836 7650
836 7651
836 8040
836 8388
837 282
837 783
837 3594
837 5053
837 5585
837 6283
837 7652
837 7653
837 7654
837 7655
837 7656
837 8527
837 8745
837 10587
837 10866
837 10867
838 74
838 438
838 1155
838 3611
838 5043
838 6706
838 7657
838 7658
838 7659
838 7660
838 7661
838 8328
838 8977
839 335
839 651
839 665
839 1054
839 1233
839 1520
839 2732
839 3072
839 3337
839 3353
839 3475
839 3640
839 3713
839 5887
839 7662
839 7663
839 7664
839 8177
840 412
840 4577
840 5650
840 5653
840 6458
840 7665
840 7666
840 7667
840 7668
840 7669
840 7670
840 7671
840 8760
840 9493
840 10002
840 10004
840 11238
840 11449
841 33
841 80
841 4622
841 4879
841 6764
841 7672
841 7673
841 7674
841 7675
841 7676
841 7677
841 7678
841 9615
841 10141
841 10789
841 11412
842 17
842 849
842 1314
842 1571
842 2233
842 2409
842 3950
842 5153
842 5368
842 7679
842 7680
842 7681
842 7682
842 7683
842 7684
842 9748
843 293
843 1145
843 1471
843 1618
843 4429
843 4430
843 4706
843 6003
843 6169
843 7264
843 7685
843 7686
843 7687
843 8892
843 10697
843 11247
844 3826
844 3827
844 3830
844 7262
844 7688
844 7689
844 7690
844 7691
844 7692
844 7693
844 7694
844 8786
844 10395
845 80
845 240
845 348
845 994
845 1011
845 1294
845 1384
845 2655
845 4326
845 4547
845 4550
845 7695
845 7696
845 7697
846 1468
846 1725
846 1957
846 3484
846 3982
846 5055
846 5056
846 5059
846 6868
846 7698
846 7699
846 7700
846 7701
846 8987
847 700
847 3780
847 5041
847 5044
847 5324
847 6331
847 7702
847 7703
847 7704
847 7705
847 7706
847 7707
848 43
848 63
848 64
848 1470
848 1860
848 2067
848 2112
848 2259
848 2468
848 2554
848 3064
848 3368
848 3369
848 3371
848 3792
848 3986
848 4363
848 4364
848 4858
848 5402
848 5967
848 6031
848 7708
848 7709
848 7710
848 7711
848 7712
848 7713
848 7714
849 842
849 888
849 1058
849 1288
849 1331
849 1547
849 2055
849 2409
849 3065
849 3323
849 4942
849 4943
849 5018
849 5840
849 6759
849 7679
849 7715
849 7716
849 7717
849 7718
849 7719
849 7720
849 7721
849 7912
849 7913
849 8180
849 9400
849 11686
849 12090
850 1024
850 2212
850 7722
850 7723
851 7724
851 7725
851 7726
851 7727
852 7728
852 7729
852 8662
853 43
853 64
853 186
853 238
853 404
853 442
853 705
853 1079
853 1316
853 1356
853 1826
853 2272
853 2327
853 2328
853 2459
853 3200
853 3313
853 3369
853 3371
853 3373
853 3374
853 3386
853 3540
853 3789
853 3804
853 3811
853 4069
853 4306
853 4355
853 5522
853 5776
853 5974
853 6437
853 6482
853 7730
853 7731
853 7732
853 7733
853 7734
853 7735
853 7736
853 7737
853 7738
853 7739
853 7740
853 7741
853 10267
853 11378
854 27
854 937
854 1244
854 7742
854 7743
854 7744
854 9625
855 5812
855 7745
855 7746
855 7747
855 7748
855 7749
856 56
856 79
856 905
856 1176
856 2787
856 3692
856 4140
856 4206
856 4418
856 4628
856 5803
856 6288
856 6342
856 7750
856 7751
856 7752
856 7753
856 7754
857 339
857 2307
857 3216
857 3449
857 3857
857 5228
857 5671
857 5921
857 5983
857 6967
857 7755
857 7756
857 7757
857 7758
857 7759
857 7760
857 7761
857 8132
858 731
858 2798
858 3651
858 3808
858 4151
858 4602
858 4802
858 5014
858 5075
858 6539
858 7085
858 7762
858 7763
858 7764
858 7765
858 7766
858 7767
858 8103
859 213
859 933
859 1294
859 4439
859 4440
859 4442
859 4880
859 5492
859 5638
859 5689
859 6600
859 7768
859 7769
859 7770
859 7771
859 7772
859 7773
860 642
860 990
860 5615
860 6169
860 7774
860 7775
860 7776
860 7777
860 7778
860 7779
860 7780
860 8333
860 8386
861 922
861 1509
861 4577
861 7668
861 7781
861 7782
861 7783
861 7784
861 7785
861 7786
861 7787
862 646
862 1992
862 2085
862 7788
863 1289
863 2367
863 7789
863 7790
864 898
864 7791
864 7792
865 5515
865 7793
865 7794
865 11203
866 868
866 7795
866 7796
866 7797
866 7803
867 3134
867 3520
867 3770
867 4391
867 4756
867 4821
867 7798
867 7799
867 7800
867 7801
867 7802
867 12201
868 866
868 5262
868 7150
868 7803
868 7804
868 7805
868 7806
868 7807
868 7808
868 7809
868 8293
869 1363
869 5262
869 7020
869 7810
869 7811
869 7812
869 7813
869 7814
869 7815
869 8284
869 9179
870 28
870 159
870 331
870 332
870 375
870 459
870 526
870 730
870 1227
870 1575
870 1831
870 3217
870 3453
870 3460
870 3462
870 4229
870 4295
870 4729
870 4801
870 5063
870 5069
870 5358
870 5397
870 5456
870 6338
870 7816
870 7817
870 7818
871 315
871 316
871 339
871 351
871 377
871 465
871 500
871 639
871 1145
871 2179
871 2220
871 3190
871 3192
871 3449
871 4040
871 5228
871 7097
871 7159
871 7220
871 7819
871 7820
871 7821
872 350
872 474
872 585
872 1223
872 1695
872 1799
872 3378
872 4562
872 4563
872 4617
872 5099
872 5225
872 5965
872 6358
872 6621
872 7822
872 7823
872 7824
872 7825
872 7826
872 8585
873 491
873 754
873 1617
873 1708
873 2030
873 2537
873 2893
873 2985
873 3081
873 4229
873 4295
873 4334
873 5397
873 6204
873 6213
873 7347
873 7816
873 7827
873 7828
873 7829
873 7830
873 9508
874 68
874 324
874 833
874 1167
874 1570
874 1695
874 1785
874 2441
874 3297
874 3401
874 3971
874 5122
874 5326
874 5444
874 7583
874 7584
874 7831
874 7832
874 7833
874 7836
874 9037
875 324
875 833
875 1785
875 3614
875 3943
875 4677
875 5444
875 6088
875 6094
875 7541
875 7577
875 7635
875 7834
875 7835
875 7836
875 7837
875 7838
875 7839
875 7840
875 8108
875 8548
875 11073
876 28
876 159
876 466
876 679
876 1017
876 2033
876 2043
876 3001
876 3082
876 3339
876 3461
876 3732
876 5068
876 5455
876 7841
876 7842
876 7843
876 7844
876 7845
877 14
877 321
877 681
877 1185
877 3021
877 3079
877 3638
877 3805
877 5058
877 7846
877 7847
877 7848
877 7849
877 7850
877 7851
877 8547
877 8549
878 528
878 1653
878 3177
878 4834
878 5778
878 6173
878 7063
878 7852
878 7853
878 7854
878 7855
878 7856
878 7857
878 7858
878 7859
878 10386
878 11431
879 23
879 26
879 27
879 69
879 226
879 316
879 1147
879 3531
879 3532
879 3533
879 3852
879 4503
879 4655
879 4726
879 4739
879 4745
879 4746
879 5265
879 5270
879 7860
879 7861
879 7862
879 7863
879 7864
879 7865
880 11
880 36
880 46
880 57
880 59
880 67
880 332
880 1195
880 1392
880 3967
880 4460
880 4568
880 4665
880 5329
880 5332
880 7866
880 7867
880 7868
880 7869
880 7870
881 793
881 1328
881 1629
881 1801
881 2182
881 2210
881 3766
881 4202
881 4698
881 4717
881 5374
881 5812
881 5933
881 6902
881 7871
881 7872
881 7873
881 7874
881 7875
881 8863
882 51
882 56
882 71
882 79
882 80
882 81
882 239
882 1176
882 2292
882 3490
882 3688
882 3898
882 3907
882 4795
882 5355
882 5358
882 7876
882 7877
882 7878
882 7879
883 26
883 61
883 71
883 939
883 1147
883 3529
883 3535
883 3575
883 3846
883 4177
883 4289
883 4706
883 5265
883 7880
883 7881
883 7882
883 7883
883 7884
883 7885
883 8610
884 81
884 620
884 974
884 1019
884 1401
884 1490
884 1618
884 1722
884 1990
884 2738
884 3484
884 3595
884 3684
884 3769
884 4346
884 7886
884 7887
884 7888
884 7889
884 8450
884 8451
885 266
885 594
885 793
885 1669
885 2002
885 2210
885 2954
885 3247
885 4698
885 6222
885 6501
885 7428
885 7494
885 7890
885 7891
885 7892
885 7893
885 7894
885 9444
885 10205
886 78
886 403
886 421
886 2882
886 4749
886 4751
886 4753
886 5336
886 5583
886 5586
886 5762
886 5896
886 6142
886 7895
886 7896
886 7897
886 7898
886 7899
886 7900
886 7901
886 7924
887 243
887 412
887 1543
887 4578
887 4579
887 5651
887 6453
887 7204
887 7902
887 7903
887 7904
887 7905
887 7906
887 7907
887 7908
887 7909
887 7910
887 8280
887 9715
888 849
888 1058
888 1288
888 1547
888 2055
888 3950
888 4807
888 4943
888 5018
888 7679
888 7715
888 7716
888 7911
888 7912
888 7913
888 7914
888 7915
889 80
889 351
889 465
889 551
889 704
889 1043
889 2411
889 2669
889 3248
889 3527
889 7467
889 7916
889 7917
889 7918
889 7919
889 7920
889 9413
890 60
890 1743
890 2163
890 3477
890 3679
890 3717
890 3854
890 4347
890 5213
890 5577
890 5604
890 7543
890 7921
890 7922
890 7923
890 7924
890 8518
891 465
891 3521
891 3590
891 3637
891 3851
891 4386
891 4965
891 5333
891 5511
891 5683
891 6139
891 7925
891 7926
891 7927
891 7928
891 7929
891 7930
892 998
892 1618
892 3774
892 3775
892 7931
892 7932
892 7933
892 7934
892 7935
892 8363
892 11529
892 11875
893 54
893 60
893 70
893 335
893 408
893 436
893 458
893 1346
893 1729
893 1742
893 2191
893 2327
893 2345
893 2367
893 2709
893 2870
893 2871
893 2936
893 2937
893 3009
893 3426
893 3543
893 3553
893 3557
893 7936
893 7937
893 7938
893 7939
893 7940
894 11
894 25
894 36
894 41
894 46
894 57
894 67
894 125
894 362
894 449
894 660
894 1026
894 1195
894 1760
894 1957
894 2624
894 3124
894 3496
894 3967
894 4569
894 4959
894 5389
894 7866
894 7941
894 7942
894 7943
894 8473
894 8590
894 11401
895 2806
895 4187
895 4569
895 5396
895 6082
895 7944
895 7945
895 7946
895 7947
895 7948
895 8097
895 9295
895 12039
896 1025
896 2213
896 3217
896 3595
896 3765
896 3937
896 4388
896 7949
896 7950
896 7951
896 7952
896 7953
896 9353
897 585
897 697
897 999
897 1598
897 2592
897 3083
897 3196
897 6368
897 7954
897 7955
897 7956
897 10348
897 11914
898 334
898 864
898 1099
898 1967
898 2208
898 2233
898 2407
898 7644
898 7957
898 7958
898 7959
898 7960
898 8311
899 80
899 85
899 465
899 805
899 3600
899 3743
899 4606
899 4610
899 7961
899 7962
899 7963
899 7964
899 12391
900 1588
900 2107
900 2992
900 5091
900 5094
900 7447
900 7450
900 7950
900 7965
900 7966
900 7967
900 12143
901 1512
901 2850
901 3676
901 4094
901 6383
901 6389
901 7968
901 7969
901 7970
901 7971
901 7972
901 9944
901 10624
902 25
902 37
902 41
902 46
902 59
902 67
902 3856
902 4206
902 4456
902 4459
902 4460
902 4664
902 4848
902 4849
902 4850
902 5328
902 5351
902 7973
903 33
903 585
903 668
903 1655
903 2424
903 2622
903 2804
903 3084
903 3475
903 3720
903 3721
903 3746
903 3868
903 4622
903 5487
903 6101
903 7056
903 7974
904 77
904 738
904 1427
904 2086
904 2839
904 2931
904 2974
904 3544
904 6881
904 7281
904 7975
904 7976
904 7977
904 7978
904 7979
904 9008
904 10231
904 11591
905 22
905 136
905 856
905 2097
905 2154
905 2722
905 2787
905 3675
905 4139
905 6342
905 6760
905 7980
905 7981
905 7982
905 7983
905 7984
905 11245
905 11427
906 42
906 62
906 1029
906 2184
906 3127
906 3376
906 3385
906 5712
906 6230
906 7038
906 7985
906 7986
906 7987
906 7988
907 10
907 639
907 985
907 2536
907 2947
907 3178
907 3179
907 3657
907 6359
907 7113
907 7989
908 34
908 53
908 322
908 553
908 1108
908 3309
908 3321
908 4992
908 7990
908 7991
908 8905
909 3484
909 5055
909 5056
909 5059
909 5941
909 6868
909 7698
909 7992
909 7993
909 7994
909 7995
910 996
910 3906
910 5936
910 7264
910 7996
910 7997
910 7998
910 7999
910 8000
910 8352
910 11287
911 1918
911 2482
911 3631
911 8001
911 8002
911 8003
911 8004
911 8005
911 11644
912 677
912 682
912 697
912 710
912 1127
912 1917
912 2386
912 2712
912 2777
912 3839
912 8006
912 8007
912 8008
913 51
913 69
913 81
913 103
913 670
913 943
913 1275
913 1980
913 3291
913 6342
913 8009
913 8010
913 8113
914 2361
914 2484
914 2638
914 2645
914 3838
914 4667
914 4669
914 4790
914 8011
914 8012
914 8013
914 8014
914 8015
915 5373
915 8016
915 8017
915 8018
916 164
916 397
916 493
916 784
916 927
916 1010
916 1471
916 1512
916 1551
916 1914
916 2009
916 2056
916 2731
916 3331
916 5562
916 8019
916 8020
916 8021
916 8022
916 8023
916 8024
916 8025
916 8026
916 8398
916 8401
916 10130
916 10131
916 10808
916 10809
917 201
917 308
917 695
917 2011
917 2237
917 2369
917 2687
917 3110
917 3111
917 6849
917 8027
917 8028
918 953
918 1242
918 1478
918 1922
918 2162
918 2288
918 2819
918 2860
918 6417
918 8029
918 8030
918 8031
919 295
919 331
919 1830
919 3363
919 3455
919 3901
919 4186
919 5458
919 8032
919 8033
919 11433
920 1618
920 1682
920 8034
920 8035
920 8036
920 8037
920 8038
920 9411
920 10357
921 170
921 330
921 368
921 465
921 519
921 710
921 780
921 979
921 1595
921 8039
922 694
922 836
922 861
922 981
922 1125
922 2316
922 2668
922 3043
922 7102
922 8040
923 84
923 288
923 679
923 701
923 2384
923 3177
923 5721
923 8041
923 8086
923 9403
924 241
924 413
924 474
924 475
924 972
924 1168
924 1602
924 1814
924 2250
924 2843
924 2943
924 2951
924 3089
924 3273
924 3799
924 4556
924 4559
924 4562
924 4563
924 5658
924 6055
924 8042
925 9
925 218
925 281
925 338
925 339
925 1154
925 1678
925 1939
925 2047
925 2423
925 2705
925 2736
925 2738
925 2781
925 3212
925 4069
925 4165
925 8043
925 8044
925 12033
925 12107
926 2892
926 2956
926 3413
926 4346
926 4775
926 8045
926 8046
926 8047
926 8517
927 20
927 397
927 916
927 5115
927 8048
927 8049
927 8050
927 8051
927 8052
928 3527
928 4506
928 5738
928 5755
928 6779
928 8053
928 8054
928 10646
928 11510
929 31
929 44
929 48
929 53
929 73
929 321
929 1183
929 1223
929 1345
929 1508
929 1843
929 3125
929 3211
929 3349
929 3356
929 3396
929 3430
929 3432
929 3749
929 4143
929 4247
929 4412
929 4413
929 4988
929 8055
929 8056
930 30
930 48
930 73
930 76
930 474
930 1163
930 1194
930 1232
930 1521
930 2804
930 2849
930 3130
930 3198
930 3435
930 3620
930 4265
930 4359
930 4555
930 4560
930 6101
930 7251
930 8057
930 8058
930 8059
930 8060
930 8061
931 758
931 1034
931 1097
931 1852
931 2058
931 3730
931 4039
931 4042
931 4340
931 6206
931 6214
931 8062
931 8063
931 8064
931 8065
931 8066
931 8067
931 8068
931 8477
931 8492
931 8494
931 8495
932 3826
932 3829
932 3830
932 4122
932 6315
932 7694
932 8069
932 8070
932 8071
932 8072
932 8073
932 9306
933 80
933 81
933 226
933 284
933 859
933 3675
933 5423
933 7772
933 8074
933 8075
933 8076
933 10030
934 319
934 436
934 3365
934 4685
934 4686
934 8077
934 8078
934 8079
934 8080
934 8081
934 9240
935 2233
935 2678
935 3653
935 4224
935 4284
935 4315
935 4458
935 4677
935 5730
935 5851
935 6538
935 6606
935 6750
935 7640
935 8082
935 8083
935 8084
935 10607
936 17
936 977
936 3065
936 3107
936 3206
936 4141
936 5015
936 5020
936 8085
936 8086
936 8087
936 8088
936 8089
936 8090
936 8091
936 8271
937 680
937 854
937 1429
937 7044
937 8092
937 8093
937 8094
937 8095
937 8096
937 8097
937 8274
937 8835
938 16
938 18
938 32
938 49
938 50
938 60
938 68
938 70
938 309
938 337
938 457
938 458
938 1139
938 1233
938 1476
938 1521
938 1538
938 1619
938 1770
938 1837
938 1879
938 2095
938 2190
938 2266
938 2302
938 2849
938 3072
938 3184
938 3203
938 3391
938 3479
938 4925
938 6019
938 8098
938 8099
939 72
939 120
939 180
939 247
939 284
939 306
939 331
939 342
939 377
939 421
939 430
939 486
939 883
939 996
939 1014
939 1075
939 1284
939 1437
939 1453
939 1499
939 1829
939 1935
939 2017
939 2661
939 2770
939 2822
939 2926
939 2988
939 2996
939 3142
939 3318
939 3490
939 3863
939 8100
939 8101
940 14
940 3725
940 4315
940 4446
940 7049
940 7138
940 7577
940 7635
940 8102
940 8103
940 8104
941 1165
941 1290
941 1547
941 2054
941 3104
941 3835
941 7258
941 7720
941 8105
941 8106
941 9515
942 61
942 3726
942 5058
942 5496
942 5661
942 6322
942 6719
942 8107
942 8108
942 8109
942 8110
943 56
943 654
943 913
943 3602
943 4344
943 6859
943 7753
943 8111
943 8112
943 8113
943 8114
944 1749
944 1865
944 6122
944 8115
944 8116
944 8117
944 8118
944 8119
944 8464
944 10506
944 10704
945 336
945 1534
945 1535
945 1675
945 2643
945 3909
945 3910
945 4431
945 4435
945 5113
945 7264
945 7998
945 8120
945 8121
945 11126
945 12439
946 997
946 1413
946 7808
946 7903
946 8122
946 8123
946 8124
946 8125
946 8126
946 8356
946 8361
946 9177
946 9714
946 9753
946 11347
947 79
947 81
947 1121
947 3518
947 3535
947 3561
947 3907
947 4441
947 4478
947 4798
947 5024
947 5239
947 5363
947 5950
947 7269
947 7292
947 7878
947 8127
947 8128
947 8129
947 8130
947 8131
947 8849
947 9243
947 11029
948 153
948 1249
948 1446
948 1975
948 2348
948 2445
948 2484
948 2806
948 3121
948 3178
948 3179
948 3190
948 3192
948 3235
948 3518
948 4030
948 4040
948 4246
948 5924
948 7097
948 8132
948 8133
948 8134
949 394
949 1608
949 1639
949 2171
949 2195
949 2208
949 2279
949 2678
949 2845
949 5081
949 5246
949 5407
949 5537
949 5969
949 6941
949 8135
949 8136
949 8137
949 8138
949 8139
949 8140
949 8141
949 10269
950 682
950 801
950 1141
950 1204
950 2109
950 2777
950 3232
950 3910
950 3913
950 4020
950 4101
950 4102
950 4431
950 4874
950 5108
950 5110
950 6169
950 8142
950 8143
950 8144
950 8145
950 8146
950 8147
951 80
951 435
951 465
951 954
951 1028
951 1164
951 1314
951 2292
951 2818
951 3815
951 3964
951 4386
951 4470
951 5505
951 6077
951 6703
951 8148
951 8149
951 8150
951 8151
951 8152
951 8153
951 8482
952 39
952 404
952 690
952 1242
952 3398
952 3501
952 3622
952 3819
952 4151
952 4254
952 5627
952 7632
952 8154
952 8155
952 8156
952 8157
952 8158
952 8159
952 8160
952 8161
952 8650
952 10773
953 918
953 1233
953 1478
953 1837
953 2162
953 2285
953 2288
953 4463
953 5446
953 5520
953 7186
953 8162
953 8163
953 8164
953 8165
953 8166
953 8911
953 9218
953 9925
953 9926
953 11335
954 240
954 435
954 465
954 951
954 1028
954 1164
954 1314
954 1315
954 1484
954 1501
954 2655
954 8167
954 8168
955 1317
955 1418
955 1460
955 1877
955 2556
955 2742
955 3060
955 3113
955 3986
955 4364
955 4674
955 8169
955 9482
956 35
956 116
956 226
956 812
956 1355
956 4141
956 4859
956 5425
956 5685
956 5959
956 8170
956 8171
956 8331
957 15
957 41
957 61
957 328
957 434
957 4059
957 4657
957 4661
957 5038
957 5039
957 8172
957 8173
957 8228
958 24
958 34
958 163
958 197
958 322
958 350
958 383
958 553
958 1119
958 1171
958 1174
958 1233
958 1356
958 1485
958 1836
958 1859
958 1894
958 2095
958 2349
958 2733
958 2752
958 2761
958 2790
958 3066
958 3072
958 3073
958 3098
958 3273
958 3629
958 3944
958 4529
958 5780
958 8174
958 8175
958 8176
958 8177
959 2055
959 2298
959 3323
959 4141
959 7720
959 8178
959 8179
959 8180
959 9513
959 10198
960 1170
960 1184
960 3556
960 3645
960 3758
960 4601
960 4833
960 8181
960 8182
960 8183
960 8184
961 1417
961 3640
961 4668
961 5101
961 5708
961 5972
961 8185
961 8186
961 8187
961 8188
961 8189
962 2423
962 3610
962 4045
962 4063
962 4239
962 5861
962 8190
962 8191
962 8192
962 8193
963 2719
963 3631
963 5174
963 5177
963 8194
963 8195
963 8196
963 8197
963 8198
963 8263
963 11836
964 1349
964 5379
964 8199
964 8200
964 8201
964 8202
964 8203
964 9144
965 4141
965 5115
965 5530
965 7069
965 7257
965 7305
965 7486
965 8204
965 8205
965 8206
965 8207
965 8208
965 8209
965 8261
965 8275
965 9056
965 10540
965 10857
966 21
966 3707
966 4006
966 4440
966 4442
966 4469
966 4610
966 4877
966 4882
966 5034
966 5276
966 5424
966 5428
966 5430
966 5668
966 5905
966 5908
966 6600
966 8210
966 8211
966 8212
966 8213
966 8214
966 8215
966 8887
967 28
967 49
967 333
967 457
967 775
967 1184
967 1372
967 1482
967 1640
967 1833
967 2256
967 2912
967 3439
967 3446
967 3651
967 4449
967 4593
967 4777
967 6013
967 8140
967 8216
967 8217
967 8218
967 8219
967 10091
968 71
968 80
968 81
968 378
968 1589
968 4652
968 4881
968 5427
968 5982
968 6764
968 7677
968 8220
968 8221
968 8222
968 8223
968 8224
968 8225
968 8226
968 8828
968 8829
969 80
969 81
969 1958
969 2880
969 8227
969 8228
969 8229
969 8230
970 1320
970 1355
970 2215
970 4002
970 4859
970 8231
970 8232
970 8233
971 81
971 2536
971 3600
971 3684
971 6493
971 8234
971 8235
971 8877
972 759
972 924
972 2943
972 6910
972 8236
972 8237
972 8238
972 8239
973 668
973 1507
973 1827
973 1962
973 2622
973 3618
973 3717
973 3720
973 3721
973 4622
973 4623
973 4778
973 5598
973 5699
973 7581
973 8240
973 8241
973 8242
973 8243
973 8244
973 8245
973 8246
973 8247
973 8248
973 8249
973 8250
974 342
974 446
974 620
974 884
974 1514
974 2739
974 3935
974 4335
974 5338
974 5582
974 5584
974 6138
974 7499
974 8251
974 8252
974 8253
974 8254
974 8255
974 8256
974 8257
974 8683
974 10017
975 3178
975 3179
975 3657
975 3936
975 4087
975 4596
975 5076
975 5402
975 5711
975 5833
975 8198
975 8258
975 8259
975 8260
975 8261
975 8262
975 8263
975 8264
975 9013
975 9053
975 9293
975 9362
976 1081
976 1560
976 2251
976 2564
976 3189
976 4124
976 4510
976 4511
976 4513
976 5464
976 8265
976 8266
976 8267
976 8268
976 8314
976 8499
976 8502
976 8963
976 12003
976 12171
976 12399
977 341
977 936
977 1335
977 3206
977 3583
977 5015
977 5020
977 5836
977 6471
977 6724
977 8088
977 8269
977 8270
977 8271
977 8272
977 8273
977 8274
977 8275
977 8276
977 11187
978 980
978 4191
978 5258
978 6454
978 7151
978 7394
978 8277
978 8278
978 8279
978 8280
978 8281
978 8282
978 8283
978 8284
978 8285
978 8286
978 8291
978 8762
978 11302
979 682
979 710
979 772
979 780
979 921
979 2039
979 2073
979 2140
979 2713
979 3947
979 3949
979 3969
979 3974
979 4449
979 5563
979 6983
979 6986
979 7441
979 8287
979 8288
979 8289
979 8290
979 8884
979 11297
979 12325
980 289
980 682
980 978
980 1096
980 2009
980 2411
980 3909
980 4102
980 4105
980 4191
980 4572
980 4915
980 7150
980 7394
980 8285
980 8291
980 8292
980 8293
980 8294
980 8295
980 8296
980 8297
980 8298
980 8638
980 8804
981 922
981 1802
981 3884
981 4916
981 4918
981 7205
981 8299
981 8300
981 8301
982 798
982 1573
982 2176
982 7515
982 7516
982 8302
982 8303
982 8304
983 1963
983 2988
983 4690
983 4719
983 8305
983 8306
983 8307
983 8308
983 9633
984 516
984 4333
984 4843
984 6314
984 6316
984 6830
984 8309
984 8310
984 8311
984 8312
984 8313
984 8314
984 8315
984 8343
984 8379
985 249
985 907
985 3770
985 3817
985 4447
985 4458
985 4701
985 5013
985 5233
985 5406
985 5943
985 6094
985 6504
985 6717
985 7577
985 7675
985 8316
985 8317
985 8318
985 8319
985 8320
985 8321
985 8322
985 9661
986 47
986 396
986 499
986 1181
986 1747
986 2640
986 2921
986 2956
986 3413
986 3414
986 4391
986 4651
986 4714
986 6790
986 8323
986 8324
987 16
987 18
987 40
987 50
987 2659
987 2761
987 3128
987 3309
987 3389
987 3391
987 3431
987 3791
987 4958
987 5881
987 7639
987 8325
988 79
988 216
988 1137
988 1804
988 2672
988 2836
988 2928
988 3595
988 3995
988 4452
988 4453
988 4541
988 6949
988 8326
988 9334
988 9740
989 533
989 1433
989 2991
989 3529
989 3608
989 5282
989 5283
989 8327
989 8328
989 8329
989 8330
989 8331
989 8976
989 8978
989 9803
989 10900
990 642
990 860
990 1323
990 4724
990 7775
990 7776
990 7779
990 8332
990 8333
990 8334
990 8386
991 3708
991 3741
991 8224
991 8335
991 8336
991 8337
992 51
992 81
992 2160
992 7565
992 8338
992 8339
993 4916
993 7985
993 8340
993 8341
993 8342
993 10767
994 80
994 81
994 845
994 4215
994 4408
994 4548
994 5807
994 8343
994 8344
994 8345
994 8346
994 8347
994 8537
994 8538
995 21
995 567
995 637
995 2156
995 3258
995 5303
995 5433
995 5688
995 7754
995 8348
995 8349
995 8350
995 8619
996 691
996 910
996 939
996 1249
996 3108
996 4051
996 5933
996 7089
996 7998
996 8351
996 8352
996 8353
996 8354
996 8355
997 946
997 8356
997 8357
997 8358
997 8359
997 8360
997 8361
997 9177
998 892
998 5258
998 7932
998 8362
998 8363
999 897
999 2592
999 4014
999 8364
999 8365
1000 1414
1000 1740
1000 8366
1000 8367
1000 9505
1001 2695
1001 8368
1001 8369
1001 8370
1001 8371
1002 20
1002 69
1002 1551
1002 2757
1002 4497
1002 7630
1002 8372
1002 8373
1002 8374
1002 8375
1002 8376
1002 8377
1002 8378
1003 80
1003 81
1003 3675
1003 4055
1003 4330
1003 8312
1003 8313
1003 8379
1003 8380
1003 8381
1003 8382
1003 8383
1003 8384
1004 1321
1004 2411
1004 7105
1004 7467
1004 7646
1004 7668
1004 8385
1004 8386
1004 8387
1004 8388
1004 8868
1004 9490
1005 3535
1005 4345
1005 5874
1005 8389
1005 8390
1005 8391
1005 8392
1005 8393
1005 8394
1005 10905
1006 20
1006 318
1006 397
1006 1551
1006 4104
1006 6692
1006 8023
1006 8373
1006 8395
1006 8396
1006 8397
1006 8398
1006 8399
1006 8400
1006 8401
1006 10131
1007 1145
1007 3592
1007 5234
1007 8402
1007 8403
1008 61
1008 597
1008 8404
1008 8405
1009 6267
1009 8406
1009 8407
1009 8408
1009 11962
1010 338
1010 648
1010 658
1010 745
1010 916
1010 1123
1010 1303
1010 1396
1010 1438
1010 1512
1010 1542
1010 1551
1010 1594
1010 1781
1010 2703
1010 2731
1010 2962
1010 6007
1010 8409
1010 8410
1010 8411
1010 8412
1011 80
1011 301
1011 465
1011 845
1011 2655
1011 3579
1011 4055
1011 4326
1011 4328
1011 4877
1011 4882
1011 5274
1011 5275
1011 5277
1011 5800
1011 8413
1011 8414
1011 8415
1011 8416
1011 8417
1011 9417
1011 9582
1012 35
1012 61
1012 79
1012 1036
1012 1176
1012 3681
1012 4002
1012 4418
1012 5276
1012 5808
1012 6864
1012 8336
1012 8418
1012 8419
1012 8420
1012 8421
1012 8422
1012 8423
1012 8424
1012 8425
1012 8426
1012 9392
1013 63
1013 73
1013 92
1013 350
1013 553
1013 668
1013 1111
1013 3236
1013 3624
1013 3971
1013 4155
1013 4241
1013 4622
1013 5169
1013 6051
1013 6515
1013 6657
1013 7340
1013 7546
1013 8427
1013 8428
1013 8429
1013 8430
1013 8442
1013 9062
1014 61
1014 69
1014 939
1014 2110
1014 3588
1014 8431
1014 8432
1014 8433
1014 8434
1014 8435
1015 1976
1015 3518
1015 3854
1015 4638
1015 8436
1015 8437
1015 8438
1015 8439
1015 8440
1015 8441
1015 8691
1016 585
1016 1296
1016 2504
1016 2582
1016 8442
1016 8443
1016 8444
1016 8445
1016 8446
1016 11577
1016 12017
1017 331
1017 332
1017 459
1017 876
1017 1184
1017 1372
1017 1823
1017 1830
1017 1831
1017 1952
1017 2013
1017 2033
1017 2256
1017 2548
1017 8447
1018 68
1018 246
1018 395
1018 436
1018 1709
1018 1952
1018 3203
1018 3437
1018 3438
1018 3440
1018 4285
1018 5848
1018 5973
1018 8448
1019 446
1019 884
1019 1037
1019 1722
1019 1990
1019 2355
1019 2443
1019 3484
1019 3684
1019 4346
1019 8449
1019 8450
1019 8451
1019 8452
1020 76
1020 769
1020 1095
1020 1993
1020 6504
1020 6506
1020 6509
1020 7398
1020 8453
1020 8454
1020 8455
1020 8456
1020 8457
1020 10879
1021 51
1021 69
1021 81
1021 226
1021 286
1021 782
1021 1401
1021 3558
1021 8171
1021 8458
1022 15
1022 41
1022 51
1022 2781
1022 4031
1022 4657
1022 5457
1022 8459
1022 8460
1022 8461
1023 619
1023 1579
1023 2537
1023 2786
1023 2956
1023 3449
1023 8462
1023 8463
1023 8464
1023 10191
1024 605
1024 850
1024 1754
1024 8465
1024 8466
1024 8467
1024 8468
1025 494
1025 755
1025 896
1025 1036
1025 1329
1025 1468
1025 1486
1025 1728
1025 1912
1025 2131
1025 2228
1025 2701
1025 2763
1025 3092
1025 3119
1025 8469
1025 8470
1026 261
1026 427
1026 466
1026 894
1026 1306
1026 1399
1026 1699
1026 1873
1026 1957
1026 2483
1026 2625
1026 2753
1026 2945
1026 3252
1026 8471
1026 8472
1026 8473
1027 151
1027 228
1027 1303
1027 1998
1027 2329
1027 2557
1027 2697
1027 3095
1027 7364
1027 8474
1027 8475
1027 8476
1027 8477
1027 8478
1027 10826
1028 80
1028 951
1028 954
1028 1164
1028 3107
1028 3964
1028 4470
1028 4547
1028 5839
1028 6077
1028 8150
1028 8479
1028 8480
1028 8481
1028 8482
1029 42
1029 45
1029 62
1029 87
1029 522
1029 906
1029 1388
1029 1760
1029 1773
1029 2006
1029 2274
1029 2827
1029 2885
1029 3030
1029 3217
1029 3377
1029 3382
1029 3385
1029 3408
1029 3651
1029 8483
1030 11
1030 57
1030 59
1030 67
1030 362
1030 421
1030 1195
1030 1510
1030 1760
1030 2281
1030 3967
1030 4088
1030 4665
1030 5316
1030 7867
1030 7870
1030 7941
1030 8484
1030 8485
1030 8486
1031 1119
1031 1136
1031 1168
1031 1566
1031 1695
1031 1741
1031 2095
1031 2096
1031 3060
1031 3336
1031 4224
1031 4529
1031 5122
1031 6358
1031 6432
1031 6433
1031 8487
1031 8488
1031 8489
1032 48
1032 58
1032 63
1032 73
1032 184
1032 527
1032 1194
1032 1549
1032 2883
1032 3623
1032 3726
1032 3784
1032 4152
1032 4319
1032 4323
1032 5619
1032 5625
1032 7056
1032 8490
1033 42
1033 45
1033 62
1033 77
1033 345
1033 1114
1033 1191
1033 1235
1033 1278
1033 1531
1033 2074
1033 2087
1033 2184
1033 2274
1033 2360
1033 2885
1033 2912
1033 8491
1033 9244
1034 931
1034 1097
1034 1122
1034 1852
1034 2058
1034 3730
1034 4039
1034 4042
1034 4340
1034 6206
1034 6214
1034 8066
1034 8477
1034 8492
1034 8493
1034 8494
1034 8495
1034 8496
1034 8497
1035 290
1035 1081
1035 1122
1035 1560
1035 2707
1035 2729
1035 3189
1035 4124
1035 4262
1035 4511
1035 4513
1035 5464
1035 7318
1035 8498
1035 8499
1035 8500
1035 8501
1035 8502
1035 8503
1036 103
1036 1012
1036 1025
1036 1286
1036 1309
1036 1355
1036 2629
1036 3741
1036 4384
1036 4388
1036 5981
1036 8336
1036 8504
1036 8505
1036 8506
1036 8507
1036 9464
1036 9502
1036 12023
1037 620
1037 1019
1037 3108
1037 3508
1037 4749
1037 5584
1037 5586
1037 5894
1037 5917
1037 5918
1037 5939
1037 8257
1037 8508
1037 8509
1037 8510
1037 8511
1037 8512
1037 9673
1037 10019
1038 3532
1038 3534
1038 4136
1038 4391
1038 4406
1038 4651
1038 4756
1038 4759
1038 7864
1038 8513
1038 8514
1038 8515
1038 8516
1038 8517
1038 8622
1038 8669
1038 8680
1038 9081
1038 11182
1039 2052
1039 4033
1039 4772
1039 5051
1039 5206
1039 6246
1039 7438
1039 8518
1039 8519
1039 8520
1040 15
1040 827
1040 4587
1040 4589
1040 6615
1040 8521
1040 8522
1040 8523
1040 8524
1040 8872
1041 47
1041 55
1041 339
1041 381
1041 495
1041 1567
1041 1617
1041 1618
1041 2445
1041 2893
1041 2956
1041 3191
1041 3411
1041 3768
1041 3857
1041 3858
1041 4011
1041 4040
1041 4946
1041 5133
1041 5134
1041 7333
1041 7652
1041 8525
1041 8526
1041 8527
1041 8528
1041 8529
1041 8530
1041 8531
1041 8532
1041 8713
1041 8859
1041 9232
1042 382
1042 1239
1042 1374
1042 1694
1042 2234
1042 2546
1042 2597
1042 4328
1042 6445
1042 6650
1042 8533
1042 8534
1042 8535
1042 8536
1042 8537
1042 8538
1043 29
1043 38
1043 766
1043 889
1043 1095
1043 1325
1043 1432
1043 1484
1043 2529
1043 3917
1043 3963
1043 7920
1043 8539
1043 8540
1043 8541
1043 10372
1044 355
1044 454
1044 2099
1044 2232
1044 2398
1044 2578
1044 2653
1044 3713
1044 4644
1044 5985
1044 5992
1044 8542
1044 8543
1044 8544
1044 8545
1044 10940
1045 601
1045 1109
1045 5886
1045 6719
1045 7577
1045 7635
1045 7839
1045 7851
1045 8546
1045 8547
1045 8548
1045 8549
1045 8550
1045 8551
1046 61
1046 4294
1046 4378
1046 6834
1046 6835
1046 8301
1046 8552
1046 8553
1046 8554
1046 8555
1046 8556
1046 8557
1046 8558
1046 8559
1046 9624
1046 10618
1047 646
1047 1544
1047 1992
1047 2085
1047 5707
1047 6889
1047 7318
1047 7415
1047 8560
1047 8561
1047 8562
1048 247
1048 1176
1048 3742
1048 4140
1048 4204
1048 4418
1048 4519
1048 8197
1048 8563
1048 8564
1048 8565
1048 8566
1048 11843
1049 1717
1049 2971
1049 6549
1049 6999
1049 7002
1049 8567
1049 8568
1049 8569
1049 8570
1049 8695
1050 4814
1050 4816
1050 5110
1050 5615
1050 7104
1050 8571
1050 8572
1050 8573
1050 8574
1050 8575
1050 8756
1051 2780
1051 3107
1051 3879
1051 3961
1051 3964
1051 8576
1052 5298
1052 5304
1052 8312
1052 8577
1052 8578
1052 10691
1053 2578
1053 5992
1053 7093
1053 8579
1053 8580
1054 31
1054 198
1054 411
1054 463
1054 839
1054 1319
1054 2171
1054 2798
1054 3129
1054 4155
1054 4224
1054 4560
1054 4787
1054 5221
1054 6432
1054 6930
1054 6972
1054 8241
1054 8581
1054 8582
1054 8583
1054 8584
1054 8585
1054 8586
1054 8587
1054 9212
1054 9415
1055 189
1055 1980
1055 3205
1055 8588
1055 8589
1056 8594
1056 8595
1056 8596
1056 10735
1056 12926
1057 5616
1057 8597
1057 8598
1057 8599
1057 8600
1058 663
1058 732
1058 849
1058 888
1058 1491
1058 1844
1058 2035
1058 2055
1058 2298
1058 2690
1058 3093
1058 3107
1058 4807
1058 4941
1058 5018
1058 8520
1058 8601
1058 8602
1058 8603
1058 8604
1058 9399
1059 3880
1059 3973
1059 4022
1059 4294
1059 6074
1059 6361
1059 6505
1059 8150
1059 8480
1059 8605
1059 8606
1059 8607
1059 8608
1059 8609
1059 8610
1059 8611
1059 8612
1059 8613
1059 10180
1059 10182
1059 10195
1060 56
1060 79
1060 255
1060 1176
1060 1414
1060 1627
1060 1740
1060 1750
1060 2368
1060 2664
1060 3691
1060 3742
1060 5742
1060 8252
1060 8424
1060 8614
1060 8615
1060 8616
1060 8617
1060 8618
1060 8619
1060 8620
1060 10018
1060 10259
1060 10589
1060 10610
1061 2739
1061 4233
1061 4766
1061 4775
1061 8621
1061 8622
1062 3814
1062 5017
1062 8623
1062 8624
1062 8625
1062 11719
1063 6738
1063 6741
1063 8626
1063 8627
1063 8628
1063 8629
1064 6279
1064 8630
1064 8631
1064 8632
1064 8633
1064 8809
1065 346
1065 1248
1065 2673
1065 4075
1065 4191
1065 4915
1065 7149
1065 7150
1065 7797
1065 8285
1065 8296
1065 8297
1065 8634
1065 8635
1065 8636
1065 8637
1065 8638
1065 11098
1065 11973
1066 3830
1066 4843
1066 4845
1066 4847
1066 8071
1066 8639
1066 8640
1066 8641
1066 8642
1066 8643
1066 8644
1066 8645
1066 8785
1066 8787
1067 36
1067 46
1067 57
1067 59
1067 67
1067 94
1067 125
1067 161
1067 660
1067 1195
1067 1552
1067 1709
1067 1760
1067 2184
1067 2268
1067 3008
1067 3030
1067 3124
1067 3404
1067 3496
1067 4615
1067 5058
1067 7866
1067 7987
1067 8172
1067 8486
1067 8646
1067 8647
1067 8648
1067 8649
1067 8650
1068 80
1068 3675
1068 6329
1068 7953
1068 8651
1068 8652
1068 8653
1069 605
1069 6750
1069 8654
1069 8655
1069 8656
1069 8789
1069 10641
1070 1959
1070 5398
1070 8657
1070 8658
1070 8659
1070 8660
1070 8840
1071 784
1071 8478
1071 8661
1071 8662
1071 8663
1071 8664
1072 796
1072 1999
1072 2052
1072 2257
1072 3134
1072 3520
1072 3522
1072 3525
1072 3532
1072 4108
1072 4736
1072 5131
1072 8046
1072 8665
1072 8666
1072 8667
1072 8668
1072 8669
1072 8670
1072 8671
1072 8672
1072 10305
1072 11458
1072 12200
1073 30
1073 70
1073 408
1073 1162
1073 1243
1073 3203
1073 3662
1073 4254
1073 5619
1073 5621
1073 5625
1073 5628
1073 6119
1073 6127
1073 6128
1073 8673
1073 8674
1073 8675
1073 8676
1073 8941
1073 9018
1074 552
1074 1145
1074 1559
1074 3598
1074 3942
1074 4181
1074 4701
1074 4706
1074 4707
1074 5227
1074 5232
1074 5265
1074 7166
1074 8515
1074 8610
1074 8677
1074 8678
1074 8679
1074 8680
1074 9370
1074 12263
1075 71
1075 81
1075 939
1075 1145
1075 3508
1075 3509
1075 3521
1075 3684
1075 4289
1075 4670
1075 4776
1075 4822
1075 4965
1075 5165
1075 5293
1075 5334
1075 5582
1075 5584
1075 5665
1075 5683
1075 5891
1075 5952
1075 6683
1075 7220
1075 8681
1075 8682
1075 8683
1075 8684
1075 8685
1075 8686
1076 5804
1076 7915
1076 8687
1076 8688
1076 8689
1077 4638
1077 8439
1077 8690
1077 8691
1077 8692
1078 7002
1078 8693
1078 8694
1078 8695
1078 8696
1079 12
1079 43
1079 64
1079 83
1079 92
1079 198
1079 347
1079 452
1079 538
1079 547
1079 853
1079 1194
1079 1356
1079 1445
1079 1607
1079 1641
1079 1854
1079 2804
1079 3125
1079 3373
1079 3386
1079 3786
1079 3789
1079 4306
1079 4619
1079 5525
1079 5701
1079 5729
1079 8697
1079 8698
1080 178
1080 542
1080 1481
1080 3876
1080 5813
1080 5990
1080 6222
1080 6276
1080 6378
1080 6461
1080 6462
1080 6463
1080 6464
1080 6501
1080 6771
1080 7431
1080 9850
1080 10121
1080 10432
1080 11090
1080 11943
1081 80
1081 81
1081 646
1081 976
1081 1035
1081 3350
1081 4123
1081 4126
1081 4513
1081 4548
1081 8699
1081 8700
1082 369
1082 1313
1082 3877
1082 4202
1082 5812
1082 6259
1082 6902
1082 6903
1082 7402
1082 8701
1082 8702
1082 8703
1083 405
1083 1734
1083 3971
1083 4157
1083 4619
1083 4622
1083 8704
1083 8705
1083 8706
1083 8707
1083 8708
1083 8709
1084 2506
1084 2646
1084 6251
1084 8710
1084 8711
1084 8712
1084 8713
1084 8714
1084 8715
1084 8996
1084 9839
1084 9840
1085 1816
1085 6700
1085 6707
1085 7611
1085 8405
1085 8716
1085 8717
1085 8718
1085 8719
1085 10026
1085 12112
1086 1411
1086 3563
1086 5153
1086 6003
1086 8720
1086 8721
1086 8722
1087 20
1087 5190
1087 6556
1087 8723
1087 8724
1087 8725
1088 6581
1088 7386
1088 8652
1088 8726
1088 8727
1088 11833
1089 3522
1089 8728
1089 8729
1089 8730
1089 8731
1089 9336
1089 9883
1090 49
1090 1170
1090 3350
1090 3383
1090 3778
1090 3940
1090 5624
1090 6735
1090 7367
1090 8732
1090 8733
1090 8734
1090 8735
1090 8736
1090 8737
1091 4436
1091 8739
1091 12854
1092 8740
1092 8741
1092 10099
1093 1520
1093 6398
1093 8742
1093 8743
1093 8744
1093 8745
1093 8746
1094 389
1094 8747
1094 8748
1094 8749
1094 8750
1094 8779
1095 81
1095 127
1095 351
1095 377
1095 682
1095 1020
1095 1043
1095 1257
1095 1325
1095 3533
1095 3682
1095 3714
1095 5748
1095 7398
1095 7920
1095 8751
1095 8752
1095 8753
1095 8754
1096 768
1096 980
1096 4572
1096 4578
1096 4913
1096 4915
1096 5654
1096 7150
1096 7342
1096 7394
1096 7649
1096 8755
1096 8756
1096 8757
1096 8758
1096 8759
1096 8760
1096 8761
1096 8762
1097 491
1097 499
1097 931
1097 1034
1097 1122
1097 1134
1097 1708
1097 2058
1097 2537
1097 2549
1097 2612
1097 2700
1097 2719
1097 2893
1097 2942
1097 3218
1097 3730
1097 3731
1097 4039
1097 4041
1097 4340
1097 4553
1097 6209
1097 6210
1097 7347
1097 8494
1097 8667
1097 8763
1097 8764
1097 8765
1097 10538
1098 13
1098 7264
1098 8395
1098 8766
1098 8767
1098 8768
1098 8769
1098 8770
1098 8771
1098 8861
1098 10748
1099 788
1099 898
1099 2921
1099 4378
1099 8600
1099 8772
1100 1942
1100 5115
1100 8773
1100 8774
1100 8775
1100 8776
1101 3954
1101 8777
1101 8778
1101 8779
1101 12404
1102 23
1102 26
1102 3529
1102 3600
1102 3684
1102 4180
1102 4402
1102 4784
1102 4886
1102 5435
1102 5748
1102 5787
1102 5909
1102 8780
1102 8781
1102 8782
1102 8783
1102 9005
1103 465
1103 616
1103 3579
1103 3826
1103 3827
1103 3830
1103 4121
1103 4333
1103 5524
1103 6584
1103 6585
1103 7123
1103 8784
1103 8785
1103 8786
1103 8787
1103 8788
1103 8789
1104 117
1104 336
1104 444
1104 1535
1104 1675
1104 2643
1104 3916
1104 4649
1104 7392
1104 8790
1104 8791
1104 8792
1104 8793
1104 8794
1104 8795
1104 9534
1104 9903
1104 10179
1105 1390
1105 1771
1105 2259
1105 3653
1105 4802
1105 5009
1105 5627
1105 5679
1105 5680
1105 6127
1105 6158
1105 6323
1105 8796
1105 8797
1105 8798
1105 8799
1105 8800
1106 1723
1106 6369
1106 7394
1106 8801
1106 8802
1106 8803
1106 8804
1106 8805
1106 8806
1106 8808
1106 9141
1106 9145
1106 10055
1107 5558
1107 5862
1107 6369
1107 8807
1107 8808
1107 8809
1108 29
1108 38
1108 39
1108 40
1108 58
1108 63
1108 197
1108 237
1108 347
1108 376
1108 405
1108 908
1108 1333
1108 1356
1108 1445
1108 1826
1108 2635
1108 3069
1108 3244
1108 3342
1108 3367
1108 3726
1108 3782
1108 3787
1108 3917
1108 4446
1108 8810
1109 14
1109 40
1109 43
1109 64
1109 325
1109 681
1109 1045
1109 2259
1109 3371
1109 4544
1109 5186
1109 5248
1109 5886
1109 6035
1109 6481
1109 7049
1109 7536
1109 7537
1109 7538
1109 7577
1109 7635
1109 8811
1109 8812
1109 8813
1109 8814
1110 30
1110 49
1110 752
1110 1139
1110 1521
1110 1619
1110 1640
1110 1651
1110 1652
1110 1833
1110 2656
1110 3439
1110 3479
1110 5645
1110 6023
1110 6241
1110 8815
1110 8816
1110 8817
1111 48
1111 73
1111 171
1111 731
1111 1013
1111 1135
1111 1476
1111 1505
1111 2349
1111 3351
1111 3483
1111 4298
1111 4555
1111 8818
1111 8819
1111 8820
1111 8821
1111 8822
1111 11557
1112 43
1112 70
1112 1427
1112 2263
1112 2367
1112 2931
1112 3541
1112 3543
1112 4274
1112 4279
1112 4532
1112 5174
1112 8823
1112 8824
1112 8825
1112 8826
1112 9263
1112 10592
1112 12151
1113 51
1113 71
1113 80
1113 81
1113 1589
1113 4652
1113 5427
1113 5433
1113 8225
1113 8226
1113 8827
1113 8828
1113 8829
1113 8830
1114 45
1114 54
1114 184
1114 349
1114 437
1114 587
1114 1033
1114 1552
1114 1841
1114 2268
1114 2717
1114 2871
1114 3146
1114 3379
1114 3382
1114 3401
1114 3441
1114 3445
1114 3476
1114 3486
1114 3643
1114 3647
1114 3664
1114 3819
1114 4090
1114 4323
1114 5442
1114 5855
1114 6024
1114 6093
1114 6172
1114 6233
1114 8831
1114 8832
1114 8833
1114 9042
1114 9373
1114 9447
1114 10327
1114 10328
1114 11180
1114 11477
1115 680
1115 2110
1115 8834
1115 8835
1116 3187
1116 8642
1116 8836
1116 8837
1117 8838
1117 8839
1117 8840
1118 1757
1118 8841
1118 8842
1118 11492
1118 11716
1118 12397
1119 16
1119 34
1119 40
1119 241
1119 958
1119 1031
1119 1171
1119 1194
1119 1475
1119 1511
1119 1602
1119 2637
1119 2944
1119 3073
1119 3128
1119 3273
1119 3336
1119 3391
1119 3426
1119 3624
1119 3629
1119 4100
1119 4529
1119 4556
1119 4559
1119 4958
1119 4992
1119 6055
1119 7338
1119 8061
1119 8843
1119 8844
1119 8845
1119 8907
1120 31
1120 40
1120 52
1120 102
1120 171
1120 383
1120 474
1120 527
1120 635
1120 1171
1120 1186
1120 1319
1120 1505
1120 1569
1120 1655
1120 1828
1120 2147
1120 2303
1120 2637
1120 2645
1120 2973
1120 2993
1120 3261
1120 3273
1120 3347
1120 3352
1120 3726
1120 4247
1120 4463
1120 4793
1120 4992
1120 6104
1120 8182
1120 8846
1121 19
1121 56
1121 69
1121 78
1121 79
1121 81
1121 226
1121 307
1121 352
1121 755
1121 812
1121 947
1121 1137
1121 1176
1121 1234
1121 1355
1121 1727
1121 1937
1121 2145
1121 2201
1121 2575
1121 3561
1121 3592
1121 3692
1121 3696
1121 3907
1121 3933
1121 4859
1121 5151
1121 6328
1121 8847
1121 8848
1121 8849
1121 10060
1122 631
1122 1034
1122 1035
1122 1097
1122 1500
1122 1751
1122 1852
1122 1998
1122 2058
1122 2111
1122 2254
1122 2319
1122 2549
1122 2628
1122 2697
1122 2700
1122 2731
1122 2864
1122 2882
1122 3032
1122 4039
1122 4410
1122 4493
1122 6845
1122 6846
1122 8064
1122 8850
1122 8851
1122 8852
1122 8853
1123 1010
1123 1300
1123 2496
1123 5129
1123 5752
1123 7230
1123 8532
1123 8854
1123 8855
1123 8856
1123 8857
1123 8858
1123 8859
1123 9435
1123 9436
1124 1661
1124 4508
1124 8860
1124 8861
1124 8862
1124 8863
1124 8864
1124 8865
1124 8866
1124 8867
1124 9500
1124 10070
1124 10071
1124 10814
1125 922
1125 1595
1125 2668
1125 8868
1125 8869
1125 8870
1126 51
1126 81
1126 485
1126 552
1126 3530
1126 3534
1126 3600
1126 3851
1126 4033
1126 4138
1126 4394
1126 4396
1126 4399
1126 4756
1126 4760
1126 5264
1126 5266
1126 5273
1126 5430
1126 5739
1126 5790
1126 6543
1126 7566
1126 8871
1126 8872
1126 8873
1126 8874
1126 8875
1126 8876
1126 8877
1126 8878
1126 8879
1126 8880
1126 11583
1127 682
1127 912
1127 2411
1127 2713
1127 3963
1127 4289
1127 8881
1127 8882
1127 8883
1127 8884
1128 79
1128 1176
1128 4045
1128 4295
1128 4693
1128 6520
1128 8885
1128 8886
1128 8887
1128 9067
1129 3036
1129 5150
1129 5363
1129 5368
1129 7684
1129 8888
1129 8889
1129 8890
1129 11882
1129 12706
1130 336
1130 407
1130 444
1130 479
1130 662
1130 768
1130 801
1130 1141
1130 1675
1130 1705
1130 1803
1130 2643
1130 3910
1130 3913
1130 3915
1130 4020
1130 4101
1130 4431
1130 4649
1130 5106
1130 5188
1130 5564
1130 5610
1130 5614
1130 5615
1130 6169
1130 7526
1130 8891
1130 8892
1130 8893
1130 8894
1130 8895
1131 335
1131 718
1131 1744
1131 1877
1131 2066
1131 2604
1131 2830
1131 4531
1131 5104
1131 6109
1131 8896
1131 8897
1131 8898
1131 8899
1131 8900
1131 8901
1131 9460
1131 9471
1132 53
1132 58
1132 63
1132 92
1132 184
1132 192
1132 237
1132 731
1132 1138
1132 1159
1132 1734
1132 1843
1132 2490
1132 2632
1132 2973
1132 3349
1132 3486
1132 3620
1132 3664
1132 4143
1132 4241
1132 4313
1132 4319
1132 4412
1132 4413
1132 4599
1132 5625
1132 5628
1132 6163
1132 6853
1132 8902
1132 8903
1132 8904
1133 16
1133 18
1133 52
1133 58
1133 63
1133 469
1133 474
1133 1194
1133 1233
1133 1741
1133 1837
1133 2303
1133 2637
1133 2804
1133 3066
1133 3185
1133 3255
1133 3309
1133 3389
1133 3391
1133 3426
1133 3428
1133 4529
1133 4601
1133 6482
1133 8905
1133 8906
1133 8907
1133 8908
1133 8909
1133 8910
1133 8911
1133 10920
1134 84
1134 491
1134 492
1134 499
1134 754
1134 758
1134 1097
1134 1299
1134 1683
1134 1722
1134 1852
1134 1998
1134 2058
1134 2254
1134 2258
1134 2296
1134 2442
1134 2557
1134 2610
1134 2942
1134 3289
1134 3735
1134 4039
1134 4341
1134 4906
1134 7364
1134 8912
1134 8913
1134 11457
1135 31
1135 102
1135 171
1135 190
1135 323
1135 1111
1135 1183
1135 1186
1135 1476
1135 1648
1135 1663
1135 1739
1135 1843
1135 2147
1135 2579
1135 2883
1135 3211
1135 3219
1135 3349
1135 3430
1135 3842
1135 4247
1135 4413
1135 4793
1135 6104
1135 6151
1135 6570
1135 8914
1135 8915
1136 8
1136 29
1136 38
1136 39
1136 68
1136 118
1136 206
1136 347
1136 705
1136 1031
1136 1447
1136 2264
1136 2324
1136 2358
1136 2441
1136 2525
1136 3917
1136 5204
1136 5218
1136 5444
1136 6621
1136 6719
1136 6729
1136 8241
1136 8916
1136 8917
1136 9038
1136 9520
1136 12148
1137 37
1137 56
1137 79
1137 202
1137 216
1137 239
1137 307
1137 328
1137 720
1137 797
1137 988
1137 1121
1137 1177
1137 1419
1137 1450
1137 1701
1137 1804
1137 1960
1137 2052
1137 2113
1137 2115
1137 2173
1137 2247
1137 2536
1137 2693
1137 2833
1137 2836
1137 2844
1137 3295
1137 3464
1137 3562
1137 3602
1137 3691
1137 3693
1137 3694
1137 3731
1137 3934
1137 4136
1137 4549
1137 5722
1137 7487
1137 7522
1137 8918
1137 8919
1137 8920
1137 9371
1138 43
1138 64
1138 75
1138 94
1138 118
1138 184
1138 192
1138 335
1138 405
1138 468
1138 629
1138 683
1138 711
1138 1132
1138 1183
1138 1467
1138 1587
1138 1674
1138 1785
1138 1841
1138 2057
1138 2101
1138 2302
1138 2817
1138 2883
1138 2969
1138 3427
1138 3429
1138 3620
1138 3623
1138 3804
1138 6043
1138 8921
1139 49
1139 50
1139 70
1139 309
1139 457
1139 777
1139 802
1139 938
1139 1110
1139 1170
1139 1521
1139 1619
1139 1887
1139 2021
1139 2190
1139 2632
1139 2805
1139 2849
1139 3126
1139 3203
1139 3227
1139 3345
1139 3439
1139 3479
1139 3796
1139 4597
1139 4922
1139 4990
1139 5880
1139 6241
1139 8815
1139 8816
1139 8922
1140 2026
1140 2729
1140 2737
1140 3434
1140 3483
1140 3798
1140 4142
1140 4150
1140 4172
1140 6899
1140 7247
1140 7250
1140 8164
1140 8166
1140 8923
1140 8924
1140 8925
1140 8926
1140 8927
1140 11174
1141 303
1141 336
1141 346
1141 407
1141 444
1141 682
1141 801
1141 950
1141 1130
1141 1248
1141 1772
1141 2009
1141 2109
1141 2643
1141 3142
1141 3961
1141 5110
1141 5196
1141 5614
1141 8928
1142 1170
1142 1196
1142 1601
1142 2083
1142 2330
1142 2839
1142 2965
1142 3003
1142 3078
1142 3125
1142 3140
1142 3428
1142 3544
1142 4369
1142 4370
1142 4371
1142 5060
1142 5145
1142 8929
1142 8930
1143 55
1143 3449
1143 4231
1143 8931
1143 8932
1144 1179
1144 8933
1144 8934
1144 8935
1144 10763
1145 275
1145 279
1145 281
1145 305
1145 316
1145 450
1145 554
1145 843
1145 871
1145 1007
1145 1074
1145 1075
1145 1257
1145 1320
1145 1380
1145 1455
1145 1783
1145 1863
1145 1955
1145 2098
1145 2131
1145 2210
1145 2211
1145 2215
1145 2382
1145 2577
1145 2728
1145 2902
1145 2904
1145 2964
1145 3068
1145 3228
1145 3360
1145 3585
1145 4637
1145 8936
1145 8937
1145 8938
1145 8939
1145 8940
1146 30
1146 50
1146 52
1146 206
1146 461
1146 474
1146 475
1146 821
1146 1162
1146 1183
1146 1191
1146 1828
1146 1858
1146 2303
1146 2760
1146 2817
1146 3203
1146 3308
1146 3309
1146 3397
1146 3624
1146 3662
1146 4152
1146 4258
1146 5219
1146 5225
1146 5346
1146 5619
1146 5625
1146 5627
1146 5628
1146 5842
1146 6117
1146 6119
1146 6234
1146 6912
1146 8941
1146 8942
1146 8943
1146 10839
1147 69
1147 71
1147 81
1147 104
1147 226
1147 341
1147 561
1147 591
1147 600
1147 672
1147 677
1147 879
1147 883
1147 1688
1147 1980
1147 2181
1147 2379
1147 2721
1147 3310
1147 3560
1147 3564
1147 3573
1147 3574
1147 3575
1147 3578
1147 3580
1147 3584
1147 3600
1147 3846
1147 3847
1147 3851
1147 4501
1147 5166
1147 5236
1147 5951
1147 6361
1147 8848
1147 8944
1147 8945
1147 8946
1148 19
1148 56
1148 79
1148 1176
1148 1234
1148 3589
1148 3590
1148 3599
1148 3866
1148 4206
1148 4208
1148 4520
1148 5517
1148 7001
1148 7070
1148 7074
1148 8947
1148 8948
1148 8949
1148 8950
1148 8951
1148 8952
1148 8953
1149 2422
1149 8956
1149 12828
1150 7480
1150 8958
1150 12904
1151 80
1151 3762
1151 3838
1151 4742
1151 7128
1151 7695
1151 7697
1151 8564
1151 8960
1151 8961
1151 11843
1152 1560
1152 4511
1152 5524
1152 8501
1152 8562
1152 8962
1152 8963
1152 8964
1152 8965
1152 12172
1152 12403
1153 33
1153 646
1153 3640
1153 3764
1153 4330
1153 6314
1153 8966
1153 8967
1153 8968
1154 9
1154 925
1154 4669
1154 8969
1154 8970
1154 8971
1154 8972
1154 9677
1154 10885
1155 438
1155 838
1155 3611
1155 4239
1155 5861
1155 7658
1155 8973
1155 8974
1155 8975
1155 8976
1155 8977
1155 8978
1155 10324
1155 10901
1155 11818
1156 648
1156 1179
1156 1582
1156 5993
1156 6217
1156 6222
1156 6464
1156 8979
1156 8980
1156 8981
1156 8982
1156 8983
1156 8984
1156 8994
1156 9539
1157 28
1157 41
1157 55
1157 459
1157 526
1157 730
1157 1382
1157 1575
1157 3179
1157 3191
1157 3217
1157 3453
1157 3458
1157 3460
1157 3462
1157 3515
1157 3957
1157 4045
1157 4084
1157 4085
1157 4295
1157 4663
1157 5066
1157 5069
1157 5073
1157 5456
1157 5784
1157 5833
1157 5922
1157 6230
1157 8134
1157 8985
1157 8986
1157 8987
1157 8988
1157 8989
1157 8990
1157 9783
1157 11424
1157 12438
1158 4699
1158 4711
1158 4977
1158 5375
1158 5554
1158 7492
1158 7494
1158 8991
1158 8992
1158 8993
1158 8994
1158 8995
1158 8996
1158 8997
1158 8998
1158 10429
1158 11563
1159 63
1159 75
1159 92
1159 191
1159 426
1159 468
1159 536
1159 1132
1159 1854
1159 2272
1159 2459
1159 3198
1159 3620
1159 3624
1159 3784
1159 3805
1159 3810
1159 3972
1159 4241
1159 4304
1159 4311
1159 5006
1159 5486
1159 5621
1159 8999
1159 9000
1159 9001
1159 10422
1160 23
1160 26
1160 35
1160 81
1160 377
1160 2236
1160 2991
1160 3529
1160 3531
1160 3532
1160 3535
1160 3536
1160 3677
1160 3682
1160 4176
1160 4180
1160 4503
1160 4760
1160 5437
1160 5748
1160 6068
1160 7865
1160 9002
1160 9003
1160 9004
1160 9005
1160 9006
1160 9007
1161 43
1161 344
1161 376
1161 681
1161 3540
1161 3645
1161 3924
1161 4446
1161 4602
1161 5075
1161 5076
1161 5081
1161 5186
1161 5402
1161 5519
1161 5523
1161 7153
1161 7764
1161 7766
1161 9008
1161 9009
1161 9010
1161 9011
1161 9012
1161 9013
1161 9014
1161 9640
1161 11362
1162 70
1162 408
1162 475
1162 1073
1162 1146
1162 1549
1162 1797
1162 1858
1162 2143
1162 3184
1162 3624
1162 3662
1162 3784
1162 5225
1162 5619
1162 5621
1162 5625
1162 5627
1162 5628
1162 6119
1162 6123
1162 7595
1162 8675
1162 9015
1162 9016
1162 9017
1162 9018
1162 9019
1163 40
1163 50
1163 53
1163 73
1163 343
1163 469
1163 930
1163 1521
1163 1840
1163 2190
1163 2558
1163 2622
1163 2804
1163 2849
1163 3185
1163 3197
1163 3429
1163 3430
1163 3435
1163 3636
1163 3795
1163 4952
1163 6046
1163 7251
1163 8060
1163 8061
1163 8822
1163 9020
1163 9021
1163 9022
1163 9023
1164 51
1164 80
1164 81
1164 211
1164 279
1164 435
1164 465
1164 628
1164 766
1164 951
1164 954
1164 1028
1164 1501
1164 1553
1164 1832
1164 2292
1164 2941
1164 3107
1164 3675
1164 3964
1164 4470
1164 5289
1164 5839
1164 6077
1164 8479
1164 9024
1164 9025
1164 9026
1164 11340
1165 941
1165 1331
1165 9027
1165 9028
1166 1453
1166 9029
1166 9030
1167 39
1167 118
1167 206
1167 321
1167 817
1167 874
1167 1242
1167 1570
1167 1785
1167 2441
1167 3726
1167 3920
1167 4070
1167 4154
1167 4466
1167 4953
1167 5122
1167 6571
1167 7580
1167 7584
1167 7837
1167 8156
1167 9031
1167 9032
1167 9033
1167 9034
1167 9035
1167 9036
1167 9037
1167 9038
1167 9039
1167 9985
1167 11380
1167 12095
1168 924
1168 1031
1168 1242
1168 1511
1168 1570
1168 1741
1168 2441
1168 4224
1168 4563
1168 6055
1168 6480
1168 8487
1168 8488
1168 9036
1168 9040
1168 9041
1168 9042
1168 9043
1168 9044
1168 9045
1169 40
1169 52
1169 58
1169 63
1169 76
1169 207
1169 241
1169 285
1169 406
1169 411
1169 413
1169 441
1169 474
1169 475
1169 650
1169 804
1169 1268
1169 1507
1169 1797
1169 1901
1169 2143
1169 2760
1169 2853
1169 2970
1169 3005
1169 3129
1169 3397
1169 4152
1169 4258
1169 4790
1169 5225
1169 5350
1169 6039
1169 6149
1169 6914
1169 8488
1169 8543
1169 9046
1170 42
1170 54
1170 62
1170 68
1170 77
1170 200
1170 246
1170 333
1170 452
1170 457
1170 467
1170 472
1170 587
1170 606
1170 960
1170 1090
1170 1139
1170 1142
1170 1184
1170 1222
1170 1346
1170 1593
1170 1601
1170 1854
1170 1905
1170 2082
1170 2083
1170 2221
1170 2501
1170 2797
1170 2987
1170 3077
1170 3227
1170 3288
1170 6662
1170 9047
1171 34
1171 58
1171 63
1171 383
1171 474
1171 776
1171 958
1171 1119
1171 1120
1171 1641
1171 1828
1171 1855
1171 1894
1171 1959
1171 2303
1171 2622
1171 2637
1171 2752
1171 2804
1171 2952
1171 3125
1171 3309
1171 3313
1171 3336
1171 3348
1171 3373
1171 3374
1171 4257
1171 4258
1171 4532
1171 4555
1171 4952
1171 4958
1171 5471
1171 7057
1171 9048
1172 185
1172 426
1172 437
1172 442
1172 468
1172 804
1172 1285
1172 1346
1172 1631
1172 3808
1172 3971
1172 4304
1172 4307
1172 4315
1172 5008
1172 5010
1172 5012
1172 5775
1172 5886
1172 5888
1172 9049
1172 9050
1172 9051
1172 9390
1173 10
1173 194
1173 384
1173 2882
1173 2893
1173 3178
1173 3179
1173 3191
1173 3573
1173 3657
1173 3729
1173 3732
1173 4011
1173 4362
1173 4541
1173 4546
1173 4553
1173 4693
1173 4817
1173 5718
1173 5735
1173 6160
1173 7347
1173 9052
1173 9053
1173 9054
1173 9055
1173 9056
1174 442
1174 471
1174 958
1174 1995
1174 2349
1174 2637
1174 3336
1174 3726
1174 4992
1174 5724
1174 6988
1174 7338
1174 9057
1174 9058
1174 9059
1174 9060
1174 9061
1174 9062
1174 10886
1174 11596
1175 9063
1175 9064
1176 72
1176 79
1176 134
1176 138
1176 195
1176 208
1176 216
1176 250
1176 251
1176 286
1176 307
1176 328
1176 396
1176 417
1176 423
1176 429
1176 557
1176 625
1176 657
1176 687
1176 755
1176 797
1176 823
1176 856
1176 882
1176 1012
1176 1048
1176 1060
1176 1121
1176 1128
1176 1148
1176 1177
1176 1202
1176 1234
1176 1409
1176 1419
1176 1431
1176 1450
1176 1474
1176 1568
1176 1591
1176 1604
1176 1610
1176 1701
1176 1727
1176 1750
1176 1875
1176 1885
1176 1937
1176 1957
1176 1960
1176 2071
1176 2113
1176 2133
1176 2145
1176 2197
1176 2369
1176 2528
1176 2600
1176 2675
1176 2693
1176 2787
1176 2836
1176 2841
1176 2844
1176 2877
1176 2950
1176 3017
1176 3086
1176 3464
1176 3689
1176 3693
1176 3695
1176 9065
1177 37
1177 56
1177 61
1177 79
1177 216
1177 239
1177 295
1177 307
1177 328
1177 1137
1177 1176
1177 1701
1177 1804
1177 2369
1177 2687
1177 2892
1177 3281
1177 3364
1177 3602
1177 3690
1177 3731
1177 4452
1177 4541
1177 4765
1177 4782
1177 4904
1177 7652
1177 7817
1177 8262
1177 8527
1177 9066
1177 9067
1177 9068
1177 9069
1177 9070
1178 1753
1178 9071
1178 9072
1179 1144
1179 1156
1179 6715
1179 9073
1180 7013
1180 9074
1180 9075
1181 47
1181 61
1181 79
1181 986
1181 1284
1181 2467
1181 2640
1181 2956
1181 3082
1181 3449
1181 5227
1181 5231
1181 9076
1181 9077
1181 9078
1181 10263
1182 421
1182 1280
1182 3684
1182 3770
1182 4138
1182 5159
1182 5162
1182 5163
1182 5743
1182 9079
1182 9080
1182 9081
1182 9082
1182 9083
1183 31
1183 40
1183 48
1183 53
1183 73
1183 75
1183 107
1183 191
1183 192
1183 207
1183 343
1183 468
1183 629
1183 650
1183 929
1183 1135
1183 1138
1183 1146
1183 1674
1183 1785
1183 1841
1183 1843
1183 2101
1183 2143
1183 2147
1183 2303
1183 2579
1183 2817
1183 2849
1183 2883
1183 2969
1183 3211
1183 3309
1183 3321
1183 3349
1183 3355
1183 3427
1183 3428
1183 3429
1183 3430
1183 3435
1183 3436
1183 3613
1183 3624
1183 3795
1183 3842
1183 4143
1183 4146
1183 4247
1183 4299
1183 4412
1183 4413
1183 4779
1183 6104
1183 6570
1183 8056
1183 9022
1184 49
1184 54
1184 68
1184 70
1184 77
1184 457
1184 458
1184 467
1184 472
1184 587
1184 606
1184 739
1184 775
1184 960
1184 967
1184 1017
1184 1170
1184 1222
1184 1291
1184 1372
1184 1482
1184 1495
1184 1593
1184 1640
1184 1651
1184 1729
1184 1833
1184 1952
1184 2256
1184 2275
1184 2341
1184 2632
1184 3217
1184 3227
1184 3288
1184 3381
1184 3439
1184 3441
1184 3445
1184 3476
1184 3486
1184 3647
1184 3664
1184 4597
1184 4599
1184 4604
1184 5079
1184 5080
1184 7533
1184 9084
1184 9085
1184 9086
1185 75
1185 536
1185 547
1185 568
1185 681
1185 690
1185 702
1185 877
1185 1656
1185 1951
1185 2067
1185 2068
1185 2175
1185 2523
1185 3021
1185 3022
1185 3223
1185 3723
1185 3804
1185 3811
1185 4261
1185 4365
1185 4857
1185 7084
1185 8810
1185 9087
1185 9088
1186 48
1186 52
1186 102
1186 115
1186 383
1186 474
1186 1120
1186 1135
1186 1233
1186 1403
1186 1488
1186 1505
1186 1739
1186 1758
1186 1828
1186 1837
1186 2095
1186 2252
1186 2303
1186 2358
1186 3261
1186 3483
1186 3726
1186 3842
1186 3897
1186 4300
1186 4463
1186 6567
1186 6854
1186 7101
1186 9089
1186 9090
1187 9091
1187 9092
1187 9093
1187 9094
1188 1695
1188 1979
1188 9095
1188 9096
1188 9097
1189 4451
1189 8928
1189 9098
1190 4408
1190 8381
1190 9099
1190 9100
1190 9101
1191 45
1191 62
1191 376
1191 437
1191 1033
1191 1146
1191 1695
1191 1887
1191 2205
1191 2268
1191 2717
1191 3127
1191 3146
1191 3147
1191 3397
1191 3407
1191 3486
1191 3494
1191 3664
1191 3785
1191 3789
1191 4256
1191 5225
1191 5596
1191 5602
1191 5724
1191 5731
1191 5733
1191 5916
1191 9102
1191 9103
1191 9104
1191 9105
1191 9106
1191 9107
1191 9108
1191 9236
1191 9562
1192 57
1192 67
1192 81
1192 1195
1192 3583
1192 4289
1192 5291
1192 5829
1192 8093
1192 9109
1192 9110
1192 9111
1193 9112
1193 9113
1194 24
1194 34
1194 73
1194 83
1194 171
1194 197
1194 322
1194 469
1194 472
1194 536
1194 930
1194 1032
1194 1079
1194 1119
1194 1133
1194 1232
1194 1233
1194 1319
1194 1503
1194 1609
1194 1619
1194 1641
1194 1707
1194 1743
1194 1828
1194 1837
1194 1840
1194 1894
1194 2189
1194 2190
1194 2264
1194 2266
1194 2383
1194 2554
1194 2604
1194 2637
1194 2702
1194 2732
1194 2804
1194 2805
1194 2821
1194 2843
1194 2925
1194 2960
1194 3106
1194 3113
1194 3197
1194 3297
1194 3309
1194 3313
1194 9114
1195 98
1195 126
1195 161
1195 242
1195 261
1195 271
1195 310
1195 338
1195 362
1195 385
1195 427
1195 449
1195 455
1195 466
1195 476
1195 622
1195 743
1195 880
1195 894
1195 1030
1195 1067
1195 1192
1195 1399
1195 1423
1195 1465
1195 1510
1195 1653
1195 1699
1195 1702
1195 1760
1195 1784
1195 1812
1195 1823
1195 1873
1195 1956
1195 1957
1195 2000
1195 2173
1195 2267
1195 2281
1195 2388
1195 2463
1195 2483
1195 2567
1195 2589
1195 2644
1195 2663
1195 2735
1195 2753
1195 2832
1195 3008
1195 3011
1195 3201
1195 3252
1195 3322
1195 3466
1195 3537
1195 8447
1196 53
1196 77
1196 187
1196 190
1196 237
1196 248
1196 426
1196 653
1196 725
1196 731
1196 829
1196 1142
1196 1233
1196 1475
1196 1476
1196 1720
1196 1761
1196 2094
1196 2285
1196 2383
1196 2456
1196 2459
1196 2554
1196 2556
1196 2699
1196 2702
1196 2720
1196 2724
1196 2842
1196 2934
1196 2951
1196 2955
1196 2959
1196 2960
1196 3071
1196 3079
1196 3259
1196 3338
1196 3419
1196 3420
1196 9115
1196 9116
1197 8689
1197 9117
1197 9118
1198 33
1198 93
1198 405
1198 536
1198 586
1198 1412
1198 6660
1198 9119
1198 9120
1198 9121
1198 9300
1198 10929
1199 479
1199 1240
1199 2962
1199 4450
1199 4974
1199 6957
1199 7998
1199 9122
1199 9123
1199 9124
1199 9125
1200 3660
1200 7575
1200 9127
1200 12842
1201 9130
1201 9131
1201 9132
1201 9133
1202 56
1202 79
1202 1176
1202 1740
1202 4137
1202 5981
1202 7220
1202 9134
1202 9135
1203 5087
1203 5094
1203 7447
1203 7450
1203 9136
1203 9137
1203 9138
1203 9139
1203 9140
1204 950
1204 3816
1204 6259
1204 7230
1204 8286
1204 9141
1204 9142
1204 9143
1204 9144
1205 3640
1205 3940
1205 8188
1205 9145
1205 9146
1205 9147
1205 9148
1205 9149
1206 2704
1206 3102
1206 12563
1207 1591
1207 7931
1207 9169
1208 447
1208 2490
1208 7533
1208 9170
1208 9171
1209 1787
1209 2026
1209 9172
1209 9173
1209 10548
1210 4758
1210 9174
1210 9175
1210 9176
1210 9770
1211 243
1211 412
1211 541
1211 2238
1211 4575
1211 4578
1211 4579
1211 5374
1211 5651
1211 6453
1211 7018
1211 7811
1211 7902
1211 7903
1211 7904
1211 7906
1211 7910
1211 9148
1211 9177
1211 9178
1211 9179
1211 9180
1211 9715
1212 177
1212 2673
1212 3909
1212 4192
1212 7150
1212 7797
1212 8292
1212 8297
1212 9181
1212 9182
1212 9183
1212 9184
1212 9185
1213 8285
1213 9181
1213 9186
1213 9187
1213 9188
1214 33
1214 405
1214 1827
1214 2622
1214 3475
1214 3717
1214 3720
1214 3721
1214 4155
1214 4559
1214 4622
1214 5099
1214 5137
1214 5626
1214 6116
1214 6234
1214 7581
1214 7824
1214 7826
1214 9189
1214 9190
1214 9191
1215 2232
1215 2528
1215 4232
1215 9192
1216 3032
1216 9156
1216 9195
1216 9196
1217 735
1217 3093
1217 4730
1217 4943
1217 7042
1217 8303
1217 8399
1217 9197
1217 9198
1217 9199
1218 158
1218 4021
1218 4078
1218 5417
1218 9200
1218 9201
1218 9202
1218 10792
1218 10793
1218 11067
1219 120
1219 179
1219 265
1219 284
1219 430
1219 636
1219 1244
1219 1284
1219 1340
1219 1572
1219 1591
1219 1963
1219 1997
1219 2237
1219 2297
1219 2600
1219 3301
1219 9200
1219 9203
1220 49
1220 333
1220 2185
1220 3651
1220 5071
1220 6731
1220 7367
1220 9204
1220 9205
1221 4288
1221 4811
1221 8141
1221 9206
1221 9207
1221 9208
1221 9209
1221 9210
1221 9214
1222 49
1222 333
1222 457
1222 1170
1222 1184
1222 1482
1222 1952
1222 1994
1222 2082
1222 2256
1222 2632
1222 3325
1222 9211
1223 48
1223 50
1223 73
1223 872
1223 929
1223 1799
1223 2849
1223 3434
1223 3488
1223 3749
1223 3751
1223 9212
1223 9213
1224 1242
1224 1421
1224 2361
1224 4280
1224 4811
1224 5081
1224 5969
1224 7940
1224 8141
1224 9214
1224 9215
1224 9216
1224 9220
1225 8166
1225 9217
1225 9218
1225 9219
1226 9214
1226 9220
1226 9221
1226 9237
1227 287
1227 526
1227 730
1227 870
1227 1402
1227 1495
1227 2748
1227 2999
1227 4087
1227 9222
1227 9223
1227 9224
1227 9225
1228 257
1228 274
1228 675
1228 1267
1228 1528
1228 4724
1228 4725
1228 7776
1228 8334
1228 9226
1228 9227
1228 9228
1228 10065
1229 73
1229 668
1229 2403
1229 2424
1229 3795
1229 6039
1229 6056
1229 7546
1229 9031
1229 9229
1229 9230
1229 9231
1229 9895
1230 2644
1230 4083
1230 4084
1230 7614
1230 9232
1230 9233
1230 9234
1231 45
1231 395
1231 821
1231 1252
1231 1506
1231 3501
1231 3652
1231 3653
1231 4224
1231 4681
1231 4682
1231 4685
1231 4686
1231 5854
1231 6491
1231 8080
1231 9235
1231 9236
1231 9237
1231 9238
1231 9239
1231 9240
1231 9241
1232 12
1232 32
1232 48
1232 50
1232 70
1232 73
1232 197
1232 469
1232 717
1232 774
1232 930
1232 1194
1232 1233
1232 1837
1232 2264
1232 2804
1232 2960
1232 3003
1232 3126
1232 3203
1232 3351
1232 8819
1232 9242
1233 12
1233 115
1233 322
1233 684
1233 839
1233 938
1233 953
1233 958
1233 1133
1233 1186
1233 1194
1233 1196
1233 1232
1233 1293
1233 1475
1233 1488
1233 1628
1233 1770
1233 1837
1233 1849
1233 1961
1233 2732
1233 2798
1233 3066
1233 3125
1233 3196
1233 3342
1233 5120
1233 5471
1233 9242
1234 56
1234 79
1234 812
1234 1121
1234 1148
1234 1176
1234 2145
1234 3017
1234 3465
1234 3692
1234 3696
1234 3740
1234 8422
1234 9243
1235 45
1235 263
1235 1033
1235 1278
1235 1709
1235 2184
1235 2268
1235 2717
1235 2912
1235 3146
1235 3403
1235 4158
1235 9244
1235 9245
1236 32
1236 1354
1236 1476
1236 2960
1236 3066
1236 3196
1236 3426
1236 3636
1236 4159
1236 4373
1236 9116
1236 9242
1236 9246
1236 9247
1237 1250
1237 1578
1237 2406
1237 9248
1237 9249
1237 9250
1237 9251
1238 391
1238 2580
1238 3507
1238 9252
1238 9253
1238 9254
1238 11869
1239 382
1239 1042
1239 1986
1239 3705
1239 5462
1239 5807
1239 9255
1240 479
1240 1199
1240 3909
1240 5617
1240 6169
1240 6957
1240 9256
1241 380
1241 2791
1241 5002
1241 5326
1241 5731
1241 7707
1241 9257
1241 9258
1241 9259
1241 9260
1241 9261
1242 39
1242 187
1242 324
1242 404
1242 406
1242 452
1242 565
1242 817
1242 918
1242 952
1242 1167
1242 1168
1242 1224
1242 1343
1242 1478
1242 1502
1242 1570
1242 1742
1242 1744
1242 1798
1242 1822
1242 1839
1242 2087
1242 2525
1242 2959
1242 3260
1242 7634
1242 9262
1243 70
1243 77
1243 188
1243 344
1243 471
1243 621
1243 737
1243 1073
1243 1427
1243 1500
1243 1506
1243 1840
1243 1879
1243 2555
1243 2561
1243 2741
1243 2745
1243 2935
1243 2936
1243 2937
1243 3399
1243 3548
1243 3553
1243 3557
1243 7936
1243 7976
1243 9263
1243 9264
1244 854
1244 1219
1244 1997
1244 2133
1244 2134
1244 3511
1244 3519
1244 3589
1244 3599
1244 4078
1244 4701
1244 5318
1244 5518
1244 5870
1244 5872
1244 5873
1244 5875
1244 6302
1244 6953
1244 8950
1244 9265
1244 9266
1244 9267
1244 9268
1244 9530
1244 9543
1244 9549
1244 10553
1245 1494
1245 1852
1245 2286
1245 2706
1245 3095
1245 3978
1245 9269
1245 9270
1245 9271
1245 9272
1246 585
1246 1695
1246 3407
1246 3870
1246 3921
1246 5599
1246 5606
1246 7823
1246 9273
1246 9274
1247 413
1247 759
1247 1521
1247 2580
1247 7336
1247 9275
1247 9276
1247 9277
1247 9278
1247 10385
1248 259
1248 289
1248 300
1248 399
1248 407
1248 1065
1248 1141
1248 1661
1248 1675
1248 1705
1248 2306
1248 2616
1248 2643
1248 3910
1248 3913
1248 4435
1248 5106
1248 5110
1248 5113
1248 5188
1248 5190
1248 5572
1248 9279
1248 9280
1249 144
1249 262
1249 495
1249 693
1249 948
1249 996
1249 1975
1249 2179
1249 2423
1249 2445
1249 2769
1249 3148
1249 3170
1249 3771
1249 4030
1249 4669
1249 4767
1249 6684
1249 7097
1249 8528
1249 9281
1249 9282
1249 9283
1249 9284
1250 95
1250 333
1250 353
1250 548
1250 705
1250 802
1250 1237
1250 1482
1250 1578
1250 1667
1250 3398
1250 3515
1250 3537
1250 3663
1250 7153
1250 8198
1250 9285
1251 1317
1251 2555
1251 2729
1251 3002
1251 3165
1251 3798
1251 3988
1251 3989
1251 3992
1251 4262
1251 4674
1251 4994
1251 5120
1251 9286
1251 9287
1251 9288
1251 9289
1252 1231
1252 3652
1252 4286
1252 4682
1252 4685
1252 5854
1252 6491
1252 8081
1252 9235
1252 9236
1252 9239
1252 9290
1252 9291
1252 9292
1253 287
1253 2373
1253 2748
1253 3178
1253 3179
1253 3657
1253 4801
1253 4804
1253 7060
1253 9293
1253 9294
1253 9295
1253 9296
1253 9297
1254 668
1254 689
1254 804
1254 1674
1254 3084
1254 3621
1254 3921
1254 4155
1254 4164
1254 5488
1254 6972
1254 9298
1254 9299
1254 9300
1255 4081
1255 4801
1255 7855
1255 9293
1255 9295
1255 9297
1255 9301
1255 9302
1255 9303
1255 9304
1255 9351
1256 80
1256 96
1256 605
1256 2450
1256 3825
1256 3828
1256 3830
1256 4390
1256 5869
1256 8072
1256 8073
1256 9305
1256 9306
1256 9307
1256 9308
1256 9309
1256 9933
1257 51
1257 1095
1257 1145
1257 1320
1257 1713
1257 3682
1257 4289
1257 4784
1257 5509
1257 7621
1257 9310
1257 9311
1257 9312
1257 9313
1257 9314
1258 10
1258 25
1258 3090
1258 3366
1258 3768
1258 4769
1258 5451
1258 5452
1258 5453
1258 5828
1258 5925
1258 5930
1258 9315
1258 9316
1258 9317
1259 801
1259 1654
1259 2486
1259 4712
1259 5557
1259 6222
1259 7425
1259 7430
1259 8790
1259 9318
1259 9319
1259 9320
1259 9321
1259 10433
1260 51
1260 81
1260 5083
1260 5086
1260 5089
1260 5091
1260 7447
1260 7450
1260 9136
1260 9322
1260 9323
1260 9324
1260 10221
1260 10222
1260 10223
1261 688
1261 2364
1261 6879
1261 9325
1261 9326
1261 9327
1261 9328
1261 11624
1262 79
1262 1963
1262 6561
1262 9329
1262 9330
1262 9331
1262 9332
1263 2719
1263 4543
1263 9055
1263 9333
1263 9334
1263 9335
1263 9336
1263 9337
1264 1668
1264 1964
1264 2122
1264 4642
1264 9338
1264 9339
1264 9340
1265 1555
1265 3741
1265 4388
1265 6581
1265 9341
1265 9342
1265 10406
1266 1504
1266 4388
1266 6581
1266 9343
1266 9344
1267 1228
1267 1918
1267 5838
1267 9226
1267 10065
1268 474
1268 1169
1268 1538
1268 2853
1268 9345
1268 9346
1269 1999
1269 2478
1269 2938
1269 9347
1269 9348
1269 9931
1270 2538
1270 4390
1270 4522
1270 8072
1270 9349
1270 9350
1271 1750
1271 2201
1271 2538
1271 3697
1271 4419
1272 3178
1272 4081
1272 9297
1272 9351
1273 170
1273 593
1273 7374
1273 8466
1273 9352
1274 9355
1274 12942
1275 670
1275 913
1275 6343
1275 7010
1275 7931
1275 9356
1275 9357
1275 9358
1276 526
1276 1830
1276 6355
1276 9359
1276 9360
1276 9361
1276 9362
1276 9363
1276 11145
1277 26
1277 2892
1277 2956
1277 3413
1277 4136
1277 4498
1277 5364
1277 5753
1277 6136
1277 6753
1277 7143
1277 8671
1277 9364
1277 9365
1277 9366
1277 9367
1277 9368
1277 9369
1277 9370
1277 9371
1278 45
1278 59
1278 67
1278 1033
1278 1235
1278 2717
1278 3127
1278 3403
1278 3643
1278 3659
1278 9372
1278 9373
1278 9374
1279 381
1279 3901
1279 4186
1279 5356
1279 5412
1279 5414
1279 5415
1279 5457
1279 9375
1279 9376
1279 9377
1279 9378
1280 342
1280 423
1280 1182
1280 1618
1280 5159
1280 8686
1280 8874
1280 9379
1280 9380
1281 751
1281 7329
1281 9315
1281 9381
1281 9382
1282 21
1282 4440
1282 5433
1282 6497
1282 9383
1283 3962
1283 4061
1283 4398
1283 9384
1283 9385
1284 106
1284 251
1284 574
1284 939
1284 1181
1284 1219
1284 2594
1284 2928
1284 3584
1284 4538
1284 5951
1284 6613
1284 6614
1284 6625
1284 9386
1284 9387
1284 9388
1285 325
1285 477
1285 803
1285 1172
1285 3801
1285 3808
1285 3810
1285 4315
1285 5009
1285 5010
1285 6085
1285 7767
1285 8104
1285 8551
1285 9389
1285 9390
1285 9391
1286 69
1286 1036
1286 4291
1286 7218
1286 9392
1286 9393
1286 9394
1287 4295
1287 5050
1287 5051
1287 9395
1287 9396
1287 9397
1287 9829
1288 849
1288 888
1288 1547
1288 2055
1288 2404
1288 4941
1288 5018
1288 5157
1288 7913
1288 9398
1288 9399
1288 9400
1289 863
1289 1364
1289 1443
1289 2340
1289 4274
1289 4288
1289 6401
1289 9401
1289 9402
1289 9403
1289 9404
1289 9405
1290 941
1290 2055
1290 2073
1290 5018
1290 5022
1290 7719
1290 7720
1290 9406
1290 9407
1290 9408
1290 9512
1290 10118
1291 1184
1291 1640
1291 1746
1291 2341
1291 5181
1291 6092
1291 9409
1291 9410
1291 9411
1291 9412
1291 9413
1292 259
1292 399
1292 1535
1292 1705
1292 9193
1292 9194
1293 1233
1293 2095
1293 3893
1293 8166
1293 9414
1293 9415
1293 9416
1294 81
1294 845
1294 859
1294 3582
1294 4878
1294 9417
1294 9418
1295 7011
1295 7464
1295 9419
1295 9420
1295 9421
1296 1016
1296 2582
1296 2718
1296 5553
1296 9422
1296 9423
1296 9424
1296 9425
1296 11124
1297 67
1297 526
1297 3341
1297 3914
1297 9375
1297 9426
1297 9427
1298 15
1298 4397
1298 5873
1298 9428
1298 9429
1298 9430
1298 9693
1298 9711
1298 10511
1299 1134
1299 2296
1299 2536
1299 2677
1299 3289
1299 4038
1299 6209
1299 9431
1299 9432
1299 9433
1299 9968
1300 1123
1300 2496
1300 2882
1300 5721
1300 5939
1300 8532
1300 9142
1300 9434
1300 9435
1300 9436
1300 10851
1301 375
1301 377
1301 1693
1301 5356
1301 5392
1301 5478
1301 9375
1301 9377
1301 9378
1301 9437
1302 1411
1302 2409
1302 3065
1302 3147
1302 4551
1302 4730
1302 5961
1302 5998
1302 6814
1302 8989
1302 9438
1302 9439
1302 9440
1303 504
1303 1010
1303 1027
1303 2266
1303 6217
1303 6276
1303 9441
1303 9442
1303 9443
1303 9444
1303 9445
1303 9446
1303 9537
1304 3805
1304 3866
1304 4090
1304 4677
1304 5851
1304 6085
1304 7070
1304 7732
1304 8319
1304 9447
1304 9448
1304 9449
1304 10328
1305 73
1305 3356
1305 3392
1305 3799
1305 6238
1305 6240
1305 6920
1305 7290
1305 8187
1305 8245
1305 9450
1305 9451
1305 9452
1306 57
1306 1026
1306 4456
1306 4665
1306 9453
1306 9454
1306 9455
1306 9456
1307 1354
1307 2830
1307 3317
1307 6897
1307 9457
1307 9458
1307 9459
1307 9460
1308 1406
1308 2279
1308 2340
1308 2988
1308 3319
1308 6163
1308 9461
1308 9462
1308 9463
1309 1036
1309 1638
1309 2813
1309 3741
1309 4333
1309 4518
1309 9464
1309 9465
1309 9466
1310 478
1310 653
1310 725
1310 731
1310 829
1310 2094
1310 2556
1310 2959
1310 3338
1310 9116
1311 585
1311 651
1311 1648
1311 1674
1311 2951
1311 3321
1311 3475
1311 6428
1311 9467
1311 9957
1312 154
1312 2066
1312 2838
1312 2907
1312 3347
1312 4144
1312 9468
1312 9469
1312 9470
1312 9471
1313 127
1313 1082
1313 2467
1313 4197
1313 4694
1313 6790
1313 7748
1313 8714
1313 9468
1313 9472
1313 9473
1313 9474
1313 9851
1313 10925
1313 11289
1314 80
1314 389
1314 435
1314 842
1314 951
1314 954
1314 1323
1314 1501
1314 1571
1314 1581
1314 2216
1314 2291
1314 2292
1314 2448
1314 2460
1314 2464
1314 3107
1314 3406
1314 3579
1314 4386
1314 4548
1314 5150
1314 5505
1314 9475
1314 9476
1314 9477
1315 80
1315 954
1315 1581
1315 2298
1315 3107
1315 3964
1315 4547
1315 4552
1315 4943
1315 8091
1315 9475
1315 9478
1315 9479
1316 43
1316 63
1316 75
1316 92
1316 184
1316 191
1316 197
1316 349
1316 442
1316 468
1316 853
1316 1346
1316 1841
1316 2057
1316 2272
1316 2459
1316 2525
1316 3397
1316 3435
1316 3486
1316 3620
1316 3624
1316 3664
1316 3784
1316 4246
1316 4304
1316 4315
1316 4558
1316 4597
1316 5214
1316 5775
1316 9480
1317 955
1317 1251
1317 1418
1317 1460
1317 1706
1317 1855
1317 1877
1317 2096
1317 2132
1317 2330
1317 2752
1317 2784
1317 2785
1317 3057
1317 3059
1317 3063
1317 3064
1317 3165
1317 3792
1317 3794
1317 3988
1317 3990
1317 3992
1317 4262
1317 4268
1317 4364
1317 4674
1317 7710
1317 7711
1317 9288
1317 9481
1317 9482
1318 1696
1318 4820
1318 5629
1318 5634
1318 5931
1318 7757
1318 9483
1318 9484
1319 40
1319 52
1319 73
1319 197
1319 661
1319 804
1319 1054
1319 1120
1319 1194
1319 1828
1319 2622
1319 2804
1319 2927
1319 3475
1319 3627
1319 3721
1319 3746
1319 4561
1319 4952
1319 5346
1319 6101
1319 6102
1319 8058
1319 8844
1320 970
1320 1145
1320 1257
1320 3284
1320 3682
1320 9006
1320 9485
1320 9486
1320 9487
1321 1004
1321 2666
1321 9488
1321 9489
1321 9490
1322 1322
1322 9491
1322 9492
1322 9493
1322 9494
1323 368
1323 990
1323 1314
1323 2186
1323 2216
1323 2291
1323 2292
1323 3036
1323 3700
1324 133
1324 2555
1324 2686
1324 3063
1324 3164
1324 3165
1324 3991
1324 4676
1324 9495
1325 465
1325 1043
1325 1095
1325 2026
1325 6074
1325 7398
1325 7746
1325 9496
1325 10346
1326 2757
1326 7551
1326 12869
1327 8218
1327 8900
1327 9498
1328 881
1328 1618
1328 1629
1328 2182
1328 3062
1328 4197
1328 4202
1328 5374
1328 7562
1328 9499
1328 9500
1328 9501
1329 1025
1329 1728
1329 4379
1329 4447
1329 5257
1329 6396
1329 6953
1329 7641
1329 9502
1329 9503
1329 9504
1329 9505
1329 9506
1330 499
1330 1999
1330 2058
1330 2060
1330 3142
1330 4009
1330 4039
1330 4815
1330 7086
1330 8667
1330 9507
1330 9508
1330 9509
1330 9510
1330 9511
1330 10164
1330 11460
1330 11899
1330 12137
1331 849
1331 1165
1331 1491
1331 1547
1331 2055
1331 2772
1331 3107
1331 3323
1331 5018
1331 5190
1331 7720
1331 9512
1331 9513
1331 9514
1331 9515
1331 9516
1331 11859
1332 64
1332 238
1332 404
1332 568
1332 1805
1332 2623
1332 2702
1332 2733
1332 3370
1332 3371
1332 4261
1332 5885
1332 7574
1332 7708
1332 9517
1333 29
1333 34
1333 38
1333 405
1333 553
1333 1108
1333 1445
1333 2455
1333 2525
1333 3106
1333 3917
1333 9450
1333 9518
1333 9519
1333 9520
1334 440
1334 2928
1334 3866
1334 4208
1334 5352
1334 5875
1334 5876
1334 9521
1335 35
1335 69
1335 288
1335 977
1335 2298
1335 5016
1335 5151
1335 8273
1335 9522
1335 9523
1335 9524
1335 9525
1335 11885
1335 12460
1336 3511
1336 3596
1336 3599
1336 4349
1336 4352
1336 9267
1336 9526
1336 9527
1336 9528
1336 9529
1336 9530
1336 9531
1336 10281
1336 11909
1337 20
1337 594
1337 3247
1337 3329
1337 3909
1337 7391
1337 8395
1337 8572
1337 9532
1337 9533
1337 9534
1338 15
1338 4694
1338 4697
1338 4699
1338 4711
1338 5377
1338 6556
1338 6758
1338 8714
1338 9535
1338 9536
1338 9537
1338 9538
1338 9539
1339 56
1339 3599
1339 4207
1339 4961
1339 5517
1339 8631
1339 8947
1339 9529
1339 9540
1339 9541
1339 9542
1339 9543
1339 9544
1339 9545
1340 1219
1340 1997
1340 2135
1340 3589
1340 3599
1340 4350
1340 5513
1340 9545
1340 9546
1340 9547
1340 9548
1340 9549
1340 10471
1340 10553
1341 1997
1341 9540
1341 9550
1341 9551
1342 9552
1342 9553
1342 9554
1342 9964
1343 1242
1343 1706
1343 1877
1343 2311
1343 2470
1343 2785
1343 3002
1343 3004
1343 3986
1343 9555
1343 9556
1344 17
1344 67
1344 1491
1344 3065
1344 4729
1344 5156
1344 5961
1344 6814
1344 9557
1344 9558
1344 9559
1345 8
1345 14
1345 29
1345 30
1345 38
1345 44
1345 48
1345 58
1345 63
1345 70
1345 73
1345 198
1345 386
1345 395
1345 470
1345 731
1345 929
1345 1506
1345 1843
1345 2837
1345 3203
1345 3349
1345 3392
1345 3396
1345 3784
1345 4601
1345 5405
1345 5619
1345 6104
1345 8060
1345 9560
1346 49
1346 70
1346 75
1346 128
1346 185
1346 186
1346 386
1346 395
1346 426
1346 468
1346 621
1346 893
1346 1170
1346 1172
1346 1316
1346 1700
1346 1887
1346 2253
1346 2632
1346 3437
1346 3438
1346 3486
1346 3664
1346 4241
1346 5006
1346 5405
1346 5620
1346 6025
1346 8697
1346 9561
1346 9562
1347 507
1347 6285
1347 6655
1347 9563
1347 9564
1347 9565
1348 9359
1348 9566
1348 9567
1348 9568
1348 9569
1348 11600
1349 964
1349 8202
1349 9570
1349 9571
1350 2487
1350 4279
1350 6401
1350 7940
1350 9013
1350 9159
1350 9572
1350 9573
1350 9574
1351 2213
1351 2902
1351 4295
1351 4837
1351 8230
1351 9575
1351 9576
1351 9577
1351 9578
1352 80
1352 81
1352 301
1352 4877
1352 5034
1352 5274
1352 5275
1352 5277
1352 5430
1352 5431
1352 5432
1352 8413
1352 9579
1352 9580
1352 9581
1352 9582
1352 9583
1353 33
1353 248
1353 456
1353 1533
1353 3373
1353 3614
1353 3616
1353 3640
1353 4303
1353 4313
1353 5347
1353 5348
1353 6010
1353 6427
1353 7422
1353 9584
1353 9585
1353 9586
1354 309
1354 1236
1354 1307
1354 1828
1354 2112
1354 3197
1354 3483
1354 3636
1354 3788
1354 3799
1354 4925
1354 5780
1354 6046
1354 9023
1354 9247
1354 9458
1354 9460
1354 9587
1355 78
1355 297
1355 578
1355 637
1355 956
1355 970
1355 1036
1355 1121
1355 1536
1355 2037
1355 2104
1355 2215
1355 2577
1355 2796
1355 3570
1355 9588
1356 285
1356 538
1356 853
1356 958
1356 1079
1356 1108
1356 1488
1356 1837
1356 1855
1356 2759
1356 3336
1356 3350
1356 4299
1356 4958
1356 8058
1356 9589
1357 8
1357 29
1357 38
1357 1648
1357 2302
1357 2358
1357 3211
1357 3320
1357 3917
1357 5204
1357 5205
1357 8241
1357 9590
1357 9591
1357 9592
1357 9836
1358 3438
1358 3658
1358 3801
1358 4972
1358 6111
1358 8547
1358 9593
1358 9594
1358 9595
1359 3822
1359 3828
1359 4522
1359 8070
1359 8073
1359 9308
1359 9596
1359 9597
1359 9598
1360 3153
1360 3296
1360 5642
1360 5978
1360 7928
1360 9599
1360 9600
1360 9601
1361 2450
1361 3822
1361 3828
1361 4054
1361 4056
1361 5869
1361 9602
1361 9603
1362 41
1362 46
1362 706
1362 2567
1362 3460
1362 5228
1362 5389
1362 6337
1362 6967
1362 7615
1362 9604
1362 9605
1362 9606
1362 9607
1363 177
1363 488
1363 869
1363 2031
1363 2056
1363 2380
1363 3047
1363 4075
1363 6391
1363 9608
1363 9609
1363 9610
1363 9611
1364 1289
1364 1393
1364 1452
1364 2487
1364 3631
1364 3785
1364 5172
1364 9612
1364 9613
1364 9614
1364 9615
1364 9616
1364 9697
1364 9702
1365 3463
1365 4343
1365 5355
1365 5415
1365 9617
1365 9618
1365 9619
1365 9620
1365 9621
1366 27
1366 3852
1366 7042
1366 7043
1366 7044
1366 8096
1366 9617
1366 9622
1366 9623
1366 9624
1366 9625
1366 9626
1366 10401
1366 10910
1367 1541
1367 2395
1367 3135
1367 4084
1367 9627
1367 9628
1367 9629
1367 10101
1367 10700
1368 2961
1368 3780
1368 5042
1368 5044
1368 5325
1368 6596
1368 7702
1368 9630
1369 2160
1369 2233
1369 3712
1369 3901
1369 4677
1369 8136
1369 9631
1369 9632
1369 9633
1370 1958
1370 3680
1370 4027
1370 4790
1370 5696
1370 5712
1370 8742
1370 9634
1370 9635
1371 577
1371 1618
1371 1789
1371 3048
1371 9122
1371 9636
1371 9637
1371 9638
1371 9639
1372 49
1372 333
1372 967
1372 1017
1372 1184
1372 1531
1372 1640
1372 1833
1372 2256
1372 3439
1372 3651
1372 3653
1372 4677
1372 4833
1372 5219
1372 9640
1372 9641
1372 9642
1373 336
1373 569
1373 2488
1373 3910
1373 3915
1373 4437
1373 4646
1373 5106
1373 5112
1373 5556
1373 5611
1373 5613
1373 5618
1373 5901
1373 6593
1373 6960
1373 6961
1373 9643
1373 9644
1374 579
1374 699
1374 1042
1374 1376
1374 2007
1374 2234
1374 2597
1374 6448
1374 6887
1374 8534
1374 8536
1374 9645
1374 9646
1374 9647
1374 9648
1374 9650
1374 10381
1374 11896
1375 78
1375 88
1375 533
1375 555
1375 563
1375 2476
1375 2693
1375 9649
1376 579
1376 1374
1376 2234
1376 2597
1376 6887
1376 9647
1376 9650
1376 10381
1377 1845
1377 1974
1377 4160
1377 4162
1377 6057
1377 6367
1377 9651
1377 9652
1378 25
1378 331
1378 5037
1378 5828
1378 6968
1378 7946
1378 9653
1378 9654
1379 598
1379 768
1379 3307
1379 4579
1379 5651
1379 7808
1379 8758
1379 9655
1379 9656
1380 26
1380 1145
1380 1513
1380 2210
1380 6556
1380 6758
1380 9657
1380 9658
1380 9659
1381 2557
1381 3014
1381 4410
1381 5914
1381 8068
1381 8851
1381 9660
1381 9661
1381 9662
1382 1157
1382 2053
1382 2786
1382 3019
1382 7129
1382 8119
1382 9663
1382 9664
1383 38
1383 1674
1383 2272
1383 2752
1383 3352
1383 9519
1383 9665
1383 9666
1384 845
1384 1772
1384 2100
1384 5914
1384 8317
1384 9129
1384 9667
1384 9668
1385 620
1385 5582
1385 5934
1385 5937
1385 9669
1385 9670
1385 9671
1385 9672
1385 9673
1385 9674
1386 1696
1386 2536
1386 2892
1386 3518
1386 3718
1386 4671
1386 5137
1386 5629
1386 5630
1386 7757
1386 9674
1386 9675
1386 9676
1386 9677
1387 1767
1387 2254
1387 3190
1387 4030
1387 4949
1387 7087
1387 7089
1387 9678
1387 9679
1387 9680
1388 42
1388 62
1388 1029
1388 3379
1388 3385
1388 3502
1388 9345
1388 9681
1388 9682
1389 4703
1389 5634
1389 5635
1389 5937
1389 6062
1389 9674
1389 9683
1389 9684
1389 9685
1390 477
1390 1105
1390 3805
1390 4445
1390 4447
1390 4678
1390 5009
1390 5058
1390 5700
1390 5714
1390 6159
1390 7641
1390 9686
1390 9687
1391 1537
1391 2310
1391 2613
1391 2614
1391 3143
1391 4061
1391 9688
1391 9689
1391 9690
1391 9691
1391 9692
1391 10932
1391 11554
1391 12338
1392 15
1392 28
1392 41
1392 434
1392 880
1392 2536
1392 3417
1392 9693
1392 9694
1392 9695
1392 9696
1392 9713
1392 10511
1392 10515
1393 129
1393 1364
1393 3631
1393 5172
1393 5186
1393 6165
1393 7679
1393 9615
1393 9697
1393 9698
1393 9699
1393 9700
1393 9701
1393 9702
1394 2435
1394 9163
1394 9704
1394 12866
1395 3033
1395 8951
1395 9543
1395 9705
1396 1010
1396 1594
1396 1723
1396 1802
1396 2415
1396 2633
1396 6694
1396 9706
1396 9707
1396 9708
1397 15
1397 3598
1397 4397
1397 5232
1397 9428
1397 9709
1397 9710
1397 9711
1397 9712
1397 9713
1398 243
1398 673
1398 7019
1398 9714
1398 9715
1398 9716
1398 9717
1398 9718
1398 9753
1398 9756
1399 15
1399 36
1399 46
1399 55
1399 59
1399 67
1399 1026
1399 1195
1399 1760
1399 2220
1399 2640
1399 3124
1399 3858
1399 4065
1399 6179
1399 9428
1399 9719
1399 9720
1400 60
1400 337
1400 344
1400 777
1400 1511
1400 1619
1400 2339
1400 2805
1400 2849
1400 3345
1400 9721
1401 81
1401 120
1401 884
1401 1021
1401 2803
1401 3933
1401 4332
1401 4484
1401 5302
1401 9722
1401 11421
1402 515
1402 528
1402 1227
1402 2092
1402 2144
1402 2373
1402 3264
1402 5456
1402 7129
1402 9225
1402 9723
1403 52
1403 1186
1403 1475
1403 1695
1403 1758
1403 2732
1403 3261
1403 3278
1403 3716
1403 4300
1403 4529
1403 4999
1403 5655
1403 7005
1403 9724
1403 9725
1403 9726
1403 9727
1403 10339
1404 389
1404 3766
1404 7874
1404 8703
1404 9141
1404 9728
1404 9729
1404 9730
1405 1744
1405 4274
1405 4313
1405 6197
1405 8898
1405 8899
1405 9731
1405 9732
1406 1308
1406 3171
1406 3463
1406 6806
1406 7329
1406 9733
1406 9734
1406 9735
1407 4021
1407 5962
1407 7397
1407 8090
1407 9736
1407 9737
1407 9738
1408 14
1408 2737
1408 4858
1408 5058
1408 5624
1408 6145
1408 7254
1408 9739
1409 823
1409 1176
1409 2535
1409 3595
1409 3742
1409 4909
1409 6550
1409 9740
1410 3064
1410 3487
1410 4262
1410 9555
1410 9741
1410 9742
1410 9743
1410 12274
1411 20
1411 602
1411 1086
1411 1302
1411 1613
1411 1850
1411 2690
1411 4052
1411 4504
1411 5158
1411 8273
1411 8603
1411 8604
1411 9744
1411 9745
1411 9746
1411 9747
1411 9748
1411 9749
1411 11666
1412 75
1412 536
1412 629
1412 689
1412 1198
1412 3621
1412 5488
1412 9750
1412 9751
1412 9752
1413 946
1413 1543
1413 7903
1413 8122
1413 8356
1413 8794
1413 9753
1413 9754
1413 9755
1413 9756
1414 1000
1414 1060
1414 1740
1414 8366
1414 9757
1414 9758
1415 540
1415 4548
1415 6446
1415 8533
1415 9759
1415 9760
1416 711
1416 2848
1416 4616
1416 6104
1416 7247
1416 9761
1417 961
1417 1738
1417 2070
1417 3052
1417 3639
1417 3640
1417 6002
1417 6003
1417 6007
1417 6010
1417 9762
1417 9763
1418 50
1418 93
1418 955
1418 1317
1418 2330
1418 3428
1418 3988
1418 4267
1418 9020
1418 9288
1418 9764
1418 9765
1419 1137
1419 1176
1419 1591
1419 1808
1419 5139
1419 5864
1419 8119
1419 9135
1419 9569
1419 9766
1419 9767
1419 9768
1420 79
1420 1821
1420 4766
1420 4795
1420 4796
1420 4798
1420 5944
1420 8435
1420 9769
1420 9770
1420 9771
1421 1224
1421 1964
1421 2051
1421 2168
1421 2195
1421 2208
1421 2487
1421 2562
1421 9216
1421 9772
1421 9773
1422 668
1422 804
1422 3640
1422 3971
1422 4155
1422 4161
1422 4164
1422 7546
1422 8428
1422 9752
1422 9774
1423 36
1423 57
1423 59
1423 67
1423 427
1423 1195
1423 3461
1423 5063
1423 5777
1423 9775
1423 9776
1424 80
1424 5022
1424 5302
1424 5687
1424 5689
1424 6328
1424 6331
1424 7606
1424 9777
1424 9778
1425 2359
1425 2360
1425 4170
1425 6491
1425 8080
1425 8733
1425 8736
1425 9217
1425 9779
1425 9780
1425 9781
1426 287
1426 3178
1426 3179
1426 4081
1426 4804
1426 7847
1426 9303
1426 9351
1426 9782
1426 9783
1427 738
1427 904
1427 1112
1427 1243
1427 1679
1427 1778
1427 2086
1427 2334
1427 2401
1427 2839
1427 2867
1427 2930
1427 2931
1427 2946
1427 3544
1427 5203
1427 7280
1427 7282
1427 7975
1427 9784
1427 9785
1427 9786
1427 9787
1427 9788
1427 9789
1427 9790
1427 10446
1427 10597
1428 79
1428 3741
1428 4092
1428 4215
1428 4417
1428 9791
1428 9792
1428 9793
1429 937
1429 2520
1429 2602
1429 9440
1429 9794
1429 9795
1429 9796
1429 10356
1430 4212
1430 4717
1430 5640
1430 8093
1430 9077
1430 9797
1430 9798
1431 79
1431 123
1431 1176
1431 1937
1431 3507
1431 3954
1431 4758
1431 4795
1431 9799
1432 124
1432 1043
1432 3065
1432 3964
1432 4423
1432 4531
1432 6958
1432 9800
1432 9801
1433 989
1433 2991
1433 8327
1433 8329
1433 8976
1433 8978
1433 9802
1433 9803
1433 10900
1434 5564
1434 5936
1434 6308
1434 8353
1434 9678
1434 9804
1434 9805
1435 5262
1435 9188
1435 9716
1435 9806
1435 9807
1435 10100
1435 10244
1436 97
1436 772
1436 7147
1436 7918
1436 9808
1436 9809
1437 486
1437 939
1437 1568
1437 3312
1437 5358
1437 6189
1437 7273
1437 9810
1437 9811
1438 431
1438 1010
1438 5375
1438 5554
1438 6376
1438 9812
1438 9813
1438 9814
1438 9815
1438 9816
1439 540
1439 646
1439 1992
1439 4524
1439 6889
1439 7320
1440 1768
1440 4634
1440 6401
1440 9159
1440 9817
1440 9818
1441 710
1441 6986
1441 8884
1441 9819
1441 9820
1441 9821
1441 9822
1442 4202
1442 5374
1442 7361
1442 9823
1442 9824
1442 9825
1442 9826
1443 1289
1443 6813
1443 9827
1444 9828
1444 9829
1444 9830
1445 8
1445 29
1445 38
1445 248
1445 347
1445 1079
1445 1108
1445 1333
1445 1641
1445 1734
1445 3917
1445 3919
1445 4149
1445 5204
1445 5205
1445 7288
1445 8248
1445 9592
1445 9831
1445 9832
1445 9833
1446 160
1446 331
1446 361
1446 375
1446 828
1446 948
1446 2043
1446 3178
1446 3179
1446 3180
1446 3235
1446 3453
1446 3462
1446 3657
1446 5922
1446 7060
1446 9834
1446 9835
1447 8
1447 29
1447 206
1447 405
1447 833
1447 1136
1447 1502
1447 1785
1447 2525
1447 3917
1447 3919
1447 3920
1447 5205
1447 5444
1447 6533
1447 6621
1447 9836
1447 9837
1448 2506
1448 9839
1448 9840
1448 12851
1449 6227
1449 6582
1449 9842
1449 9843
1450 56
1450 79
1450 134
1450 1137
1450 1176
1450 3597
1450 6951
1450 9844
1450 9845
1450 9846
1450 9847
1450 9848
1451 318
1451 369
1451 4200
1451 4694
1451 5376
1451 6222
1451 9839
1451 9849
1451 9850
1451 9851
1451 9852
1451 9853
1452 173
1452 585
1452 1364
1452 2540
1452 4157
1452 4163
1452 5603
1452 6165
1452 9614
1452 9646
1452 9854
1452 9855
1453 939
1453 1166
1453 3731
1453 4295
1453 4693
1453 4765
1453 9856
1453 9857
1453 9858
1454 28
1454 2043
1454 3001
1454 3124
1454 5068
1454 5940
1454 6083
1454 9859
1454 9860
1455 1145
1455 1618
1455 3585
1455 6361
1455 9861
1455 9862
1455 9863
1455 10181
1455 11387
1456 2054
1456 2157
1456 9864
1456 9865
1457 4469
1457 5910
1457 8827
1457 9866
1458 90
1458 2229
1458 3775
1458 9864
1458 9867
1458 9868
1458 9869
1459 1487
1459 2700
1459 3458
1459 4083
1459 4084
1459 4085
1459 4473
1459 5449
1459 8323
1459 9233
1459 9870
1459 9871
1459 9872
1459 9873
1460 955
1460 1317
1460 1901
1460 2785
1460 3056
1460 3109
1460 3792
1460 3988
1460 3990
1460 4267
1460 4674
1460 7250
1460 7710
1460 8927
1460 9286
1460 9288
1460 9764
1460 9874
1460 9875
1461 3719
1461 3771
1461 5138
1461 5233
1461 8646
1461 9876
1461 9877
1461 9878
1462 1867
1462 2988
1462 3016
1462 5354
1462 7192
1462 8116
1462 9879
1462 9880
1462 9881
1463 7467
1463 9882
1463 9883
1463 9884
1463 9885
1464 9886
1464 9887
1464 9888
1464 9889
1465 11
1465 36
1465 57
1465 59
1465 67
1465 362
1465 1195
1465 2000
1465 3124
1465 3967
1465 4665
1465 5997
1465 7870
1465 8484
1465 9890
1466 212
1466 753
1466 2539
1466 2576
1466 2643
1466 3040
1466 3910
1466 3913
1466 6299
1466 6416
1466 6709
1466 9891
1466 9892
1466 9893
1466 9894
1467 31
1467 75
1467 1138
1467 1843
1467 2302
1467 2883
1467 3349
1467 3427
1467 3620
1467 5678
1467 6036
1467 6040
1467 6043
1467 6047
1467 9895
1468 846
1468 1025
1468 2131
1468 3873
1468 4382
1468 4794
1468 5255
1468 5256
1468 5257
1468 7352
1468 9896
1468 9897
1468 9898
1468 9899
1468 9900
1468 10475
1469 1675
1469 2306
1469 3910
1469 4101
1469 4106
1469 4875
1469 6370
1469 6371
1469 6372
1469 7094
1469 8145
1469 8147
1469 9901
1469 9902
1469 9903
1469 11193
1470 64
1470 404
1470 460
1470 848
1470 1860
1470 2175
1470 2259
1470 2468
1470 4446
1470 5168
1470 5967
1470 6031
1470 6035
1470 7084
1470 7537
1470 8813
1470 9904
1470 9905
1470 9906
1471 20
1471 97
1471 300
1471 843
1471 916
1471 3220
1471 4824
1471 4825
1471 5115
1471 5813
1471 6002
1471 6007
1471 8411
1471 9907
1471 9908
1471 9909
1471 9910
1472 1475
1472 1562
1472 3273
1472 3336
1472 3350
1472 3422
1472 3726
1472 4099
1472 4100
1472 4529
1472 4999
1472 6990
1472 7341
1472 9090
1472 9665
1472 9911
1472 9912
1473 456
1473 1560
1473 1624
1473 9913
1473 9914
1473 9915
1473 9916
1474 80
1474 81
1474 1176
1474 6530
1474 9917
1474 9918
1474 9919
1475 322
1475 323
1475 383
1475 406
1475 834
1475 1119
1475 1196
1475 1233
1475 1403
1475 1472
1475 1562
1475 1787
1475 1859
1475 1894
1475 1898
1475 1961
1475 2272
1475 2358
1475 2710
1475 2752
1475 2792
1475 2993
1475 3069
1475 3130
1475 3261
1475 3273
1475 3483
1475 6163
1475 7636
1475 8906
1475 9920
1475 9921
1476 31
1476 50
1476 190
1476 197
1476 207
1476 323
1476 474
1476 938
1476 1111
1476 1135
1476 1196
1476 1236
1476 1743
1476 1843
1476 3126
1476 3211
1476 3347
1476 3349
1476 3356
1476 3430
1476 3483
1476 3795
1476 4143
1476 4412
1476 4413
1476 5120
1476 5350
1476 5887
1476 6104
1476 7005
1476 7290
1476 8543
1477 21
1477 22
1477 3509
1477 4440
1477 4672
1477 4965
1477 5301
1477 5334
1477 5427
1477 5428
1477 5430
1477 5433
1477 8226
1477 9922
1477 9923
1477 9924
1478 565
1478 918
1478 953
1478 1242
1478 2162
1478 2288
1478 3002
1478 3351
1478 3986
1478 7247
1478 7250
1478 9925
1478 9926
1478 9927
1479 311
1479 631
1479 1560
1479 1810
1479 2111
1479 2254
1479 2599
1479 3134
1479 4934
1479 5300
1479 8267
1479 9928
1479 9929
1479 9930
1479 9931
1480 3825
1480 3828
1480 3937
1480 4327
1480 4390
1480 5869
1480 6828
1480 7123
1480 7683
1480 7689
1480 8073
1480 8789
1480 9932
1480 9933
1480 9934
1481 778
1481 1080
1481 7429
1481 8372
1481 9935
1481 9936
1481 9937
1482 45
1482 49
1482 68
1482 333
1482 353
1482 967
1482 1184
1482 1222
1482 1250
1482 1640
1482 1833
1482 2561
1482 2632
1482 2863
1482 3382
1482 3398
1482 3401
1482 3439
1482 3515
1482 3544
1482 3645
1482 3653
1482 3663
1482 4287
1482 7367
1482 7640
1482 9557
1482 9938
1482 9939
1483 3645
1483 9938
1483 9940
1483 9941
1484 81
1484 954
1484 1043
1484 2243
1484 3963
1484 6257
1484 9942
1484 9943
1484 9944
1484 9945
1485 34
1485 958
1485 3753
1485 4149
1485 6516
1485 9946
1485 9947
1485 9948
1485 9949
1485 10454
1486 1025
1486 4379
1486 4388
1486 5257
1486 7953
1486 8653
1486 9344
1486 9950
1486 9951
1486 9952
1487 41
1487 46
1487 57
1487 59
1487 67
1487 660
1487 1459
1487 1575
1487 4083
1487 4085
1487 4188
1487 4189
1487 5393
1487 5394
1487 9110
1487 9233
1487 9870
1487 9953
1487 9954
1487 9955
1488 1186
1488 1233
1488 1356
1488 1828
1488 1837
1488 2303
1488 2358
1488 3261
1488 3336
1488 3634
1488 4099
1488 4356
1488 4998
1488 5215
1488 5678
1488 9956
1488 9957
1488 9958
1488 9959
1488 9960
1489 45
1489 2268
1489 3146
1489 3407
1489 3501
1489 3921
1489 4155
1489 4164
1489 6238
1489 9961
1490 446
1490 884
1490 1722
1490 1990
1490 2036
1490 4773
1490 4907
1490 7886
1490 8254
1490 9962
1491 17
1491 288
1491 312
1491 680
1491 1058
1491 1331
1491 1344
1491 1590
1491 1724
1491 2055
1491 2217
1491 2239
1491 2298
1491 2756
1491 2910
1491 3107
1491 3875
1491 4141
1491 4809
1491 4941
1491 5018
1491 8372
1491 8602
1491 9009
1492 9963
1492 9964
1492 9965
1493 2052
1493 2240
1493 2296
1493 2536
1493 4036
1493 4038
1493 4452
1493 9966
1493 9967
1493 9968
1493 9969
1494 614
1494 1245
1494 2286
1494 2500
1494 6772
1494 8594
1494 8806
1494 9970
1494 9971
1494 9972
1494 9973
1495 30
1495 54
1495 68
1495 333
1495 587
1495 802
1495 1184
1495 1227
1495 1521
1495 2469
1495 3178
1495 3179
1495 3438
1495 3479
1495 3796
1495 4368
1495 4679
1495 4802
1495 4869
1495 5885
1495 9974
1496 33
1496 52
1496 185
1496 321
1496 804
1496 1508
1496 1695
1496 2622
1496 3721
1496 3748
1496 3751
1496 3971
1496 4778
1496 5099
1496 5219
1496 5733
1496 6095
1496 6619
1496 7546
1496 7826
1496 9975
1497 70
1497 408
1497 441
1497 2147
1497 3662
1497 3821
1497 5219
1497 5625
1497 6118
1497 9976
1497 9977
1498 2110
1498 3588
1498 7225
1498 8432
1498 8433
1498 8558
1498 9978
1498 9979
1499 939
1499 2926
1499 6612
1499 8432
1499 8433
1499 8460
1499 9980
1500 12
1500 50
1500 70
1500 163
1500 834
1500 1122
1500 1243
1500 3203
1500 3426
1500 3631
1500 3636
1500 3789
1500 4274
1500 5593
1500 7197
1500 9981
1500 9982
1501 80
1501 435
1501 465
1501 954
1501 1164
1501 1314
1501 2292
1501 3186
1501 4547
1501 6874
1501 6994
1501 7490
1501 7493
1501 7695
1501 9477
1501 9983
1501 9984
1502 324
1502 404
1502 426
1502 1242
1502 1447
1502 1570
1502 2328
1502 2525
1502 3203
1502 3619
1502 5589
1502 5774
1502 8158
1502 9044
1502 9402
1502 9985
1502 9986
1503 73
1503 1194
1503 2066
1503 2441
1503 3126
1503 3130
1503 3428
1503 4952
1503 5119
1503 5121
1503 8906
1503 8909
1503 9247
1503 9987
1503 9988
1503 9989
1503 10268
1504 1266
1504 2019
1504 9990
1504 9991
1505 31
1505 76
1505 171
1505 190
1505 1111
1505 1120
1505 1186
1505 1569
1505 1739
1505 2755
1505 3634
1505 3771
1505 3842
1505 3892
1505 5607
1505 9230
1505 9958
1505 9992
1505 9993
1506 70
1506 188
1506 264
1506 436
1506 737
1506 1231
1506 1243
1506 1345
1506 2720
1506 2745
1506 3440
1506 3548
1506 5142
1506 5173
1506 5969
1506 7253
1506 9215
1506 9994
1506 9995
1507 33
1507 53
1507 185
1507 463
1507 536
1507 629
1507 973
1507 1169
1507 1827
1507 3349
1507 3430
1507 3621
1507 3623
1507 3721
1507 4412
1507 4781
1507 4790
1507 6047
1507 7006
1507 8249
1507 9300
1507 9996
1507 9997
1508 64
1508 86
1508 321
1508 442
1508 929
1508 1496
1508 2911
1508 3079
1508 3638
1508 3747
1508 3749
1508 3751
1508 4790
1508 5000
1508 5603
1508 5604
1508 6095
1508 6099
1508 8055
1508 9975
1508 9998
1508 9999
1508 10000
1509 80
1509 861
1509 2291
1509 3423
1509 4073
1509 7784
1509 8938
1509 9800
1509 10001
1509 10002
1509 10003
1509 10004
1510 36
1510 57
1510 59
1510 67
1510 1030
1510 1195
1510 1760
1510 3252
1510 4088
1510 5457
1510 9669
1510 10005
1510 10006
1511 38
1511 50
1511 1119
1511 1168
1511 1400
1511 1741
1511 4150
1511 6358
1511 6432
1511 8906
1511 9213
1511 10007
1511 10008
1512 80
1512 484
1512 694
1512 901
1512 916
1512 1010
1512 1551
1512 1811
1512 2522
1512 7407
1512 9800
1512 10009
1512 10010
1513 1380
1513 5374
1513 6257
1513 9917
1513 10011
1513 10012
1513 10013
1513 10014
1513 10361
1514 974
1514 1717
1514 3521
1514 3742
1514 3935
1514 5582
1514 5584
1514 5758
1514 5908
1514 7499
1514 8252
1514 8257
1514 10015
1514 10016
1514 10017
1514 10018
1514 10019
1515 79
1515 421
1515 755
1515 4111
1515 4693
1515 4765
1515 9362
1515 10020
1515 10021
1515 10022
1515 10023
1515 10024
1516 2298
1516 3973
1516 4294
1516 5364
1516 8091
1516 8150
1516 8570
1516 8611
1516 10025
1516 10026
1516 10027
1516 10028
1517 410
1517 4880
1517 5305
1517 6600
1517 8213
1517 8214
1517 9391
1517 10029
1517 10030
1517 10031
1518 21
1518 51
1518 80
1518 81
1518 3530
1518 4138
1518 4746
1518 4760
1518 4813
1518 5266
1518 5437
1518 5438
1518 5740
1518 6136
1518 8681
1518 8880
1518 9002
1518 10032
1518 10033
1518 10034
1518 10035
1519 25
1519 28
1519 41
1519 47
1519 421
1519 716
1519 2467
1519 2640
1519 2956
1519 2988
1519 3415
1519 4188
1519 4189
1519 5057
1519 10036
1519 10037
1520 665
1520 756
1520 839
1520 1093
1520 3061
1520 3353
1520 3393
1520 3475
1520 3639
1520 3726
1520 3940
1520 6988
1520 6990
1520 6991
1520 10038
1520 10039
1521 53
1521 60
1521 93
1521 115
1521 190
1521 200
1521 246
1521 309
1521 337
1521 472
1521 564
1521 752
1521 775
1521 777
1521 802
1521 930
1521 938
1521 1110
1521 1139
1521 1163
1521 1247
1521 1495
1521 1549
1521 1619
1521 1879
1521 2143
1521 2339
1521 2469
1521 2656
1521 2752
1521 2797
1521 2805
1521 2849
1521 3345
1521 9721
1522 2698
1522 3484
1522 4475
1522 4671
1522 5059
1522 5126
1522 5935
1522 7230
1522 8856
1522 9142
1522 10040
1522 10041
1522 10042
1523 69
1523 71
1523 81
1523 1750
1523 7220
1523 9418
1523 10043
1524 69
1524 81
1524 1750
1524 7220
1524 8128
1524 9418
1524 10044
1525 13
1525 1783
1525 6976
1525 7687
1525 8757
1525 10045
1525 10046
1525 10047
1525 10048
1525 10049
1525 10050
1525 10734
1526 2405
1526 2555
1526 3055
1526 3518
1526 3713
1526 5344
1526 10051
1526 10052
1526 10053
1526 10054
1527 10060
1527 10061
1527 12900
1528 642
1528 1228
1528 10064
1528 10065
1528 11228
1529 2444
1529 2727
1529 6413
1529 6418
1529 9154
1529 10066
1529 10067
1529 10068
1530 27
1530 613
1530 3852
1530 6769
1530 7874
1530 8399
1530 10069
1530 10070
1530 10071
1531 46
1531 49
1531 333
1531 1033
1531 1372
1531 2256
1531 2268
1531 3031
1531 3327
1531 3382
1531 3971
1531 4678
1531 5402
1531 6538
1531 7529
1531 9105
1531 10072
1531 10073
1531 10074
1531 10075
1532 351
1532 1618
1532 2947
1532 9345
1532 10076
1532 10077
1533 33
1533 75
1533 185
1533 248
1533 601
1533 690
1533 1353
1533 2648
1533 3614
1533 3618
1533 3619
1533 3625
1533 3809
1533 3971
1533 4164
1533 4619
1533 5498
1533 5726
1533 5729
1533 5774
1533 6599
1533 10078
1533 10079
1533 10080
1534 259
1534 336
1534 801
1534 945
1534 1705
1534 2616
1534 2634
1534 2643
1534 3909
1534 3913
1534 4649
1534 4874
1534 5105
1534 5106
1534 5108
1534 5611
1534 6695
1534 7149
1534 7377
1534 8295
1534 8894
1534 9707
1534 10081
1534 10082
1534 10083
1535 407
1535 801
1535 945
1535 1104
1535 1292
1535 1705
1535 3910
1535 3915
1535 4101
1535 4648
1535 4649
1535 5106
1535 5107
1535 5109
1535 5113
1535 5557
1535 5611
1535 6594
1535 10084
1535 10085
1535 10086
1535 10408
1536 1355
1536 2887
1536 3674
1536 5027
1536 8350
1536 10087
1537 1391
1537 1899
1537 9166
1537 10088
1537 10089
1538 938
1538 1268
1538 1855
1538 2645
1538 3620
1538 4359
1538 6046
1538 6047
1538 6988
1538 10090
1538 10091
1538 10092
1539 51
1539 80
1539 81
1539 465
1539 724
1539 4386
1539 4520
1539 6581
1539 8616
1539 10093
1539 10094
1539 10095
1540 2186
1540 4195
1540 4921
1540 6452
1540 7150
1540 7393
1540 10096
1540 10097
1540 10098
1540 10099
1540 10100
1540 10404
1541 37
1541 46
1541 295
1541 364
1541 455
1541 1367
1541 3856
1541 4456
1541 4459
1541 4568
1541 4664
1541 4848
1541 4849
1541 4850
1541 4928
1541 4929
1541 5328
1541 6081
1541 10101
1542 1010
1542 1669
1542 2325
1542 4700
1542 4709
1542 5197
1542 5565
1542 6223
1542 7431
1542 8412
1542 9442
1542 9537
1542 10102
1542 10103
1542 10104
1542 10105
1542 10106
1542 10235
1542 10428
1543 80
1543 243
1543 887
1543 1413
1543 1704
1543 2380
1543 5258
1543 7202
1543 7795
1543 7806
1543 7808
1543 7903
1543 8122
1543 8282
1543 9754
1543 10107
1543 10108
1543 10109
1543 10110
1543 11711
1544 1047
1544 3579
1544 3830
1544 4055
1544 4328
1544 5707
1544 6830
1544 6886
1544 6887
1544 10111
1544 10112
1545 698
1545 1721
1545 2232
1545 3083
1545 4232
1545 4422
1545 7116
1545 7118
1545 10113
1545 10114
1545 10115
1546 2320
1546 4547
1546 5706
1546 5707
1546 6440
1546 7318
1546 8315
1546 10112
1546 10116
1546 10117
1546 11571
1547 849
1547 888
1547 941
1547 1288
1547 1331
1547 3323
1547 7720
1547 9513
1547 10118
1548 1560
1548 4124
1548 7415
1548 8500
1548 10112
1548 10119
1548 10120
1548 10121
1548 10122
1548 10152
1549 30
1549 49
1549 58
1549 471
1549 1032
1549 1162
1549 1521
1549 1673
1549 3391
1549 3435
1549 3624
1549 5619
1549 5773
1549 5878
1549 6123
1549 9016
1549 10123
1550 102
1550 321
1550 380
1550 1739
1550 2358
1550 2973
1550 3546
1550 3749
1550 3781
1550 3842
1550 4151
1550 5002
1550 5004
1550 5044
1550 5045
1550 5186
1550 6811
1550 7707
1550 7764
1550 8629
1550 10124
1550 10125
1550 10126
1551 229
1551 397
1551 500
1551 541
1551 916
1551 1002
1551 1006
1551 1010
1551 1512
1551 1781
1551 2520
1551 2690
1551 4494
1551 7407
1551 8375
1551 10009
1551 10127
1551 10128
1551 10129
1551 10130
1551 10131
1551 10132
1551 12304
1552 62
1552 77
1552 345
1552 548
1552 1067
1552 1114
1552 2793
1552 3403
1552 3404
1552 3498
1552 3656
1552 3660
1552 3777
1552 3925
1552 6429
1552 6487
1552 6492
1552 6656
1552 10058
1552 10133
1552 10134
1552 10135
1552 10136
1553 233
1553 1164
1553 5342
1553 5508
1553 8095
1553 10137
1554 2421
1554 2575
1554 3092
1554 4344
1554 6444
1554 10138
1555 35
1555 81
1555 755
1555 1265
1555 2228
1555 3167
1555 8336
1555 8426
1555 10139
1555 10140
1556 75
1556 184
1556 668
1556 2951
1556 3125
1556 3615
1556 4143
1556 10141
1556 10142
1556 10143
1557 1630
1557 3522
1557 4655
1557 6542
1557 10144
1557 10145
1557 10146
1558 4200
1558 7805
1558 8984
1558 9205
1558 10147
1558 10148
1558 10203
1559 1074
1559 8515
1559 10149
1559 10150
1559 10151
1560 168
1560 976
1560 1035
1560 1152
1560 1473
1560 1479
1560 1548
1560 1694
1560 1810
1560 2563
1560 2564
1560 2890
1560 3265
1560 10152
1561 52
1561 283
1561 442
1561 475
1561 585
1561 1655
1561 1695
1561 2358
1561 3278
1561 3638
1561 3749
1561 3868
1561 5349
1561 9975
1562 32
1562 40
1562 1472
1562 1475
1562 1894
1562 3273
1562 3782
1562 4100
1562 4529
1562 4951
1562 4958
1562 4990
1562 7923
1562 9057
1563 3839
1563 4977
1563 5563
1563 6986
1563 7382
1563 9638
1563 10153
1563 10154
1563 10155
1563 10156
1564 4014
1564 4016
1564 4897
1564 4947
1564 5235
1564 9652
1564 10157
1564 10158
1564 10159
1564 10160
1565 6255
1565 8702
1565 10161
1565 10162
1566 48
1566 73
1566 1031
1566 4143
1566 4247
1566 4258
1566 5004
1566 5326
1566 6145
1566 7251
1566 9467
1566 10163
1567 47
1567 764
1567 1041
1567 2549
1567 3412
1567 4118
1567 5551
1567 5805
1567 7087
1567 9966
1567 10164
1567 10165
1568 19
1568 56
1568 79
1568 481
1568 486
1568 1176
1568 1437
1568 2678
1568 2928
1568 3592
1568 4610
1568 5072
1568 6949
1568 7333
1568 9281
1568 10166
1568 10167
1568 10629
1569 76
1569 174
1569 1120
1569 1505
1569 3719
1569 4166
1569 4170
1569 4790
1569 4998
1569 5104
1569 5810
1569 5862
1569 6854
1569 6988
1569 7101
1569 10168
1569 10169
1569 11970
1570 206
1570 321
1570 323
1570 874
1570 1167
1570 1168
1570 1242
1570 1502
1570 1785
1570 3920
1570 3971
1570 4070
1570 4359
1570 4953
1570 6812
1570 6988
1570 10170
1570 10171
1570 10172
1571 80
1571 122
1571 842
1571 1314
1571 1765
1571 2164
1571 3850
1571 4807
1571 5150
1571 5152
1571 5153
1571 5954
1571 6003
1571 6759
1571 7715
1571 8377
1571 9748
1571 10173
1571 10174
1572 79
1572 636
1572 1219
1572 3591
1572 5352
1572 5803
1572 6612
1572 6951
1572 8949
1572 9268
1572 10175
1572 10176
1573 431
1573 798
1573 982
1573 2176
1573 3940
1573 5990
1573 6735
1573 7515
1573 8794
1573 10177
1573 10178
1573 10179
1574 4021
1574 4701
1574 4706
1574 5235
1574 8480
1574 8607
1574 8609
1574 8613
1574 10180
1574 10181
1574 10182
1574 10183
1575 159
1575 331
1575 332
1575 381
1575 459
1575 466
1575 685
1575 730
1575 870
1575 1157
1575 1487
1575 1830
1575 1831
1575 2014
1575 2882
1575 3178
1575 3179
1575 3453
1575 3462
1575 4083
1575 4084
1575 4085
1575 5060
1575 5450
1575 5456
1575 7818
1576 10185
1576 10186
1576 10187
1576 10188
1576 11007
1576 11042
1576 12919
1577 487
1577 6190
1577 10189
1577 10190
1578 1237
1578 1250
1578 2406
1578 9249
1578 9250
1578 9251
1579 10
1579 1023
1579 2947
1579 5057
1579 6028
1579 10191
1580 6406
1580 7466
1580 10160
1580 10192
1580 10193
1580 10194
1581 80
1581 240
1581 1314
1581 1315
1581 2460
1581 2655
1581 5153
1581 5836
1581 10195
1581 10196
1581 10197
1581 10198
1581 10199
1581 10648
1582 1156
1582 4201
1582 5376
1582 5993
1582 6222
1582 6375
1582 6464
1582 9366
1582 10200
1582 10201
1582 10202
1582 10203
1582 10204
1582 11485
1583 5197
1583 6222
1583 7426
1583 10205
1583 10206
1583 10207
1584 3984
1584 9841
1584 10208
1584 10209
1584 10210
1584 10211
1584 10212
1585 51
1585 3529
1585 4749
1585 4750
1585 4751
1585 4753
1585 4754
1585 5295
1585 5296
1585 5336
1585 5587
1585 5764
1585 5766
1585 5896
1585 5949
1585 6142
1585 6143
1585 7895
1585 7896
1585 7924
1585 8510
1585 8683
1585 10213
1585 10214
1585 10215
1586 61
1586 2892
1586 6954
1586 10216
1587 475
1587 1138
1587 1631
1587 2303
1587 3211
1587 3620
1587 3645
1587 4787
1587 5965
1587 6047
1587 6358
1587 10217
1587 10218
1587 10219
1588 523
1588 900
1588 1718
1588 2410
1588 2992
1588 5083
1588 5086
1588 5091
1588 7450
1588 9139
1588 10220
1588 10221
1588 10222
1588 10223
1589 21
1589 968
1589 1113
1589 4440
1589 4878
1589 5303
1589 5428
1589 5433
1589 5979
1589 8827
1589 8828
1589 10224
1589 10225
1590 17
1590 732
1590 1491
1590 1724
1590 2035
1590 2298
1590 2409
1590 3065
1590 3107
1590 10226
1590 10227
1591 56
1591 79
1591 1176
1591 1207
1591 1219
1591 1419
1591 3862
1591 4225
1591 5139
1591 5864
1591 10228
1592 27
1592 3759
1592 3760
1592 3765
1592 3850
1592 3852
1592 4134
1592 4805
1592 10229
1592 10230
1593 775
1593 1170
1593 1184
1593 1601
1593 1887
1593 2935
1593 3443
1593 3444
1593 4367
1593 4592
1593 4597
1593 5538
1593 9084
1593 10231
1593 10232
1594 1010
1594 1396
1594 1802
1594 1848
1594 2415
1594 2633
1594 3916
1594 6195
1594 7311
1594 7893
1594 9385
1594 9708
1594 10233
1594 10234
1594 10235
1595 921
1595 1125
1595 2084
1595 2498
1595 2649
1595 3065
1595 4192
1595 6327
1595 7441
1595 10236
1595 10237
1595 10238
1595 10239
1595 10240
1596 632
1596 1618
1596 2237
1596 3687
1596 3688
1596 3908
1596 4377
1596 8554
1596 10241
1596 10242
1596 10243
1596 11701
1597 1599
1597 4075
1597 4712
1597 5193
1597 5987
1597 6771
1597 8026
1597 9318
1597 10244
1597 10245
1597 10430
1598 604
1598 897
1598 2075
1598 10246
1598 10247
1599 1597
1599 4075
1599 10244
1599 10248
1599 10249
1600 2412
1600 8918
1600 10250
1600 10251
1600 10692
1601 49
1601 587
1601 1142
1601 1170
1601 1593
1601 2501
1601 2632
1601 2839
1601 2966
1601 3439
1601 3446
1601 3645
1601 4369
1601 5060
1601 7766
1601 10252
1601 10253
1601 11377
1602 33
1602 463
1602 668
1602 924
1602 1119
1602 1695
1602 2622
1602 3089
1602 3350
1602 3721
1602 4558
1602 4559
1602 4560
1602 4562
1602 4563
1602 4564
1602 7056
1602 7209
1602 9041
1602 10254
1602 10255
1602 10256
1603 9352
1603 12906
1604 56
1604 79
1604 1176
1604 3741
1604 10258
1604 10259
1605 5361
1605 6950
1605 7352
1605 10260
1605 10261
1605 10262
1606 47
1606 499
1606 1627
1606 1747
1606 1939
1606 2414
1606 2543
1606 2719
1606 3012
1606 3218
1606 3331
1606 3412
1606 8494
1606 9348
1606 10263
1606 10264
1606 10265
1607 24
1607 34
1607 58
1607 63
1607 1079
1607 2685
1607 3198
1607 3515
1607 3623
1607 4298
1607 4618
1607 4792
1607 5171
1607 5439
1607 6105
1607 10218
1607 10266
1608 949
1608 1749
1608 1867
1608 2168
1608 2208
1608 2487
1608 2562
1608 2988
1608 4602
1608 5971
1608 6121
1608 9206
1608 10267
1608 10268
1608 10269
1608 10270
1608 10271
1609 779
1609 1194
1609 1923
1609 3789
1609 4925
1609 7251
1609 9022
1609 10272
1609 10273
1609 10274
1610 79
1610 1176
1610 3688
1610 3689
1610 3902
1610 5950
1610 10275
1610 10276
1610 10277
1611 10
1611 2640
1611 3770
1611 4233
1611 7332
1611 10278
1611 10279
1611 10280
1612 3511
1612 5314
1612 9530
1612 9531
1612 10281
1612 10282
1612 10283
1613 1411
1613 4496
1613 10284
1613 10285
1614 10192
1614 10193
1614 10286
1614 10287
1615 321
1615 3749
1615 3751
1615 3971
1615 4602
1615 4957
1615 6099
1615 7763
1615 7767
1615 10288
1615 10289
1615 10290
1616 652
1616 1646
1616 6923
1616 10291
1616 10292
1617 6
1617 47
1617 194
1617 313
1617 384
1617 873
1617 1041
1617 1708
1617 1985
1617 2240
1617 2257
1617 2308
1617 2375
1617 2537
1617 2893
1617 2985
1617 3218
1617 3729
1617 3732
1617 4039
1617 4108
1617 4115
1617 4335
1617 4765
1617 5474
1617 5476
1617 5477
1617 6496
1617 7344
1617 9966
1617 10293
1617 10294
1617 11140
1617 11483
1617 11900
1618 242
1618 262
1618 268
1618 339
1618 356
1618 387
1618 409
1618 423
1618 455
1618 481
1618 679
1618 843
1618 884
1618 892
1618 920
1618 1041
1618 1280
1618 1328
1618 1371
1618 1455
1618 1532
1618 1596
1618 1672
1618 1682
1618 1801
1618 1900
1618 1967
1618 2060
1618 2242
1618 2452
1618 2453
1618 2461
1618 2598
1618 2629
1618 2967
1618 2989
1618 2994
1618 3136
1618 3225
1618 6415
1618 10295
1618 10296
1619 16
1619 18
1619 32
1619 48
1619 50
1619 58
1619 63
1619 337
1619 496
1619 731
1619 752
1619 938
1619 1110
1619 1139
1619 1194
1619 1400
1619 1521
1619 1652
1619 1887
1619 2034
1619 2094
1619 2190
1619 2303
1619 2328
1619 2797
1619 2849
1619 3184
1619 3203
1619 3345
1619 3373
1619 3391
1619 3426
1619 3479
1619 3791
1619 3895
1619 4279
1619 4353
1619 4592
1619 4925
1619 8098
1619 8815
1619 10297
1620 13
1620 662
1620 742
1620 4197
1620 5376
1620 7264
1620 7297
1620 7298
1620 9509
1620 10298
1620 10299
1620 10300
1620 10301
1621 78
1621 1747
1621 2174
1621 2467
1621 2537
1621 2549
1621 2700
1621 2956
1621 3414
1621 3449
1621 3452
1621 6496
1621 6790
1621 8323
1621 8523
1621 10164
1621 10280
1621 10302
1622 4048
1622 4910
1622 5512
1622 8523
1622 9006
1622 10303
1622 10304
1622 10305
1623 3883
1623 4525
1623 10306
1623 10307
1624 17
1624 1473
1624 2852
1624 8065
1624 9914
1624 9915
1624 10308
1624 10309
1624 10310
1624 11726
1624 11871
1625 80
1625 4388
1625 4415
1625 4610
1625 6581
1625 7953
1625 10311
1625 10312
1626 2052
1626 3532
1626 4047
1626 4048
1626 6823
1626 6825
1626 8668
1626 10313
1627 1060
1627 1606
1627 1740
1627 2030
1627 3218
1627 3412
1627 3672
1627 6214
1627 6790
1627 10314
1627 10315
1627 10316
1628 1233
1628 2095
1628 3347
1628 3893
1628 4601
1628 4793
1628 6091
1628 6106
1628 6109
1628 9246
1628 10317
1628 10318
1629 793
1629 881
1629 1328
1629 2182
1629 2210
1629 4202
1629 6703
1629 9111
1629 10319
1629 10320
1629 10321
1630 1557
1630 4031
1630 5990
1630 5993
1630 6216
1630 8982
1630 8992
1630 10322
1630 10323
1630 10324
1631 1172
1631 1587
1631 3285
1631 3925
1631 3926
1631 4224
1631 5600
1631 7839
1631 8083
1631 9049
1631 10325
1631 10326
1631 10327
1631 10328
1631 10329
1631 10330
1632 628
1632 2708
1632 3884
1632 6829
1632 6834
1632 6835
1632 10331
1632 10332
1632 10333
1632 10334
1632 10335
1632 10379
1633 9209
1633 10336
1633 10337
1633 10338
1633 11354
1634 1826
1634 2191
1634 3368
1634 4308
1634 4311
1634 4559
1634 5006
1634 5659
1634 7154
1634 8959
1634 9997
1634 10339
1634 10340
1635 493
1635 6503
1635 6902
1635 9443
1635 10341
1635 10342
1636 1661
1636 4974
1636 4979
1636 7264
1636 8865
1636 9894
1636 10343
1636 10344
1636 10345
1636 10346
1636 10347
1637 2927
1637 4557
1637 6616
1637 6619
1637 8705
1637 9102
1637 9231
1637 10143
1637 10348
1637 10349
1637 10350
1638 103
1638 234
1638 416
1638 805
1638 1309
1638 1710
1638 1718
1638 2156
1638 2764
1638 9465
1638 10351
1639 129
1639 167
1639 294
1639 394
1639 949
1639 2279
1639 2544
1639 5535
1639 5536
1639 5537
1639 10352
1640 60
1640 333
1640 353
1640 467
1640 472
1640 564
1640 739
1640 802
1640 967
1640 1110
1640 1184
1640 1291
1640 1372
1640 1482
1640 2341
1640 2352
1640 3288
1640 9211
1641 43
1641 63
1641 92
1641 740
1641 1079
1641 1171
1641 1194
1641 1445
1641 2118
1641 2324
1641 3125
1641 3348
1641 3624
1641 3726
1641 3784
1641 4925
1641 9589
1641 10353
1642 411
1642 661
1642 668
1642 2151
1642 3868
1642 4155
1642 4161
1642 4164
1642 5224
1642 6972
1642 10354
1642 10355
1643 2690
1643 3583
1643 5153
1643 7112
1643 7357
1643 10356
1643 10357
1643 10358
1643 10359
1643 12351
1644 694
1644 2353
1644 5552
1644 7784
1644 10002
1644 10003
1644 10360
1644 10361
1644 10362
1645 22
1645 71
1645 79
1645 80
1645 81
1645 465
1645 3600
1645 4389
1645 4469
1645 5865
1645 8381
1645 8383
1645 10363
1645 10364
1645 10504
1646 652
1646 1616
1646 6923
1646 10365
1646 10366
1646 10367
1647 7746
1647 10368
1647 10369
1647 10370
1647 10371
1647 10372
1648 474
1648 1135
1648 1311
1648 1357
1648 2303
1648 2843
1648 2951
1648 3261
1648 3349
1648 4778
1648 8581
1648 9259
1648 10350
1648 10373
1648 10374
1649 320
1649 1856
1649 3083
1649 3945
1649 3961
1649 3963
1649 4943
1649 5235
1649 5951
1649 8455
1649 10375
1649 10376
1649 10377
1649 10378
1650 80
1650 435
1650 628
1650 3830
1650 6829
1650 6830
1650 6834
1650 6994
1650 7262
1650 8965
1650 10379
1650 10380
1650 10381
1650 10382
1651 30
1651 70
1651 263
1651 1110
1651 1184
1651 3345
1651 3390
1651 3482
1651 3487
1651 3796
1651 4830
1651 5216
1651 6235
1651 10074
1651 10383
1651 10384
1652 1110
1652 1619
1652 2830
1652 3273
1652 3390
1652 3479
1652 3869
1652 4557
1652 6235
1652 6237
1652 6616
1652 6619
1652 6946
1652 7339
1652 10348
1652 10385
1653 57
1653 59
1653 67
1653 331
1653 878
1653 1195
1653 1760
1653 3090
1653 3956
1653 4569
1653 5058
1653 5778
1653 7859
1653 7948
1653 9653
1653 10386
1654 131
1654 1259
1654 2634
1654 5902
1654 5987
1654 6223
1654 7430
1654 8981
1654 9318
1654 9320
1654 10249
1654 10387
1654 10388
1654 10389
1655 33
1655 52
1655 283
1655 474
1655 475
1655 585
1655 822
1655 903
1655 1120
1655 1561
1655 1695
1655 2377
1655 2817
1655 3397
1655 3720
1655 4152
1655 6152
1655 6428
1655 6553
1655 6930
1655 7823
1655 9724
1655 10255
1655 10390
1655 10391
1656 43
1656 64
1656 238
1656 702
1656 776
1656 1185
1656 2068
1656 2259
1656 3020
1656 3223
1656 3371
1656 3372
1656 3804
1656 3811
1656 4261
1656 4594
1656 5145
1656 5404
1656 6437
1656 6482
1656 7051
1656 7420
1656 9905
1656 10392
1656 10393
1657 80
1657 1684
1657 2763
1657 3825
1657 3826
1657 3829
1657 3937
1657 4122
1657 4846
1657 6315
1657 6935
1657 6994
1657 7683
1657 7692
1657 9597
1657 10394
1657 10395
1657 10396
1657 10397
1657 10398
1658 4482
1658 10399
1658 10400
1658 10401
1659 80
1659 4482
1659 6326
1659 6452
1659 10400
1659 10402
1659 10403
1659 10404
1660 302
1660 3673
1660 4215
1660 4417
1660 4608
1660 4885
1660 6531
1660 10405
1660 10406
1661 336
1661 569
1661 682
1661 1124
1661 1248
1661 1636
1661 1675
1661 3913
1661 4434
1661 4649
1661 5106
1661 5559
1661 5901
1661 5986
1661 5990
1661 5993
1661 6216
1661 6592
1661 6593
1661 6956
1661 7264
1661 7298
1661 8147
1661 8795
1661 10345
1661 10407
1661 10408
1662 25
1662 41
1662 46
1662 242
1662 331
1662 712
1662 1702
1662 2128
1662 2267
1662 2799
1662 2945
1662 3366
1662 5037
1662 5828
1662 6968
1662 7946
1662 10409
1662 10410
1663 53
1663 171
1663 1135
1663 1739
1663 1791
1663 2252
1663 2837
1663 3211
1663 3321
1663 3620
1663 3719
1663 3842
1663 8581
1663 9230
1663 9470
1663 10411
1663 10412
1663 10678
1664 5750
1664 10416
1664 12927
1665 3977
1665 9446
1665 10415
1666 423
1666 3335
1666 10416
1666 10417
1666 10418
1666 10419
1667 39
1667 296
1667 324
1667 1250
1667 3663
1667 4276
1667 4280
1667 4305
1667 4955
1667 4971
1667 5444
1667 7632
1667 8548
1667 10420
1667 10421
1667 10422
1667 10423
1667 11135
1668 1264
1668 10424
1668 10425
1669 431
1669 885
1669 1542
1669 2568
1669 4709
1669 5197
1669 6498
1669 6693
1669 6771
1669 7428
1669 7431
1669 7494
1669 7893
1669 9538
1669 9707
1669 10426
1669 10427
1669 10428
1669 10429
1670 454
1670 532
1670 2090
1670 2578
1670 4712
1670 5193
1670 5986
1670 5989
1670 6216
1670 6217
1670 6223
1670 9937
1670 10207
1670 10427
1670 10430
1670 10431
1670 10432
1670 10433
1671 1775
1671 5961
1671 7112
1671 9796
1671 10434
1671 10435
1672 1618
1672 5375
1672 8497
1672 8710
1672 10427
1672 10436
1673 18
1673 24
1673 30
1673 58
1673 63
1673 75
1673 441
1673 470
1673 629
1673 1549
1673 2147
1673 2973
1673 3198
1673 3203
1673 3355
1673 3391
1673 3428
1673 3620
1673 4356
1673 5169
1673 5171
1673 5619
1673 5625
1673 5628
1673 5878
1673 6042
1673 6050
1673 6105
1673 9060
1673 10437
1674 31
1674 52
1674 63
1674 107
1674 185
1674 405
1674 413
1674 461
1674 463
1674 474
1674 475
1674 585
1674 804
1674 1138
1674 1183
1674 1254
1674 1311
1674 1383
1674 2127
1674 2151
1674 2760
1674 2798
1674 3084
1674 3294
1674 3432
1674 3624
1674 3625
1674 3807
1674 3870
1674 4152
1674 4466
1674 5221
1674 5224
1674 5350
1674 5657
1674 5660
1675 259
1675 300
1675 336
1675 346
1675 399
1675 407
1675 444
1675 588
1675 753
1675 801
1675 945
1675 1104
1675 1130
1675 1248
1675 1469
1675 1661
1675 1705
1675 1803
1675 2643
1675 3910
1675 3913
1675 4101
1675 4649
1675 5105
1675 5106
1675 5107
1675 5109
1675 5110
1675 5111
1675 5113
1675 5611
1675 5613
1675 5615
1675 5898
1675 6169
1676 4018
1676 5231
1676 7744
1676 10438
1676 10439
1677 185
1677 248
1677 690
1677 3614
1677 3971
1677 4617
1677 4789
1677 4791
1677 6970
1677 10440
1677 10441
1677 10442
1677 10701
1678 98
1678 779
1678 925
1678 1939
1678 2179
1678 2739
1678 3042
1678 3181
1678 3192
1678 3418
1678 7168
1678 7436
1678 7486
1678 10443
1678 10444
1679 68
1679 738
1679 1427
1679 1778
1679 2263
1679 2839
1679 3544
1679 3545
1679 3552
1679 7419
1679 10445
1679 10446
1679 10447
1679 10448
1679 10449
1680 6000
1680 6007
1680 10450
1681 52
1681 366
1681 3389
1681 3397
1681 3488
1681 5345
1681 5346
1681 10451
1681 10452
1681 10453
1681 10454
1682 920
1682 1618
1682 8034
1682 8035
1682 8036
1682 8037
1682 9411
1682 10357
1682 10455
1683 1134
1683 2282
1683 2381
1683 2444
1683 2536
1683 9432
1683 10456
1683 10457
1684 1657
1684 3829
1684 3937
1684 4846
1684 7692
1684 9597
1684 10398
1684 10458
1685 27
1685 397
1685 3850
1685 3852
1685 4494
1685 6776
1685 10459
1685 10460
1685 10461
1685 10462
1685 10952
1685 12280
1686 346
1686 5527
1686 5528
1686 7148
1686 7150
1686 7394
1686 7464
1686 8296
1686 10463
1686 10464
1686 10465
1686 10665
1687 80
1687 465
1687 5737
1687 5790
1687 10466
1687 10467
1688 71
1688 486
1688 1147
1688 2609
1688 2855
1688 5822
1688 10468
1688 10469
1688 10470
1688 11413
1689 4078
1689 4206
1689 4210
1689 4706
1689 4799
1689 5314
1689 6153
1689 9169
1689 10471
1689 10472
1690 117
1690 662
1690 3151
1690 3912
1690 3914
1690 9510
1690 10473
1691 354
1691 9344
1691 9897
1691 9898
1691 9952
1691 10474
1691 10475
1692 5370
1692 10476
1693 823
1693 1301
1693 2928
1693 3595
1693 4541
1693 6949
1693 9553
1693 10477
1694 1042
1694 1560
1694 4513
1694 5462
1694 6446
1694 6650
1694 8268
1694 10478
1695 94
1695 107
1695 163
1695 283
1695 285
1695 317
1695 335
1695 405
1695 411
1695 413
1695 461
1695 711
1695 872
1695 874
1695 1031
1695 1188
1695 1191
1695 1246
1695 1403
1695 1496
1695 1561
1695 1602
1695 1655
1695 1785
1695 1791
1695 1814
1695 2125
1695 2151
1695 2331
1695 2403
1695 2540
1695 2848
1695 3236
1695 10479
1696 290
1696 409
1696 676
1696 1318
1696 1386
1696 2417
1696 2601
1696 3572
1696 4820
1696 5630
1696 5721
1696 10480
1696 10481
1697 25
1697 37
1697 41
1697 46
1697 59
1697 79
1697 414
1697 3363
1697 3529
1697 6083
1697 6345
1697 9887
1697 10482
1698 6
1698 375
1698 1875
1698 2832
1698 3001
1698 3082
1698 3515
1698 3732
1698 4230
1698 5063
1698 7244
1698 10444
1698 10483
1699 11
1699 36
1699 37
1699 57
1699 59
1699 61
1699 67
1699 242
1699 1026
1699 1195
1699 1873
1699 2000
1699 3124
1699 3666
1699 3967
1699 4850
1699 4961
1699 4963
1699 5483
1699 6344
1699 7870
1699 10484
1699 10485
1699 10486
1700 58
1700 63
1700 335
1700 426
1700 468
1700 1346
1700 1734
1700 1841
1700 2066
1700 2558
1700 3197
1700 3624
1700 3636
1700 4241
1700 4253
1700 4303
1700 4993
1700 5673
1700 6041
1700 6116
1700 7287
1700 9895
1700 10487
1700 10488
1701 25
1701 56
1701 61
1701 79
1701 307
1701 381
1701 524
1701 679
1701 1137
1701 1176
1701 1177
1701 1804
1701 2672
1701 3366
1701 3468
1701 5036
1701 5451
1701 5453
1701 5827
1701 6345
1701 7037
1701 10489
1701 10490
1701 10491
1702 57
1702 59
1702 67
1702 78
1702 125
1702 660
1702 679
1702 1195
1702 1662
1702 1760
1702 2128
1702 2945
1702 3507
1702 4566
1702 5997
1703 35
1703 69
1703 81
1703 2435
1703 2796
1703 3674
1703 3677
1703 3902
1703 3907
1703 5950
1703 5956
1703 8130
1703 10276
1703 10492
1704 308
1704 719
1704 1543
1704 2482
1704 2633
1704 2689
1704 6195
1704 10096
1704 10097
1704 10234
1704 10245
1704 10493
1704 11643
1705 212
1705 259
1705 336
1705 407
1705 479
1705 594
1705 1130
1705 1248
1705 1292
1705 1534
1705 1535
1705 1675
1705 2616
1705 2643
1705 3333
1705 3915
1705 4646
1705 4650
1705 5559
1705 5903
1705 6594
1705 6695
1705 7525
1705 7526
1705 10494
1706 1317
1706 1343
1706 1707
1706 2383
1706 2556
1706 2742
1706 3002
1706 3056
1706 3063
1706 3487
1706 3792
1706 3986
1706 3991
1706 3992
1706 4278
1706 7710
1706 9555
1706 9742
1706 10495
1707 12
1707 73
1707 1194
1707 1706
1707 2189
1707 2752
1707 3066
1707 3126
1707 3130
1707 3795
1707 4532
1707 4952
1707 10496
1707 10497
1708 631
1708 691
1708 754
1708 873
1708 1097
1708 1617
1708 2030
1708 2537
1708 2985
1708 4336
1708 4931
1708 6495
1708 6497
1708 10498
1709 45
1709 62
1709 68
1709 119
1709 345
1709 458
1709 1018
1709 1067
1709 1235
1709 1952
1709 2185
1709 2268
1709 2449
1709 3031
1709 3341
1709 3501
1709 3647
1709 3648
1709 5848
1709 6665
1709 10499
1709 10500
1709 10501
1710 80
1710 81
1710 1638
1710 3675
1710 4813
1710 5023
1710 5165
1710 5865
1710 7674
1710 8686
1710 9582
1710 10502
1710 10503
1710 10504
1710 10505
1711 5379
1711 5380
1711 10506
1711 12925
1712 15
1712 61
1712 3598
1712 6953
1712 10510
1712 10511
1712 10512
1712 10513
1712 10514
1712 10515
1713 351
1713 1257
1713 3533
1713 8754
1713 9055
1713 9335
1713 10516
1713 10517
1713 10518
1713 10519
1714 170
1714 3248
1714 3562
1714 9747
1714 10520
1714 10521
1715 4289
1715 4644
1715 4978
1715 10522
1715 10523
1715 10524
1716 7468
1716 7469
1716 10525
1716 10526
1716 10527
1716 11020
1717 1049
1717 1514
1717 6999
1717 7002
1717 7456
1717 8568
1717 10208
1717 10528
1718 22
1718 465
1718 782
1718 1588
1718 1638
1718 2107
1718 2108
1718 2410
1718 2992
1718 5087
1718 5089
1718 5090
1718 5094
1718 7447
1718 7449
1718 7450
1718 8336
1719 2684
1719 7311
1719 8478
1719 10529
1719 10530
1720 1196
1720 1780
1720 10531
1720 10532
1720 10533
1721 209
1721 577
1721 698
1721 704
1721 1545
1721 1788
1721 2521
1721 2522
1721 2932
1721 2960
1721 3207
1721 3208
1721 4423
1721 4431
1721 10534
1721 10535
1721 10536
1721 10537
1722 307
1722 446
1722 755
1722 884
1722 1019
1722 1134
1722 1490
1722 1990
1722 2036
1722 2296
1722 2355
1722 4237
1722 4772
1722 4773
1722 4907
1722 10538
1722 10539
1722 10540
1723 156
1723 177
1723 614
1723 1106
1723 1396
1723 1846
1723 1848
1723 2009
1723 2157
1723 2482
1723 2689
1723 3047
1723 9610
1723 10097
1723 10541
1724 17
1724 20
1724 69
1724 1491
1724 1590
1724 2035
1724 2277
1724 3065
1724 3107
1724 5192
1724 8023
1724 8372
1724 10227
1724 10542
1724 10543
1725 46
1725 332
1725 526
1725 846
1725 3484
1725 5055
1725 5059
1725 5064
1725 5777
1725 5784
1725 6868
1725 7699
1725 8013
1725 10544
1725 10545
1726 624
1726 5958
1726 6814
1726 6816
1726 6817
1726 7397
1726 9557
1726 10546
1726 10547
1726 10548
1726 10549
1726 10550
1726 10644
1727 19
1727 56
1727 79
1727 239
1727 1121
1727 1176
1727 3592
1727 3599
1727 3602
1727 3692
1727 4206
1727 4207
1727 4208
1727 4223
1727 4226
1727 4385
1727 4795
1727 5236
1727 5795
1727 6304
1727 6712
1727 10551
1727 10552
1727 10553
1728 1025
1728 1329
1728 5257
1728 5977
1728 8076
1728 10554
1728 10555
1728 10556
1729 54
1729 68
1729 70
1729 344
1729 395
1729 470
1729 621
1729 737
1729 893
1729 1184
1729 1742
1729 2192
1729 2235
1729 2367
1729 2699
1729 2936
1729 2937
1729 3203
1729 3542
1729 3547
1729 3557
1729 3571
1729 9264
1729 10557
1729 10558
1729 10559
1730 71
1730 81
1730 638
1730 4880
1730 5033
1730 5423
1730 5682
1730 6600
1730 7773
1730 8212
1730 8308
1730 9132
1730 10560
1730 10561
1730 10562
1730 10563
1731 3830
1731 4327
1731 7123
1731 7124
1731 8073
1731 9598
1731 10564
1731 10565
1732 74
1732 3611
1732 5280
1732 5283
1732 7658
1732 8329
1732 9803
1732 10566
1732 10567
1732 10568
1733 4138
1733 10371
1733 10569
1734 75
1734 324
1734 405
1734 426
1734 586
1734 1083
1734 1132
1734 1445
1734 1700
1734 1858
1734 3620
1734 3664
1734 4241
1734 4303
1734 5625
1734 5628
1734 6743
1734 8248
1734 8903
1734 9833
1734 10570
1734 10571
1734 10572
1735 430
1735 3964
1735 9701
1735 10573
1735 10574
1735 10575
1736 3818
1736 4819
1736 7700
1736 8554
1736 10576
1736 10577
1737 2625
1737 4571
1737 5829
1737 10577
1737 10578
1737 10579
1737 10580
1737 10581
1737 10582
1737 10583
1738 1417
1738 3616
1738 3632
1738 3639
1738 3640
1738 3720
1738 3998
1738 5274
1738 5277
1738 5431
1738 6659
1738 6679
1738 7259
1738 9581
1738 10584
1738 10585
1738 10586
1738 10587
1738 10588
1739 53
1739 171
1739 1135
1739 1186
1739 1505
1739 1550
1739 1663
1739 1791
1739 1961
1739 2252
1739 2303
1739 2645
1739 2993
1739 3211
1739 3321
1739 4150
1739 4301
1740 78
1740 255
1740 1000
1740 1060
1740 1202
1740 1414
1740 1627
1740 2231
1740 2368
1740 2664
1740 2963
1740 3239
1740 4637
1740 8620
1740 10259
1740 10589
1740 10590
1741 48
1741 1031
1741 1133
1741 1168
1741 1511
1741 2504
1741 2637
1741 3337
1741 3348
1741 3350
1741 3795
1741 3842
1741 4263
1741 4958
1741 5646
1741 9665
1741 10591
1742 340
1742 344
1742 395
1742 548
1742 893
1742 1242
1742 1729
1742 2555
1742 2937
1742 3542
1742 3543
1742 3553
1742 3557
1742 3571
1742 4012
1742 5081
1742 9210
1742 10592
1742 10593
1742 10594
1743 43
1743 48
1743 64
1743 73
1743 547
1743 890
1743 1194
1743 1476
1743 1962
1743 3125
1743 3355
1743 3374
1743 3811
1743 4012
1743 4257
1743 4366
1743 6163
1743 6437
1743 6919
1743 7251
1743 8819
1743 10595
1744 643
1744 647
1744 1131
1744 1242
1744 1405
1744 2066
1744 3986
1744 6109
1744 8898
1744 8899
1744 9043
1744 10596
1744 10597
1745 22
1745 26
1745 81
1745 511
1745 2160
1745 2435
1745 4800
1745 4880
1745 5024
1745 6067
1745 6444
1745 8426
1745 10598
1746 17
1746 587
1746 1291
1746 2184
1746 2566
1746 2632
1746 2945
1746 3152
1746 4551
1746 5961
1746 7043
1746 7044
1746 7112
1746 10599
1747 78
1747 396
1747 986
1747 1606
1747 1621
1747 2467
1747 2956
1747 3413
1747 3671
1747 4092
1747 4096
1747 8047
1747 10600
1747 10601
1748 733
1748 3508
1748 3509
1748 3594
1748 3632
1748 3640
1748 3854
1748 4347
1748 5334
1748 5579
1748 6909
1748 7259
1748 7921
1748 8509
1748 10602
1748 10603
1748 10604
1749 944
1749 1608
1749 1865
1749 2233
1749 2834
1749 4151
1749 4315
1749 5971
1749 6539
1749 10270
1749 10329
1749 10605
1749 10606
1749 10607
1749 10608
1750 78
1750 162
1750 255
1750 1060
1750 1176
1750 1271
1750 1523
1750 1524
1750 2231
1750 2368
1750 2904
1750 3691
1750 6857
1750 10589
1750 10609
1750 10610
1751 631
1751 1122
1751 2254
1751 2478
1751 2864
1751 2938
1751 4039
1751 4336
1751 4341
1751 4932
1751 7503
1751 7510
1751 10611
1751 10612
1751 10613
1751 10614
1752 5537
1752 9773
1752 10615
1752 10616
1753 1178
1753 6830
1753 7472
1753 10082
1753 10617
1753 10618
1753 10619
1754 605
1754 1024
1754 6738
1754 8467
1754 10620
1755 3673
1755 4418
1755 6382
1755 6530
1755 6565
1755 8425
1755 10621
1755 10622
1755 10623
1755 10624
1755 10625
1756 61
1756 79
1756 5133
1756 5477
1756 6337
1756 10626
1756 10627
1756 10628
1756 10629
1757 80
1757 1118
1757 3762
1757 5465
1757 10630
1757 10631
1757 10632
1757 10633
1757 10993
1758 52
1758 190
1758 1186
1758 1403
1758 3392
1758 3430
1758 3483
1758 3488
1758 3795
1758 3842
1758 5607
1758 6619
1758 6991
1758 7247
1758 7250
1758 8927
1758 9724
1758 10339
1758 10454
1758 10634
1758 10635
1759 37
1759 46
1759 1956
1759 2463
1759 2735
1759 2988
1759 3856
1759 4456
1759 4459
1759 4460
1759 4664
1759 4848
1759 4849
1759 4850
1759 4928
1759 5072
1759 9654
1759 9881
1759 10636
1759 10637
1759 11922
1760 36
1760 57
1760 59
1760 67
1760 125
1760 313
1760 374
1760 466
1760 894
1760 1029
1760 1030
1760 1067
1760 1195
1760 1399
1760 1510
1760 1653
1760 1702
1760 1812
1760 1820
1760 1873
1760 1957
1760 2267
1760 2281
1760 2483
1760 2589
1760 2624
1760 2644
1760 2832
1760 2945
1760 3252
1760 3299
1760 3322
1760 4569
1760 5391
1760 5393
1760 5394
1760 7979
1760 9954
1760 10638
1761 45
1761 75
1761 184
1761 185
1761 248
1761 586
1761 690
1761 731
1761 1196
1761 2094
1761 2248
1761 2459
1761 2475
1761 3631
1761 3785
1761 4170
1761 4253
1761 4255
1761 4269
1761 4302
1761 4314
1761 4318
1761 4320
1761 4412
1761 4778
1761 5768
1761 6098
1761 6619
1761 6621
1761 10639
1762 3645
1762 3757
1762 5495
1762 8183
1762 10640
1763 605
1763 6740
1763 8656
1763 10641
1763 10642
1764 2409
1764 2756
1764 5958
1764 10198
1764 10643
1764 10644
1765 1571
1765 2055
1765 4506
1765 5157
1765 5962
1765 7360
1765 8036
1765 10645
1765 10646
1765 10647
1765 10648
1766 312
1766 1800
1766 2055
1766 2569
1766 3107
1766 3875
1766 3964
1766 4141
1766 4940
1766 4941
1766 6982
1766 6984
1766 10649
1766 10650
1766 10651
1766 10652
1767 398
1767 1387
1767 2254
1767 2446
1767 2537
1767 2700
1767 3190
1767 3226
1767 3729
1767 4050
1767 6206
1767 7100
1767 8323
1767 10653
1767 10654
1767 10655
1768 1440
1768 9702
1768 9817
1768 10656
1768 10657
1768 10658
1768 10659
1769 69
1769 81
1769 5284
1769 7918
1769 8888
1769 10413
1769 10660
1770 50
1770 76
1770 363
1770 413
1770 463
1770 537
1770 938
1770 1233
1770 2843
1770 3184
1770 3203
1770 3348
1770 3350
1770 3474
1770 3488
1770 5658
1770 5662
1770 5663
1770 9989
1770 10661
1771 325
1771 415
1771 460
1771 803
1771 1105
1771 2065
1771 2191
1771 2253
1771 2734
1771 2970
1771 3638
1771 3747
1771 4249
1771 4686
1771 5013
1771 5680
1771 6158
1771 7534
1771 7538
1771 10662
1772 801
1772 1141
1772 1384
1772 2643
1772 4649
1772 6327
1772 7095
1772 7148
1772 7719
1772 8625
1772 9668
1772 10663
1772 10664
1772 10665
1773 42
1773 62
1773 1029
1773 2717
1773 3385
1773 3403
1773 3496
1773 3643
1773 3659
1773 3661
1773 5182
1773 6233
1773 9373
1773 9374
1773 10666
1773 10667
1774 10
1774 298
1774 630
1774 2516
1774 2619
1774 2750
1774 2980
1774 4425
1774 4426
1774 4632
1774 4864
1774 4866
1774 4867
1774 4868
1774 5783
1774 6965
1774 10668
1774 10669
1774 10670
1774 10671
1775 602
1775 832
1775 1671
1775 1869
1775 1927
1775 2232
1775 2690
1775 2918
1775 3049
1775 4494
1775 6003
1775 6776
1775 8603
1775 10128
1775 10672
1775 10673
1775 10674
1775 10675
1775 10984
1775 12304
1776 43
1776 53
1776 64
1776 237
1776 497
1776 2377
1776 3349
1776 3373
1776 3374
1776 3620
1776 4274
1776 4412
1776 6152
1776 6244
1776 10676
1776 10677
1776 10678
1777 5705
1777 9262
1777 10679
1778 77
1778 738
1778 775
1778 1427
1778 1679
1778 2083
1778 2334
1778 2401
1778 3544
1778 3545
1778 3552
1778 7280
1778 7419
1778 10445
1778 10449
1778 10680
1778 10681
1778 10682
1778 10683
1779 6325
1779 8659
1779 10684
1780 1720
1780 4023
1780 8659
1780 10685
1780 10686
1780 12547
1781 682
1781 1010
1781 1551
1781 4422
1781 7560
1781 8230
1781 10663
1781 10687
1781 10688
1781 10689
1782 80
1782 360
1782 6891
1782 7317
1782 8314
1782 10690
1782 10691
1782 10692
1782 10693
1782 10694
1783 13
1783 1145
1783 1525
1783 2583
1783 6167
1783 6416
1783 6975
1783 9894
1783 10347
1783 10695
1783 10696
1783 10697
1784 25
1784 28
1784 36
1784 41
1784 46
1784 47
1784 57
1784 59
1784 67
1784 125
1784 381
1784 660
1784 1195
1784 2624
1784 2625
1784 3124
1784 3515
1784 4187
1784 4189
1784 4569
1784 4664
1784 5316
1784 5393
1784 5394
1784 7818
1784 7845
1784 9954
1784 10698
1784 10699
1784 10700
1785 172
1785 323
1785 324
1785 475
1785 629
1785 833
1785 874
1785 875
1785 1138
1785 1167
1785 1183
1785 1447
1785 1570
1785 1695
1785 1797
1785 2302
1785 2883
1785 3427
1785 3920
1785 4314
1785 5205
1785 5444
1785 6570
1785 7581
1785 7583
1785 7831
1785 7832
1785 10255
1785 10701
1785 10702
1786 3757
1786 4677
1786 4957
1786 6093
1786 6540
1786 8183
1786 10703
1786 10704
1787 1209
1787 1475
1787 2026
1787 6368
1787 6946
1787 9172
1787 10705
1787 10706
1788 1721
1788 2039
1788 2777
1788 3839
1788 6641
1788 10536
1788 10707
1789 1371
1789 3048
1789 5342
1789 8006
1789 9636
1789 9637
1789 10708
1790 58
1790 63
1790 64
1790 199
1790 821
1790 2848
1790 3106
1790 3203
1790 5225
1790 5676
1790 7594
1790 9480
1790 10709
1791 30
1791 171
1791 1663
1791 1695
1791 1739
1791 2252
1791 3066
1791 3842
1791 8915
1791 9230
1791 9992
1791 10411
1791 10710
1792 666
1792 3632
1792 3999
1792 6907
1792 6993
1792 10711
1792 10712
1792 10713
1793 6993
1793 10714
1793 10715
1794 1794
1794 7949
1794 10716
1794 10717
1794 10718
1795 2858
1795 6456
1795 8355
1795 10719
1795 10720
1796 6630
1796 10721
1796 10722
1796 12755
1797 73
1797 285
1797 442
1797 474
1797 475
1797 553
1797 1162
1797 1169
1797 1785
1797 1799
1797 1858
1797 2843
1797 3005
1797 3488
1797 4560
1797 4952
1797 6052
1797 6101
1797 6145
1797 6912
1797 10353
1797 10723
1798 185
1798 206
1798 347
1798 406
1798 575
1798 586
1798 653
1798 1242
1798 2087
1798 2358
1798 3622
1798 3920
1798 3971
1798 4164
1798 4224
1798 4953
1798 6129
1798 7422
1798 7584
1798 8241
1798 10724
1798 10725
1799 475
1799 822
1799 872
1799 1223
1799 1797
1799 3395
1799 3434
1799 4778
1799 5221
1799 6928
1799 10353
1799 10726
1800 435
1800 1766
1800 3065
1800 3107
1800 3875
1800 4941
1800 5899
1800 6982
1800 10227
1800 10651
1800 10727
1800 10728
1801 793
1801 881
1801 1618
1801 2182
1801 4200
1801 4203
1801 5374
1801 7562
1801 7872
1801 9499
1801 9825
1801 10729
1801 10730
1801 10731
1801 12187
1802 981
1802 1396
1802 1594
1802 6030
1802 6694
1802 7893
1802 9385
1802 10234
1802 10732
1803 13
1803 117
1803 662
1803 753
1803 1130
1803 1675
1803 1847
1803 2539
1803 2643
1803 3151
1803 4101
1803 4106
1803 4109
1803 4874
1803 6709
1803 6975
1803 9891
1803 9893
1803 10733
1803 10734
1803 10735
1804 56
1804 79
1804 216
1804 239
1804 307
1804 328
1804 720
1804 797
1804 988
1804 1137
1804 1177
1804 1701
1804 1960
1804 2113
1804 2115
1804 2120
1804 2836
1804 2844
1804 3295
1804 3464
1804 3602
1804 3731
1804 4538
1804 4541
1804 4637
1804 5236
1804 5795
1804 10736
1804 10737
1805 64
1805 238
1805 404
1805 460
1805 1332
1805 2065
1805 3223
1805 3369
1805 3371
1805 3540
1805 4365
1805 4854
1805 4855
1805 5170
1805 5402
1805 5701
1805 7574
1805 7714
1805 9088
1805 10738
1805 10739
1806 3962
1806 3964
1806 5051
1806 5899
1806 10727
1806 10740
1806 10741
1806 10742
1807 80
1807 81
1807 3763
1807 4610
1807 4613
1807 5025
1807 5029
1807 8224
1807 10743
1807 11166
1808 79
1808 755
1808 1419
1808 3597
1808 3934
1808 5318
1808 5875
1808 9332
1808 9548
1808 10744
1809 2315
1809 3235
1809 3816
1809 4767
1809 4774
1809 5124
1809 5922
1809 5940
1809 10745
1810 290
1810 1479
1810 1560
1810 4124
1810 8500
1810 9929
1810 10152
1810 10746
1810 10747
1811 1512
1811 2697
1811 4109
1811 4431
1811 6974
1811 6975
1811 6976
1811 10748
1811 10749
1811 10750
1812 46
1812 57
1812 67
1812 176
1812 1195
1812 1760
1812 3484
1812 4188
1812 4189
1812 5059
1812 5389
1812 8648
1812 8729
1812 9604
1812 10751
1813 49
1813 587
1813 3380
1813 3382
1813 3485
1813 3646
1813 3651
1813 4679
1813 5079
1813 5696
1813 5853
1813 6024
1813 7642
1813 10752
1813 10753
1814 241
1814 924
1814 1695
1814 2943
1814 2944
1814 3716
1814 4562
1814 4563
1814 4564
1814 6725
1814 8042
1814 10143
1814 10754
1814 10755
1814 10756
1815 27
1815 3845
1815 6564
1815 6817
1815 7915
1815 10648
1815 10757
1815 10758
1816 430
1816 596
1816 1085
1816 2408
1816 3360
1816 5365
1816 6077
1816 8553
1816 9588
1816 10759
1817 35
1817 69
1817 103
1817 2435
1817 3741
1817 4388
1817 7753
1817 10760
1817 10761
1817 11439
1818 1819
1818 3684
1818 4386
1818 4897
1818 5235
1818 5510
1818 5642
1818 5933
1818 6953
1818 10652
1818 10762
1818 10763
1818 10764
1819 1818
1819 2422
1819 4343
1819 4429
1819 4430
1819 7568
1819 7798
1819 9887
1819 9888
1819 9889
1819 10765
1819 10766
1820 1760
1820 2892
1820 3124
1820 4226
1820 4570
1820 5312
1820 7033
1820 8258
1820 9771
1820 10767
1820 10768
1820 10769
1820 10770
1821 79
1821 1420
1821 4656
1821 4795
1821 4796
1821 8435
1821 9769
1821 9770
1821 9771
1821 10771
1822 1242
1822 4151
1822 4153
1822 4793
1822 6088
1822 6533
1822 8156
1822 8160
1822 9245
1822 10441
1822 10725
1822 10772
1822 10773
1823 36
1823 57
1823 59
1823 67
1823 375
1823 459
1823 1017
1823 1195
1823 3124
1823 3453
1823 3454
1823 4184
1823 5553
1823 10774
1823 10775
1823 10776
1824 827
1824 7611
1824 7612
1824 8522
1824 10777
1824 10778
1825 239
1825 265
1825 529
1825 2857
1825 3743
1825 4536
1825 4692
1825 4806
1825 9388
1825 10779
1826 43
1826 64
1826 404
1826 460
1826 568
1826 853
1826 1108
1826 1634
1826 2328
1826 3369
1826 3370
1826 3371
1826 3540
1826 4279
1826 5593
1826 5709
1826 5885
1826 5974
1826 6077
1826 7738
1826 10780
1827 33
1827 40
1827 322
1827 383
1827 405
1827 422
1827 463
1827 973
1827 1214
1827 1507
1827 2622
1827 3261
1827 3475
1827 3627
1827 4070
1827 4487
1827 4561
1827 4667
1827 6988
1827 9212
1827 9912
1828 48
1828 73
1828 322
1828 366
1828 383
1828 474
1828 718
1828 774
1828 776
1828 1120
1828 1146
1828 1171
1828 1186
1828 1194
1828 1319
1828 1354
1828 1488
1828 1894
1828 2021
1828 2760
1828 2784
1828 2821
1828 2884
1828 2927
1828 3002
1828 3125
1828 3203
1828 3287
1828 3308
1828 3309
1828 3313
1828 3351
1828 3425
1828 3636
1828 8819
1828 10781
1828 10782
1829 939
1829 2395
1829 2536
1829 2661
1829 2988
1829 3602
1829 5072
1829 7488
1829 10783
1829 10784
1829 10785
1829 10786
1830 55
1830 147
1830 331
1830 332
1830 374
1830 375
1830 385
1830 427
1830 459
1830 466
1830 526
1830 633
1830 730
1830 919
1830 1017
1830 1276
1830 1575
1830 2010
1830 2013
1830 2014
1830 2638
1830 3162
1830 3217
1830 3322
1830 3453
1830 3460
1830 3462
1830 3466
1830 3957
1830 4083
1830 4084
1830 4085
1830 6356
1830 9628
1830 9835
1830 10787
1831 28
1831 55
1831 331
1831 332
1831 375
1831 457
1831 459
1831 466
1831 526
1831 730
1831 870
1831 1017
1831 1575
1831 2013
1831 2625
1831 3051
1831 3111
1831 3122
1831 3178
1831 3179
1831 3191
1831 3217
1831 3453
1831 3460
1831 3462
1831 4083
1831 4084
1831 4085
1831 4729
1831 4834
1831 5060
1831 5397
1831 5456
1831 6356
1831 7818
1831 8258
1832 21
1832 80
1832 301
1832 465
1832 1164
1832 2292
1832 4881
1832 5023
1832 5424
1832 5428
1832 5430
1832 6764
1832 7674
1832 7677
1832 8223
1832 10788
1832 10789
1833 60
1833 333
1833 353
1833 467
1833 472
1833 802
1833 967
1833 1110
1833 1184
1833 1372
1833 1482
1833 9211
1834 3126
1834 3130
1834 3337
1834 3477
1834 3753
1834 3928
1834 4100
1834 4951
1834 4952
1834 8922
1834 9416
1834 10790
1835 71
1835 3880
1835 4021
1835 4742
1835 7357
1835 9737
1835 10791
1835 10792
1835 10793
1835 10794
1836 248
1836 958
1836 2843
1836 3477
1836 3716
1836 3943
1836 4098
1836 4099
1836 4149
1836 4557
1836 4562
1836 4563
1836 5658
1836 6113
1836 6719
1836 7581
1836 8429
1836 9041
1836 9062
1836 9948
1836 10755
1836 10795
1836 10796
1836 10797
1837 52
1837 76
1837 115
1837 190
1837 285
1837 322
1837 475
1837 938
1837 953
1837 1133
1837 1186
1837 1194
1837 1232
1837 1233
1837 1356
1837 1488
1837 1849
1837 2095
1837 2230
1837 2360
1837 2527
1837 2791
1837 2798
1837 3129
1837 3297
1837 3419
1837 3480
1837 3897
1837 4150
1837 4298
1837 6101
1837 7247
1837 9089
1837 9219
1837 10798
1838 9
1838 709
1838 4669
1838 5124
1838 5126
1838 5129
1838 5130
1838 6156
1838 7168
1838 7497
1838 10799
1838 10800
1839 1242
1839 4153
1839 4957
1839 5443
1839 6533
1839 6539
1839 6811
1839 7577
1839 7632
1839 7635
1839 7764
1839 8156
1839 8160
1839 10441
1839 10801
1840 16
1840 18
1840 32
1840 48
1840 50
1840 70
1840 73
1840 717
1840 1163
1840 1194
1840 1243
1840 2190
1840 3184
1840 3197
1840 3389
1840 3391
1840 3426
1840 3428
1840 3483
1840 4150
1840 5470
1840 8822
1841 53
1841 184
1841 323
1841 406
1841 468
1841 629
1841 1114
1841 1138
1841 1183
1841 1316
1841 1700
1841 2302
1841 2685
1841 3620
1841 3623
1841 4241
1841 4243
1841 4315
1841 5012
1841 5595
1841 6570
1841 8430
1842 675
1842 2023
1842 2091
1842 7023
1842 7104
1842 7467
1842 7651
1842 8768
1842 9885
1842 10802
1842 10803
1843 34
1843 44
1843 53
1843 190
1843 192
1843 207
1843 309
1843 323
1843 343
1843 470
1843 475
1843 538
1843 586
1843 629
1843 929
1843 1132
1843 1135
1843 1183
1843 1345
1843 1467
1843 1476
1843 1849
1843 2127
1843 2248
1843 2302
1843 2883
1843 3211
1843 3261
1843 10804
1844 20
1844 663
1844 680
1844 732
1844 1058
1844 3065
1844 4052
1844 6722
1844 8050
1844 8520
1844 10805
1845 594
1845 1377
1845 2158
1845 3065
1845 6168
1845 6722
1845 7323
1845 8106
1845 8725
1845 10071
1845 10806
1846 1723
1846 1848
1846 2157
1846 6193
1846 9708
1846 10463
1846 10807
1846 10808
1846 10809
1846 10810
1846 10811
1846 10812
1846 10818
1847 117
1847 662
1847 1803
1847 2643
1847 3151
1847 3815
1847 3914
1847 6975
1847 8150
1847 8151
1847 10813
1847 10814
1847 10815
1848 1594
1848 1723
1848 1846
1848 2056
1848 2482
1848 3047
1848 4075
1848 6193
1848 10811
1848 10816
1848 10817
1848 10818
1848 10819
1849 48
1849 52
1849 53
1849 58
1849 63
1849 73
1849 115
1849 475
1849 822
1849 1233
1849 1837
1849 1843
1849 2560
1849 3125
1849 3349
1849 3392
1849 3419
1849 3430
1849 3751
1849 4143
1849 4413
1849 6152
1849 6244
1849 6567
1849 6854
1850 1411
1850 2713
1850 6451
1850 6556
1850 7758
1850 8866
1850 10820
1850 10821
1850 10822
1851 4403
1851 4744
1851 5509
1851 5794
1851 5801
1851 7621
1851 10823
1851 10824
1851 10825
1852 631
1852 931
1852 1034
1852 1122
1852 1134
1852 1245
1852 2254
1852 2628
1852 2697
1852 3095
1852 3730
1852 3978
1852 6206
1852 6214
1852 6495
1852 8066
1852 8067
1852 8474
1852 8476
1852 8495
1852 8496
1852 10613
1852 10826
1852 10827
1852 10828
1852 10829
1852 10830
1853 4612
1853 5266
1853 5438
1853 5744
1853 10831
1853 10832
1853 10833
1853 10834
1853 10835
1854 39
1854 83
1854 472
1854 606
1854 1079
1854 1159
1854 1170
1854 2632
1854 2702
1854 3368
1854 3486
1854 3624
1854 3625
1854 3664
1854 3789
1854 4306
1854 4311
1854 5006
1854 5701
1854 5776
1854 7133
1854 7136
1854 8104
1854 8999
1854 9562
1854 10836
1854 10837
1855 31
1855 48
1855 73
1855 1171
1855 1317
1855 1356
1855 1538
1855 2189
1855 2785
1855 2804
1855 3126
1855 3313
1855 3350
1855 4247
1855 4298
1855 4300
1855 4412
1855 4529
1855 4952
1855 4956
1855 4958
1855 6599
1855 8844
1855 8906
1855 10838
1855 10839
1855 11373
1856 320
1856 1649
1856 3607
1856 4985
1856 4986
1856 4987
1856 10377
1856 10840
1856 10841
1857 3083
1857 3607
1857 3609
1857 4233
1857 4986
1857 5550
1857 7205
1857 10377
1857 10462
1857 10841
1857 10842
1858 184
1858 185
1858 408
1858 475
1858 1146
1858 1162
1858 1734
1858 1797
1858 2143
1858 2459
1858 3184
1858 3624
1858 3722
1858 3972
1858 4243
1858 4253
1858 4303
1858 5214
1858 5225
1858 5619
1858 5625
1858 8060
1858 8675
1858 10256
1858 10843
1858 10844
1859 29
1859 38
1859 383
1859 958
1859 1475
1859 1961
1859 2358
1859 2973
1859 3244
1859 3261
1859 3394
1859 3395
1859 4098
1859 4300
1859 4529
1859 5486
1859 6516
1859 6657
1859 9727
1859 9959
1859 10844
1859 10845
1860 64
1860 197
1860 848
1860 1470
1860 3198
1860 6149
1860 6875
1860 6924
1860 7170
1860 7354
1860 8217
1860 9906
1860 10846
1861 2536
1861 2677
1861 2730
1861 3289
1861 3728
1861 3731
1861 4541
1861 4761
1861 5474
1861 9431
1861 9432
1861 10847
1861 10848
1862 174
1862 2645
1862 3816
1862 4171
1862 5124
1862 5934
1862 5937
1862 5939
1862 5940
1862 7158
1862 8529
1862 9436
1862 10491
1862 10849
1862 10850
1862 10851
1862 10852
1862 12108
1863 35
1863 51
1863 81
1863 226
1863 812
1863 1145
1863 1980
1863 2886
1863 3560
1863 6288
1863 9311
1863 10853
1863 10854
1863 10855
1863 10856
1864 8207
1864 10857
1864 10858
1864 10859
1864 10860
1865 944
1865 1749
1865 1867
1865 4600
1865 4957
1865 6093
1865 6122
1865 6537
1865 6540
1865 7765
1865 10605
1865 10608
1865 10861
1865 10862
1865 10863
1866 61
1866 290
1866 2384
1866 2882
1866 2938
1866 4817
1866 5053
1866 5161
1866 5735
1866 7652
1866 8850
1866 10864
1866 10865
1866 10866
1866 10867
1866 10868
1867 1462
1867 1608
1867 1865
1867 2834
1867 4590
1867 4592
1867 4600
1867 4677
1867 6093
1867 6122
1867 6537
1867 10270
1867 10608
1867 10863
1867 10869
1867 10870
1867 10871
1868 61
1868 1909
1868 2661
1868 2988
1868 4335
1868 5053
1868 5721
1868 5833
1868 6359
1868 8041
1868 10867
1868 10872
1868 10873
1868 11108
1869 1775
1869 2690
1869 4496
1869 4497
1869 8375
1869 9439
1869 10675
1869 10874
1869 10875
1869 10876
1869 11314
1869 11638
1869 11805
1869 12184
1870 5233
1870 5235
1870 6318
1870 10877
1870 10878
1870 10879
1871 401
1871 746
1871 2415
1871 5566
1871 7311
1871 9442
1871 10880
1871 10881
1871 10882
1872 4719
1872 6527
1872 7599
1872 10883
1872 10884
1872 10885
1873 11
1873 36
1873 57
1873 59
1873 67
1873 1026
1873 1195
1873 1699
1873 1760
1873 2000
1873 2753
1873 3082
1873 3967
1873 4665
1873 5331
1873 7867
1873 7870
1873 9455
1873 9954
1873 10005
1874 8
1874 29
1874 34
1874 38
1874 2358
1874 2525
1874 3069
1874 3244
1874 3273
1874 3342
1874 3347
1874 3627
1874 3726
1874 3897
1874 3917
1874 4149
1874 5205
1874 9591
1874 9592
1874 10886
1875 79
1875 239
1875 421
1875 1176
1875 1698
1875 2770
1875 2892
1875 3082
1875 3688
1875 4044
1875 4343
1875 4539
1875 5243
1875 5718
1875 5721
1875 5945
1875 6520
1875 8033
1875 9332
1875 10887
1875 10888
1876 425
1876 5308
1876 5337
1876 5667
1876 5671
1876 5757
1876 5765
1876 10889
1877 718
1877 955
1877 1131
1877 1317
1877 1343
1877 2312
1877 2556
1877 2784
1877 2785
1877 3792
1877 3986
1877 3989
1877 3990
1877 3991
1877 3992
1877 4262
1877 4275
1877 4276
1877 4281
1877 4674
1877 7079
1877 7198
1877 7223
1877 8821
1877 9326
1877 10890
1878 4895
1878 10891
1879 16
1879 18
1879 29
1879 32
1879 38
1879 48
1879 50
1879 64
1879 70
1879 73
1879 237
1879 441
1879 938
1879 1243
1879 1521
1879 2190
1879 2555
1879 2870
1879 2934
1879 3072
1879 3128
1879 3203
1879 3309
1879 3347
1879 3373
1879 3391
1879 3426
1879 3434
1879 3440
1879 3483
1879 4144
1879 4306
1879 4528
1879 4922
1879 5116
1879 5118
1879 9470
1879 10297
1880 6136
1880 8918
1880 10251
1880 10467
1880 10892
1880 10893
1881 7526
1881 10408
1881 10894
1881 10895
1882 5412
1882 9456
1882 10628
1882 10896
1882 10897
1882 11185
1882 11343
1882 12684
1883 3607
1883 3609
1883 3610
1883 3611
1883 4987
1883 5043
1883 5283
1883 5858
1883 7658
1883 7659
1883 8192
1883 10898
1883 10899
1883 10900
1883 10901
1884 123
1884 5711
1884 9404
1884 9553
1884 10902
1885 19
1885 79
1885 80
1885 81
1885 465
1885 1176
1885 2278
1885 3535
1885 3590
1885 3592
1885 3674
1885 3677
1885 4910
1885 8393
1885 8394
1885 10621
1885 10903
1885 10904
1885 10905
1885 10906
1886 45
1886 2132
1886 2441
1886 2555
1886 4153
1886 4242
1886 5218
1886 5733
1886 6725
1886 6726
1886 6729
1886 7832
1886 9191
1886 10756
1886 10907
1886 10908
1887 246
1887 296
1887 333
1887 337
1887 392
1887 452
1887 457
1887 587
1887 775
1887 1139
1887 1191
1887 1346
1887 1593
1887 1619
1887 1994
1887 2082
1887 3077
1887 3078
1887 3227
1887 9721
1888 27
1888 3093
1888 9525
1888 10909
1888 10910
1888 10911
1889 8803
1889 9270
1889 9271
1889 10655
1889 10912
1890 3329
1890 6557
1890 8771
1890 10913
1891 6871
1891 7729
1891 10914
1891 10915
1892 71
1892 79
1892 80
1892 81
1892 3534
1892 3742
1892 3763
1892 8652
1892 10916
1892 10917
1892 10918
1893 9250
1893 10919
1894 24
1894 31
1894 40
1894 48
1894 58
1894 73
1894 958
1894 1171
1894 1194
1894 1475
1894 1562
1894 1828
1894 2303
1894 2637
1894 2804
1894 3130
1894 3244
1894 3432
1894 3624
1894 3795
1894 4356
1894 4529
1894 4956
1894 4958
1894 5681
1894 6101
1894 8907
1894 10920
1895 5370
1895 10921
1896 47
1896 484
1896 2905
1896 3410
1896 3857
1896 3932
1896 4766
1896 6184
1896 6967
1896 10922
1896 10923
1896 10924
1896 10925
1896 10926
1897 2119
1897 2232
1897 4017
1897 4232
1897 10115
1897 10927
1897 10928
1898 834
1898 1475
1898 3130
1898 3259
1898 3483
1898 7637
1898 7639
1898 9987
1898 10929
1898 10930
1899 1537
1899 2704
1899 6185
1899 10088
1899 10089
1899 10931
1899 10932
1900 1618
1900 3008
1900 3146
1900 3518
1900 3635
1900 3771
1900 3971
1900 4458
1900 4601
1900 4790
1900 5316
1900 5406
1900 5696
1900 8322
1900 10698
1900 10933
1900 10934
1901 1169
1901 1460
1901 2840
1901 3109
1901 3663
1901 3719
1901 3726
1901 3940
1901 4168
1901 4463
1901 4790
1901 4998
1901 5930
1901 8014
1901 9878
1902 69
1902 628
1902 4378
1902 6826
1902 7317
1902 10335
1902 10935
1902 10936
1902 10937
1902 11103
1902 11702
1903 531
1903 4644
1903 10523
1903 10524
1903 10938
1903 10939
1903 10940
1903 11192
1904 6682
1904 8276
1904 10941
1904 10942
1905 42
1905 45
1905 62
1905 77
1905 271
1905 345
1905 585
1905 739
1905 1170
1905 2074
1905 2185
1905 2626
1905 2717
1905 2793
1905 2815
1905 2929
1905 3288
1905 3377
1905 3381
1905 3403
1905 3497
1905 3501
1905 3646
1905 4830
1905 5219
1905 6731
1905 7285
1906 23
1906 51
1906 145
1906 175
1906 3529
1906 3531
1906 3674
1906 3677
1906 4174
1906 4180
1906 4183
1906 4500
1906 4740
1906 4745
1906 5748
1906 7865
1906 7880
1906 9007
1906 10943
1906 10944
1906 10945
1906 10946
1907 59
1907 619
1907 2028
1907 2640
1907 2786
1907 2947
1907 2956
1907 3414
1907 3768
1907 5452
1907 6789
1907 10671
1907 10947
1907 10948
1908 1911
1908 1923
1908 1971
1908 2022
1908 2313
1908 10949
1909 1868
1909 2661
1909 2988
1909 5064
1909 10786
1909 10950
1910 27
1910 3852
1910 7552
1910 10462
1910 10951
1910 10952
1911 1908
1911 8019
1911 10953
1911 10954
1911 10955
1911 11671
1912 354
1912 1025
1912 2161
1912 4002
1912 4293
1912 5250
1912 6226
1912 10956
1913 341
1913 680
1913 3093
1913 5016
1913 6766
1913 6767
1913 10229
1913 10957
1914 784
1914 916
1914 8019
1914 8412
1914 8595
1914 9971
1914 10958
1914 10959
1915 4703
1915 4966
1915 5689
1915 6328
1915 8945
1915 10960
1916 3199
1916 8019
1916 8806
1916 9971
1916 10959
1916 10961
1917 912
1917 3232
1917 4073
1917 4449
1917 5570
1917 7173
1917 8006
1917 10962
1917 10963
1918 205
1918 770
1918 780
1918 911
1918 1267
1918 2055
1918 2085
1918 2262
1918 4409
1918 7173
1918 7255
1918 8002
1918 10964
1919 644
1919 758
1919 2258
1919 2536
1919 2947
1919 3657
1919 4082
1919 4761
1919 6230
1919 9054
1919 10965
1919 10966
1919 10967
1920 2160
1920 2161
1920 2887
1920 3904
1921 3595
1921 4689
1921 6949
1921 10903
1922 918
1922 5824
1922 9043
1922 9731
1922 10971
1922 10972
1922 10973
1922 10974
1923 1609
1923 1908
1923 3991
1923 7956
1923 9651
1923 10949
1923 10955
1923 10970
1923 10971
1923 10975
1924 3074
1924 5824
1924 10971
1924 12877
1925 51
1925 81
1925 226
1925 3033
1925 3682
1925 4002
1925 4498
1925 4500
1925 4656
1925 10978
1925 10979
1926 49
1926 457
1926 3381
1926 3382
1926 3439
1926 3446
1926 3618
1926 5520
1926 6013
1926 6016
1926 10980
1927 1775
1927 2077
1927 5022
1927 7015
1927 10981
1928 2690
1928 6218
1928 10461
1928 10462
1928 10982
1928 10983
1928 10984
1928 10985
1929 234
1929 1932
1929 4520
1929 7072
1929 7928
1929 8952
1929 10986
1929 10987
1930 10987
1930 10988
1930 10989
1930 10990
1931 4351
1931 5054
1931 10987
1931 10991
1931 10992
1931 12473
1931 12687
1932 1929
1932 7070
1932 7928
1932 10631
1932 10987
1932 10993
1932 10994
1933 4212
1933 5640
1933 8213
1933 9391
1933 10031
1933 10995
1934 4212
1934 5227
1934 9077
1934 9797
1934 10996
1935 61
1935 79
1935 939
1935 1960
1935 2625
1935 4570
1935 4571
1935 5036
1935 5831
1935 7161
1935 8472
1935 9103
1935 10578
1935 10580
1935 10582
1935 10997
1936 265
1936 10578
1936 10998
1937 56
1937 61
1937 79
1937 1121
1937 1176
1937 1431
1937 3588
1937 4901
1937 8435
1937 10552
1938 2729
1938 2784
1938 3002
1938 3059
1938 3988
1938 4674
1938 5446
1938 9286
1938 10999
1938 11281
1939 218
1939 925
1939 1606
1939 1678
1939 2284
1939 2395
1939 2506
1939 2862
1939 4392
1939 9150
1940 2117
1940 3026
1940 3027
1940 5562
1940 5572
1940 11000
1940 11001
1940 11002
1941 102
1941 2008
1941 4172
1941 4667
1941 10177
1941 11003
1941 11004
1941 11005
1942 397
1942 1100
1942 4193
1942 5544
1942 11006
1943 6002
1943 10187
1943 11007
1943 11008
1943 11042
1944 4506
1944 4840
1944 4960
1944 5284
1944 10647
1944 11009
1945 516
1945 2631
1945 10140
1945 11010
1945 11011
1945 11012
1946 3157
1946 4054
1946 8349
1946 9341
1946 11010
1946 11013
1946 11014
1947 2221
1947 2367
1947 2937
1947 3541
1947 11015
1948 2075
1948 3246
1948 10247
1948 11016
1949 762
1949 6473
1949 6687
1949 7375
1949 8414
1949 11017
1950 6687
1950 11018
1951 39
1951 58
1951 63
1951 64
1951 1185
1951 2191
1951 2253
1951 2734
1951 3625
1951 4446
1951 4684
1951 4686
1951 4955
1951 5006
1951 5774
1951 6025
1951 6050
1951 6158
1951 7133
1951 9997
1951 10422
1952 543
1952 1017
1952 1018
1952 1184
1952 1222
1952 1709
1952 2275
1952 3647
1952 4323
1952 4831
1952 7847
1952 11019
1953 89
1953 709
1953 2284
1953 3232
1953 6986
1953 7168
1953 7169
1953 9491
1953 11020
1954 566
1954 3316
1954 4706
1954 6575
1954 6577
1954 6950
1954 10260
1954 11021
1954 11022
1955 13
1955 1145
1955 3274
1955 5287
1955 7269
1955 9145
1955 11023
1955 11024
1955 11191
1956 57
1956 1195
1956 1759
1956 2129
1956 2735
1956 4455
1956 4849
1956 4850
1956 4928
1956 11025
1956 11026
1957 11
1957 25
1957 36
1957 37
1957 41
1957 46
1957 56
1957 57
1957 59
1957 67
1957 79
1957 125
1957 449
1957 660
1957 846
1957 894
1957 1026
1957 1176
1957 1195
1957 1760
1957 2209
1957 2945
1957 3124
1957 3967
1957 3993
1957 4455
1957 4569
1957 4928
1958 969
1958 1370
1958 8865
1958 10345
1958 11027
1959 40
1959 58
1959 63
1959 73
1959 1070
1959 1171
1959 3125
1959 3388
1959 3811
1959 4298
1959 4363
1959 7417
1959 8660
1959 8819
1960 19
1960 56
1960 79
1960 81
1960 239
1960 1137
1960 1176
1960 1804
1960 1935
1960 3899
1960 4626
1960 4795
1960 11028
1960 11029
1961 38
1961 40
1961 52
1961 115
1961 474
1961 475
1961 1233
1961 1475
1961 1739
1961 1859
1961 2252
1961 3126
1961 3352
1961 3842
1961 4300
1961 4529
1961 4952
1961 6147
1962 12
1962 48
1962 73
1962 415
1962 973
1962 1743
1962 2163
1962 2331
1962 2622
1962 2804
1962 3351
1962 3483
1962 3986
1962 5471
1962 6102
1962 8819
1962 8909
1962 10595
1963 72
1963 106
1963 440
1963 574
1963 636
1963 983
1963 1219
1963 1262
1963 2594
1963 3082
1963 3862
1963 3865
1963 3906
1963 5803
1963 6613
1963 6614
1963 7817
1963 9861
1964 773
1964 1264
1964 1421
1964 2487
1964 11030
1964 11031
1964 11032
1965 2114
1965 4426
1965 6841
1965 6963
1965 11033
1965 11034
1965 11035
1966 3577
1966 6979
1966 9386
1966 9861
1966 11036
1967 898
1967 1618
1967 4223
1967 5864
1967 9632
1967 9766
1967 11037
1967 11038
1968 2715
1968 3997
1968 6002
1968 6007
1968 10187
1968 11039
1968 11040
1968 11042
1969 61
1969 4022
1969 4839
1969 5270
1969 5373
1969 8610
1969 10903
1969 11041
1970 8819
1970 11039
1970 11042
1970 11043
1971 144
1971 1908
1971 3518
1971 7821
1971 10955
1971 11044
1971 11045
1971 11560
1972 3248
1972 4551
1972 4836
1972 10942
1972 11046
1972 11047
1972 11048
1972 11341
1973 8595
1973 11775
1973 12918
1974 51
1974 71
1974 80
1974 465
1974 1377
1974 3766
1974 4016
1974 5374
1974 6057
1974 6367
1974 7956
1974 9122
1974 10285
1974 11051
1974 11052
1974 11053
1975 144
1975 282
1975 644
1975 948
1975 1249
1975 2344
1975 2374
1975 2967
1975 11054
1976 456
1976 1015
1976 1977
1976 2376
1976 3343
1976 3640
1976 5097
1976 5102
1976 11055
1977 135
1977 591
1977 1976
1977 1979
1977 3029
1977 3640
1977 11055
1977 11056
1978 3508
1978 3509
1978 3521
1978 5151
1978 5334
1978 6139
1978 8681
1978 11057
1979 349
1979 1188
1979 1977
1979 2490
1979 2524
1979 3486
1979 3664
1979 3785
1979 4241
1979 4256
1979 5102
1979 5214
1979 8439
1979 9107
1979 11055
1979 11058
1979 11059
1980 69
1980 744
1980 830
1980 913
1980 1055
1980 1147
1980 1863
1980 2023
1980 2064
1980 2518
1980 2844
1980 3560
1980 3564
1980 6767
1980 10229
1980 11060
1980 11061
1981 3632
1981 5017
1981 6909
1981 6995
1981 8437
1981 9292
1981 11062
1981 11063
1981 11161
1982 649
1982 2232
1982 3018
1982 3453
1982 3512
1982 4032
1982 4227
1982 4232
1982 4233
1982 4690
1982 4761
1982 5991
1982 11064
1982 11065
1983 4078
1983 10874
1983 11066
1983 11067
1984 6998
1984 8568
1984 11068
1984 11069
1985 1617
1985 2537
1985 3914
1985 5459
1985 7827
1985 11070
1985 11071
1986 1239
1986 3705
1986 5524
1986 8562
1986 10548
1986 10549
1986 10550
1986 10874
1986 11072
1987 586
1987 2475
1987 3395
1987 5496
1987 6054
1987 6914
1987 11073
1987 11074
1988 4349
1988 11075
1988 11076
1988 11077
1989 6
1989 708
1989 2892
1989 2893
1989 4273
1989 4542
1989 4693
1989 4765
1989 5477
1989 6337
1989 6338
1989 11078
1990 51
1990 446
1990 884
1990 1019
1990 1490
1990 1722
1990 4362
1990 7886
1990 8254
1990 8450
1990 8452
1990 11079
1991 4033
1991 4273
1991 4335
1991 5739
1991 7230
1991 8044
1991 9142
1991 10868
1991 11080
1991 11081
1992 862
1992 1047
1992 1439
1992 10119
1992 10236
1993 1020
1993 4787
1993 6509
1993 8453
1993 10908
1994 45
1994 77
1994 1222
1994 1887
1994 2082
1994 2717
1994 3403
1994 3654
1994 3659
1994 3926
1994 4592
1994 4833
1994 5730
1994 5916
1994 6011
1994 6012
1994 6025
1994 6093
1994 6745
1994 10666
1994 11082
1994 11083
1995 49
1995 775
1995 1174
1995 2943
1995 3381
1995 3383
1995 3439
1995 3625
1995 3805
1995 4679
1995 6011
1995 6126
1995 7136
1996 77
1996 2437
1996 2717
1996 3382
1996 3403
1996 3643
1996 3654
1996 3655
1996 3659
1996 5182
1996 5184
1996 6233
1996 10666
1997 1219
1997 1244
1997 1340
1997 1341
1997 2536
1997 2893
1997 3866
1997 4208
1997 4449
1997 4541
1997 5517
1997 8947
1997 9540
1997 11084
1997 11085
1998 1027
1998 1122
1998 1134
1998 2706
1998 3095
1998 4039
1998 6206
1998 7364
1998 8474
1998 8476
1998 8496
1999 311
1999 796
1999 1072
1999 1269
1999 1330
1999 2167
1999 2257
1999 2258
1999 2309
1999 2478
1999 2599
1999 2627
1999 2868
1999 10892
1999 11086
1999 11087
2000 25
2000 36
2000 41
2000 46
2000 57
2000 59
2000 67
2000 1195
2000 1465
2000 1699
2000 1873
2000 2663
2000 3454
2000 7866
2000 8486
2000 10776
2001 2668
2001 6732
2001 8146
2001 11088
2002 885
2002 2052
2002 4697
2002 6222
2002 6498
2002 6500
2002 6693
2002 7487
2002 7890
2002 7892
2002 11089
2002 11090
2002 11091
2003 2232
2003 10970
2003 11092
2004 2035
2004 10747
2004 11093
2005 6005
2005 11094
2005 11095
2006 42
2006 45
2006 62
2006 1029
2006 2027
2006 3385
2006 3503
2006 11096
2007 1374
2007 2234
2007 2597
2007 6445
2007 6447
2007 6650
2007 7121
2007 9647
2008 665
2008 1941
2008 3940
2008 4100
2008 4172
2008 4487
2008 4667
2008 4789
2008 6945
2008 7101
2008 9912
2008 10177
2008 10782
2008 11003
2008 11005
2008 11097
2009 801
2009 916
2009 980
2009 1141
2009 1723
2009 2643
2009 3909
2009 3913
2009 5110
2009 5532
2009 5615
2009 5654
2009 6169
2009 7150
2009 7797
2009 8297
2009 8805
2009 9181
2009 9182
2009 9185
2009 10096
2009 11098
2009 11099
2010 1830
2010 4381
2010 5632
2010 11100
2010 11101
2011 409
2011 632
2011 917
2011 3363
2011 4381
2011 5632
2011 8301
2011 11102
2011 11103
2011 11104
2012 2640
2012 3415
2012 3449
2012 5315
2012 5694
2012 6259
2012 7401
2012 11105
2012 11106
2012 11107
2013 28
2013 41
2013 55
2013 331
2013 332
2013 374
2013 375
2013 459
2013 526
2013 730
2013 1017
2013 1830
2013 1831
2013 3122
2013 3178
2013 3179
2013 3217
2013 3453
2013 3458
2013 3460
2013 3462
2013 3657
2013 3731
2013 4083
2013 4729
2013 5051
2013 5061
2013 5066
2013 5073
2013 5390
2013 5720
2013 5944
2013 6524
2013 6842
2014 28
2014 55
2014 61
2014 332
2014 459
2014 730
2014 1575
2014 1830
2014 3001
2014 3178
2014 3179
2014 3453
2014 3460
2014 3462
2014 3957
2014 4083
2014 4084
2014 4085
2014 4834
2014 5390
2014 5922
2014 9835
2014 11108
2014 11109
2015 61
2015 3525
2015 4611
2015 4651
2015 5416
2015 5749
2015 6156
2015 7142
2015 8669
2015 8850
2015 11110
2015 11111
2015 11112
2015 11113
2015 11114
2015 11117
2016 2155
2016 2177
2016 11115
2016 11116
2017 939
2017 9110
2017 11117
2017 11118
2018 51
2018 3729
2018 4138
2018 4933
2018 7487
2018 10742
2018 11117
2018 11119
2019 1504
2019 5257
2019 6867
2019 6891
2019 7352
2019 9896
2019 11120
2020 9335
2020 10517
2020 11117
2020 11121
2021 31
2021 32
2021 50
2021 58
2021 63
2021 1139
2021 1828
2021 2190
2021 2303
2021 3386
2021 3479
2021 3784
2021 3789
2021 3797
2021 4258
2021 11122
2022 1908
2022 2313
2022 3015
2022 6185
2022 10274
2022 10828
2022 10931
2022 10949
2022 11123
2022 11124
2022 11125
2023 81
2023 1842
2023 1980
2023 2669
2023 4888
2023 5938
2023 7467
2023 8865
2023 11126
2023 11127
2023 11128
2024 6554
2024 10931
2024 11129
2024 11130
2025 256
2025 642
2025 6732
2025 6876
2025 9228
2025 11131
2025 11132
2026 759
2026 1140
2026 1209
2026 1325
2026 1787
2026 2323
2026 3488
2026 5597
2026 6732
2026 9276
2026 9496
2026 10706
2026 11133
2026 11134
2027 62
2027 2006
2027 2717
2027 2793
2027 3503
2027 3651
2027 4833
2027 11135
2027 11136
2028 619
2028 1907
2028 2786
2028 2956
2028 3759
2028 5452
2028 6789
2028 10948
2028 11137
2029 321
2029 3749
2029 3750
2029 5673
2029 6099
2029 7059
2029 8055
2029 10781
2029 11138
2030 311
2030 491
2030 691
2030 873
2030 1627
2030 1708
2030 2258
2030 2414
2030 2697
2030 2880
2030 3218
2030 4039
2030 4931
2030 6205
2030 6495
2030 8494
2030 10294
2030 11139
2030 11140
2030 11141
2030 11483
2030 11900
2031 1363
2031 2056
2031 3045
2031 11142
2031 11143
2032 71
2032 4743
2032 5292
2032 6633
2032 11144
2033 28
2033 159
2033 876
2033 1017
2033 2043
2033 3001
2033 3339
2033 5455
2033 11145
2034 321
2034 1619
2034 3407
2034 3435
2034 3479
2034 6097
2034 7823
2034 9105
2034 9727
2035 1058
2035 1590
2035 1724
2035 2004
2035 2690
2035 3093
2035 11146
2036 81
2036 1490
2036 1722
2036 2355
2036 4906
2036 7886
2036 8254
2037 81
2037 1355
2037 2997
2037 7562
2037 9313
2037 11147
2037 11168
2038 3866
2038 8420
2038 11148
2038 11149
2038 11150
2039 127
2039 734
2039 979
2039 1788
2039 2140
2039 2713
2039 4449
2039 8289
2039 8290
2039 11151
2040 123
2040 2053
2040 3577
2040 3736
2040 3953
2040 3955
2040 3958
2040 4538
2040 11148
2040 11152
2041 231
2041 244
2041 4508
2041 5369
2041 8396
2041 11153
2041 11154
2042 247
2042 4534
2042 6524
2042 9856
2042 11148
2042 11155
2042 11156
2043 28
2043 41
2043 159
2043 332
2043 381
2043 587
2043 876
2043 1446
2043 1454
2043 2033
2043 2806
2043 3001
2043 3340
2043 7946
2043 8986
2044 227
2044 2046
2044 2122
2044 4274
2044 4802
2044 5499
2044 5725
2044 6242
2044 11157
2044 11158
2045 237
2045 347
2045 3616
2045 3640
2045 4314
2045 4322
2045 7823
2045 9585
2045 9752
2045 11159
2045 11160
2045 11161
2046 227
2046 2044
2046 2122
2046 4274
2046 4802
2046 5175
2046 5725
2046 6813
2046 11158
2046 11162
2046 11163
2046 11164
2047 9
2047 218
2047 925
2047 2781
2047 2822
2047 2896
2047 3103
2047 3212
2047 6297
2047 8044
2047 11165
2048 81
2048 2123
2048 2430
2048 4610
2048 5029
2048 9358
2048 10621
2048 11166
2048 11167
2048 11168
2048 11169
2049 2435
2049 2888
2049 3332
2049 11166
2049 11170
2049 11171
2050 2729
2050 3892
2050 4262
2050 4267
2050 6404
2050 7250
2050 8166
2050 11005
2050 11172
2050 11173
2050 11174
2051 235
2051 1421
2051 2207
2051 2562
2051 2813
2051 6121
2051 10270
2051 11032
2051 11175
2051 11176
2052 498
2052 1039
2052 1072
2052 1137
2052 1493
2052 1626
2052 2002
2052 11177
2053 123
2053 1382
2053 2040
2053 3731
2053 3955
2053 4087
2053 4279
2053 8198
2054 941
2054 1456
2054 2126
2054 2690
2054 11146
2055 229
2055 663
2055 732
2055 849
2055 888
2055 959
2055 1058
2055 1288
2055 1290
2055 1331
2055 1491
2055 1765
2055 1766
2055 1918
2055 2126
2055 2239
2055 2298
2055 2418
2055 2569
2055 2757
2055 2802
2055 2865
2055 3028
2055 3206
2055 5157
2055 11146
2056 916
2056 1363
2056 1848
2056 2031
2056 3045
2056 3047
2056 7806
2056 9610
2056 10816
2056 10819
2057 184
2057 349
2057 468
2057 1138
2057 1316
2057 2204
2057 3615
2057 3624
2057 3809
2057 4224
2057 4243
2057 4244
2057 4249
2057 5217
2057 5598
2057 11178
2057 11179
2057 11180
2058 491
2058 931
2058 1034
2058 1097
2058 1122
2058 1134
2058 1330
2058 2258
2058 2612
2058 2938
2058 3733
2058 4341
2058 6206
2058 7169
2058 8850
2058 11111
2058 11181
2058 11182
2059 3591
2059 5717
2059 5803
2059 7817
2059 10410
2059 11183
2059 11184
2059 11185
2059 11760
2060 47
2060 313
2060 619
2060 1330
2060 1618
2060 2640
2060 2956
2060 3082
2060 3413
2060 3729
2060 4651
2060 4765
2060 5717
2060 8323
2060 11186
2061 4135
2061 4141
2061 4809
2061 5020
2061 5957
2061 6979
2061 8272
2061 11187
2061 11188
2062 393
2062 4581
2062 4582
2062 4583
2062 4917
2062 4920
2062 5529
2062 7067
2062 11189
2063 531
2063 4028
2063 7090
2063 11190
2063 11191
2063 11192
2063 11193
2064 1980
2064 4291
2064 8539
2064 11194
2064 11195
2064 11196
2065 39
2065 64
2065 238
2065 460
2065 565
2065 1771
2065 1805
2065 2259
2065 3371
2065 5590
2065 11197
2065 11198
2066 219
2066 1131
2066 1312
2066 1503
2066 1700
2066 1744
2066 2072
2066 4531
2066 6109
2066 8897
2066 8898
2067 64
2067 238
2067 404
2067 702
2067 776
2067 848
2067 1185
2067 2068
2067 3020
2067 3021
2067 3022
2067 3200
2067 3223
2067 3370
2067 3371
2067 3386
2067 4260
2067 4261
2067 4365
2067 4857
2067 5590
2067 7734
2067 7735
2067 9088
2068 70
2068 199
2068 238
2068 325
2068 702
2068 1185
2068 1656
2068 2067
2068 2259
2068 2468
2068 2955
2068 3020
2068 3021
2068 3223
2068 4261
2068 4365
2068 5590
2069 25
2069 37
2069 41
2069 46
2069 61
2069 730
2069 3461
2069 3856
2069 4459
2069 4460
2069 4664
2069 4848
2069 4849
2069 5064
2069 5785
2069 8036
2069 11048
2070 80
2070 456
2070 1417
2070 3052
2070 6000
2070 6002
2070 6005
2070 7031
2070 11199
2070 11200
2070 11201
2071 79
2071 1176
2071 3995
2071 4453
2071 4689
2071 4691
2071 9069
2071 10366
2071 11202
2071 11203
2071 11204
2071 11820
2072 174
2072 2066
2072 4148
2072 4150
2072 7254
2072 9739
2072 11003
2072 11205
2072 11206
2072 11207
2072 11208
2073 122
2073 745
2073 806
2073 979
2073 1290
2073 2141
2073 2239
2073 2923
2073 3044
2073 3267
2073 11209
2074 45
2074 70
2074 80
2074 1033
2074 1905
2074 3127
2074 3146
2074 3147
2074 3493
2074 3655
2074 4547
2075 1598
2075 1948
2075 3246
2075 10247
2075 11016
2075 11210
2076 2474
2076 10577
2076 11048
2076 11211
2076 11212
2076 11213
2077 80
2077 81
2077 1927
2077 3049
2077 3675
2077 5155
2077 6003
2077 7015
2077 7112
2077 8038
2077 10674
2078 80
2078 465
2078 2574
2078 4968
2078 4969
2078 5276
2078 5304
2078 5913
2078 6328
2078 8578
2078 11214
2078 11215
2079 79
2079 81
2079 85
2079 327
2079 3739
2079 3741
2079 4388
2079 4417
2079 4610
2079 4805
2079 6521
2079 6581
2079 8336
2079 8422
2079 8426
2079 10917
2079 10918
2079 11216
2080 81
2080 3739
2080 4606
2080 11217
2080 11218
2081 10261
2081 11021
2081 11219
2081 11220
2081 11221
2082 246
2082 587
2082 1170
2082 1222
2082 1887
2082 1994
2082 2867
2082 2895
2082 3443
2082 3556
2082 4374
2082 4592
2082 5145
2082 11222
2082 11223
2083 200
2083 587
2083 1142
2083 1170
2083 1778
2083 2839
2083 3009
2083 3544
2083 3556
2083 5060
2083 6662
2083 11224
2083 11225
2083 11226
2083 11227
2084 1595
2084 3231
2084 3985
2084 10236
2084 10238
2084 11132
2084 11228
2085 862
2085 1047
2085 1918
2085 7320
2085 10236
2085 11229
2086 738
2086 904
2086 1427
2086 2180
2086 2195
2086 2401
2086 2839
2086 2867
2086 2931
2086 2946
2086 9787
2086 11230
2086 11231
2087 380
2087 1033
2087 1242
2087 1798
2087 4957
2087 5500
2087 6088
2087 7578
2087 7583
2087 8159
2087 11232
2087 11233
2088 2171
2088 2873
2088 3177
2088 4982
2088 5203
2088 10338
2088 11234
2089 311
2089 2627
2089 4039
2089 6871
2089 11086
2089 11235
2089 11236
2090 178
2090 493
2090 532
2090 542
2090 1670
2090 4200
2090 4201
2090 4203
2090 5375
2090 5376
2090 6374
2090 6375
2090 6377
2090 6378
2091 694
2091 836
2091 1842
2091 8388
2091 11237
2091 11238
2092 1402
2092 2144
2092 3264
2092 3657
2092 11239
2092 11240
2093 2289
2093 4027
2093 5355
2093 5998
2093 9620
2093 11241
2094 38
2094 53
2094 60
2094 192
2094 323
2094 337
2094 426
2094 731
2094 1196
2094 1310
2094 1619
2094 1761
2094 2127
2094 2459
2094 2696
2094 2720
2094 2925
2094 3309
2094 3338
2094 3434
2094 3644
2094 4150
2094 4308
2094 4313
2094 6533
2094 7247
2094 8927
2095 12
2095 32
2095 48
2095 50
2095 73
2095 115
2095 684
2095 938
2095 958
2095 1031
2095 1186
2095 1293
2095 1628
2095 1837
2095 2190
2095 2558
2095 2732
2095 2737
2095 2843
2095 3066
2095 3351
2095 3426
2095 3483
2095 3896
2095 8819
2095 9414
2095 9415
2096 1031
2096 1317
2096 3002
2096 3347
2096 3487
2096 4308
2096 4357
2096 9121
2096 9414
2096 9481
2096 10318
2096 11242
2096 11243
2097 21
2097 81
2097 905
2097 4001
2097 4609
2097 4610
2097 5033
2097 5419
2097 10563
2097 11244
2097 11245
2098 80
2098 81
2098 1145
2098 4654
2098 8741
2098 8769
2098 11246
2098 11247
2099 355
2099 1044
2099 5616
2099 5985
2099 9815
2099 11248
2099 11249
2099 11250
2099 11251
2099 11252
2099 11884
2100 1384
2100 8064
2100 9129
2100 9668
2100 10310
2100 10467
2100 11253
2101 1138
2101 1183
2101 2127
2101 2302
2101 2883
2101 3427
2101 3623
2101 6570
2101 6912
2101 11254
2102 463
2102 2138
2102 3943
2102 4956
2102 5496
2102 6054
2102 7834
2102 8548
2102 11073
2102 11255
2103 10187
2103 12908
2104 430
2104 805
2104 1355
2104 2538
2104 6587
2104 11257
2105 3656
2105 3805
2105 3808
2105 5058
2105 5200
2105 11258
2106 44
2106 2248
2106 3626
2106 4148
2106 11259
2107 71
2107 80
2107 511
2107 900
2107 1718
2107 4652
2107 5087
2107 5090
2107 5091
2107 5094
2107 9137
2107 9140
2107 11260
2108 80
2108 1718
2108 3675
2108 5087
2108 5090
2108 5094
2108 9137
2108 9139
2108 9140
2108 9324
2109 598
2109 682
2109 950
2109 1141
2109 4020
2109 4109
2109 4431
2109 5108
2109 5532
2109 5614
2109 6759
2109 11060
2109 11261
2110 1014
2110 1115
2110 1498
2110 3588
2110 8433
2110 9978
2111 1122
2111 1479
2111 2557
2111 9613
2111 11111
2111 11262
2112 31
2112 58
2112 63
2112 64
2112 238
2112 415
2112 848
2112 1354
2112 2303
2112 2328
2112 2468
2112 2554
2112 3355
2112 3370
2112 3388
2112 3799
2112 4363
2112 5122
2112 7417
2112 7714
2113 19
2113 37
2113 56
2113 61
2113 79
2113 134
2113 195
2113 307
2113 328
2113 429
2113 708
2113 1137
2113 1176
2113 1804
2113 3082
2113 3364
2113 3592
2113 3684
2113 5785
2113 11028
2114 210
2114 298
2114 1965
2114 2618
2114 2619
2114 2812
2114 2980
2114 4426
2114 10671
2115 79
2115 307
2115 1137
2115 1804
2115 4111
2115 8207
2115 10208
2115 11028
2115 11263
2115 11264
2116 77
2116 227
2116 2648
2116 3381
2116 3498
2116 3653
2116 6487
2116 6488
2116 6492
2116 6538
2116 11265
2117 402
2117 1940
2117 3026
2117 5562
2117 5572
2117 11001
2117 11002
2118 83
2118 1641
2118 3429
2118 5596
2118 7288
2118 8248
2118 9833
2119 1897
2119 3083
2119 7473
2119 9420
2119 10465
2119 10927
2119 10976
2119 11266
2119 11267
2119 11268
2120 41
2120 79
2120 216
2120 328
2120 1804
2120 4059
2120 5312
2120 7039
2120 11269
2120 11270
2121 3801
2121 3808
2121 4544
2121 4802
2121 5886
2121 8550
2121 8811
2121 8814
2121 11271
2122 187
2122 1264
2122 2044
2122 2046
2122 4642
2122 9556
2122 9702
2123 69
2123 81
2123 170
2123 812
2123 2048
2123 2222
2123 3155
2123 4216
2123 4862
2123 6403
2123 11272
2124 27
2124 610
2124 2246
2124 3850
2124 3852
2124 4135
2124 5342
2124 6756
2124 10229
2124 11273
2125 350
2125 463
2125 585
2125 661
2125 822
2125 1695
2125 2830
2125 3089
2125 3751
2125 3799
2125 3869
2125 4164
2125 4617
2125 6041
2125 10348
2125 10442
2125 10796
2126 17
2126 20
2126 397
2126 2054
2126 2055
2126 2918
2126 5190
2126 5192
2126 5562
2126 7255
2126 8021
2126 8023
2126 8025
2126 8372
2126 8398
2126 10131
2126 11274
2127 192
2127 731
2127 1674
2127 1843
2127 2094
2127 2101
2127 3355
2127 3614
2127 3626
2127 4143
2127 4269
2127 4314
2127 4322
2127 4324
2127 6038
2127 6052
2127 7065
2127 8430
2127 11275
2128 37
2128 46
2128 449
2128 1662
2128 1702
2128 3853
2128 3856
2128 4456
2128 4459
2128 4460
2128 4566
2128 4568
2128 4848
2128 4849
2128 4850
2128 4928
2128 4930
2128 5328
2128 5329
2128 5332
2128 11276
2129 37
2129 46
2129 310
2129 332
2129 449
2129 526
2129 1956
2129 3853
2129 4459
2129 4848
2129 4849
2129 4926
2129 8683
2129 11277
2130 4815
2130 6349
2130 6352
2130 8301
2130 11278
2131 35
2131 354
2131 1025
2131 1145
2131 1468
2131 3068
2131 3873
2131 4382
2131 5252
2131 5253
2131 5256
2131 5257
2131 5360
2131 6396
2131 7953
2131 9503
2131 9506
2131 9896
2131 9898
2131 10475
2131 11279
2132 29
2132 603
2132 1317
2132 1886
2132 2555
2132 2752
2132 3794
2132 3796
2132 3988
2132 5446
2132 6533
2132 6729
2132 11280
2132 11281
2133 56
2133 79
2133 1176
2133 1244
2133 2134
2133 4207
2133 4707
2133 4933
2133 5373
2133 5870
2133 6302
2133 6304
2133 9265
2133 11282
2134 61
2134 440
2134 1244
2134 2133
2134 5870
2134 5875
2134 6302
2134 6304
2134 9265
2134 9548
2134 11283
2135 1340
2135 3519
2135 3589
2135 3596
2135 5514
2135 5875
2135 5876
2135 5877
2135 6302
2135 6304
2135 8950
2135 9265
2135 9544
2135 11284
2135 11285
2136 5936
2136 6527
2136 7997
2136 9500
2136 10048
2136 10750
2136 10815
2136 11191
2136 11286
2136 11287
2136 11288
2136 11289
2137 232
2137 3189
2137 4512
2137 4513
2137 5704
2137 11290
2138 2102
2138 6054
2138 7766
2138 11073
2138 11291
2138 11292
2138 11293
2139 6499
2139 11294
2139 11295
2139 11296
2140 979
2140 2039
2140 3949
2140 6983
2140 8289
2140 8290
2140 11297
2140 11298
2141 389
2141 2073
2141 3949
2141 6983
2141 8290
2141 10689
2141 11299
2141 11300
2141 11301
2141 11302
2141 11303
2141 11304
2142 620
2142 4670
2142 5338
2142 11305
2143 30
2143 38
2143 50
2143 52
2143 337
2143 585
2143 821
2143 1162
2143 1169
2143 1183
2143 1521
2143 1858
2143 2339
2143 2752
2143 2790
2143 3184
2143 3352
2143 3397
2143 3435
2143 3479
2143 3482
2143 3486
2143 3627
2143 3664
2143 4990
2143 5219
2143 5225
2143 6042
2143 6055
2143 6147
2143 6569
2143 7339
2143 8922
2143 8942
2143 10790
2144 1402
2144 2092
2144 5456
2144 7858
2144 11240
2144 11306
2144 11307
2144 11308
2145 56
2145 79
2145 1121
2145 1176
2145 1234
2145 3602
2145 3692
2145 4782
2145 11309
2146 27
2146 3845
2146 3850
2146 3852
2146 5340
2146 6251
2146 6756
2146 11310
2146 11311
2147 16
2147 18
2147 50
2147 52
2147 337
2147 343
2147 461
2147 462
2147 469
2147 471
2147 472
2147 683
2147 821
2147 1120
2147 1135
2147 1183
2147 1497
2147 1673
2147 2558
2147 2849
2147 3185
2147 3197
2147 3203
2147 3389
2147 3391
2147 3426
2147 3427
2147 3428
2147 3435
2147 3895
2147 4925
2147 4993
2147 5118
2147 5881
2147 6046
2147 6570
2148 8034
2148 8038
2148 8374
2148 11312
2149 69
2149 81
2149 3846
2149 8374
2149 11313
2149 11314
2150 350
2150 463
2150 2151
2150 2303
2150 2798
2150 3084
2150 3720
2150 3721
2150 3868
2150 3870
2150 4152
2150 4155
2150 4164
2150 4622
2150 5224
2150 6885
2150 7546
2150 7823
2150 8489
2150 8582
2150 11315
2151 52
2151 350
2151 411
2151 463
2151 475
2151 585
2151 1642
2151 1674
2151 1695
2151 2150
2151 2760
2151 2798
2151 3236
2151 3389
2151 3407
2151 3868
2151 3921
2151 4155
2151 4161
2151 4164
2151 4563
2151 5224
2151 5225
2151 7823
2151 8582
2151 10355
2152 2293
2152 2506
2152 2646
2152 3450
2152 10012
2152 10811
2152 11316
2152 11317
2152 11318
2153 6628
2153 11319
2153 11320
2153 11321
2154 905
2154 4235
2154 5051
2154 7441
2154 11322
2154 12401
2155 2016
2155 2177
2155 11115
2155 11116
2155 11294
2155 11323
2156 805
2156 995
2156 1638
2156 5430
2156 5688
2156 6764
2156 7677
2156 8223
2157 1456
2157 1723
2157 1846
2157 10808
2157 11324
2157 11325
2157 11326
2158 20
2158 397
2158 594
2158 602
2158 1845
2158 7630
2158 8023
2158 8398
2158 11327
2158 11328
2158 11329
2158 11330
2159 421
2159 607
2159 2269
2159 5752
2159 5945
2159 6950
2159 8847
2159 10260
2159 10261
2159 11021
2159 11331
2160 51
2160 654
2160 992
2160 1369
2160 1745
2160 1920
2160 6863
2160 11170
2160 11332
2160 11333
2161 116
2161 272
2161 316
2161 357
2161 428
2161 431
2161 1912
2161 1920
2161 2214
2161 2876
2161 3076
2161 3087
2162 102
2162 918
2162 953
2162 1478
2162 2288
2162 2819
2162 4463
2162 6729
2162 7186
2162 8162
2162 8164
2162 11334
2162 11335
2163 890
2163 1962
2163 2622
2163 3353
2163 3518
2163 3594
2163 3713
2163 3717
2163 4771
2163 5099
2163 5577
2163 5579
2163 5603
2163 5604
2163 5643
2163 7188
2163 7974
2163 8250
2163 11336
2164 1571
2164 3886
2164 5152
2164 5156
2164 7628
2164 11337
2164 11338
2165 5287
2165 5289
2165 7992
2165 11339
2165 11340
2166 7992
2166 8018
2166 11341
2166 11342
2166 11343
2166 11344
2167 1999
2167 7168
2167 8667
2167 9551
2167 10612
2167 11086
2167 11345
2168 353
2168 652
2168 1421
2168 1608
2168 2273
2168 5081
2168 5246
2168 5322
2168 5407
2168 6810
2168 8141
2168 9208
2168 9216
2168 9874
2168 10268
2168 10270
2168 11346
2169 7018
2169 7808
2169 7811
2169 8278
2169 9714
2169 10109
2169 11347
2169 11348
2169 11349
2170 595
2170 2615
2170 2862
2170 6696
2170 6847
2170 9150
2170 9272
2170 9723
2170 11350
2170 11351
2170 11352
2171 452
2171 949
2171 1054
2171 2088
2171 2873
2171 5144
2171 6808
2171 8136
2171 10231
2171 11353
2171 11354
2171 11355
2172 2471
2172 4021
2172 4078
2172 4706
2172 5518
2172 7742
2172 7744
2172 9268
2172 11356
2173 11
2173 36
2173 37
2173 57
2173 61
2173 67
2173 79
2173 362
2173 1137
2173 1195
2173 2753
2173 3124
2173 3967
2173 4665
2173 4929
2173 5036
2173 8484
2173 9103
2174 47
2174 396
2174 1621
2174 2467
2174 2640
2174 2956
2174 3671
2174 3672
2174 10316
2174 11357
2175 29
2175 38
2175 64
2175 238
2175 460
2175 1185
2175 1470
2175 2259
2175 2468
2175 3223
2175 3370
2175 5404
2175 6032
2175 6481
2175 7735
2175 9905
2176 798
2176 982
2176 1573
2176 8304
2176 11358
2176 11359
2177 2016
2177 2155
2177 11116
2177 11294
2177 11323
2177 11360
2178 770
2178 7404
2178 8625
2179 144
2179 153
2179 166
2179 262
2179 282
2179 317
2179 495
2179 644
2179 691
2179 693
2179 779
2179 871
2179 1249
2179 1678
2179 2344
2179 2348
2179 2374
2179 2446
2179 2967
2179 3148
2179 11054
2180 2086
2180 2263
2180 2334
2180 2335
2180 2839
2180 2931
2180 2946
2180 3544
2180 3545
2180 9008
2180 9787
2180 11361
2180 11362
2181 35
2181 69
2181 71
2181 81
2181 1147
2181 2292
2181 2435
2181 3068
2181 3568
2181 4140
2181 5956
2181 6388
2181 8423
2181 9311
2181 9704
2181 10917
2181 11363
2182 793
2182 881
2182 1328
2182 1629
2182 1801
2182 2210
2182 2390
2182 4202
2182 4699
2182 4700
2182 7490
2182 7493
2182 7494
2182 8857
2182 8863
2182 10320
2182 11364
2183 3906
2183 7070
2183 11365
2183 11366
2184 42
2184 45
2184 62
2184 906
2184 1033
2184 1067
2184 1235
2184 1746
2184 2945
2184 3146
2184 3325
2184 3326
2184 3404
2184 3408
2184 3493
2184 3496
2185 345
2185 1220
2185 1709
2185 1905
2185 2717
2185 2793
2185 2797
2185 3403
2185 3404
2185 3497
2185 3501
2185 4830
2185 5187
2185 6490
2185 9105
2185 10290
2185 11367
2185 11368
2186 1323
2186 1540
2186 6452
2186 10404
2186 11359
2186 11369
2187 6953
2187 8605
2187 8608
2187 8609
2187 8613
2187 10182
2187 11370
2188 4421
2188 5235
2188 7469
2188 8924
2188 10526
2188 11371
2188 11372
2189 12
2189 73
2189 1194
2189 1707
2189 1855
2189 3125
2189 3603
2189 4150
2189 4988
2189 5470
2189 5471
2189 11373
2190 50
2190 60
2190 115
2190 337
2190 441
2190 469
2190 537
2190 718
2190 774
2190 938
2190 1139
2190 1163
2190 1194
2190 1619
2190 1840
2190 1879
2190 2021
2190 2095
2190 2266
2190 2367
2190 2699
2190 2783
2190 2784
2190 2805
2190 2830
2190 2849
2190 2925
2190 2937
2190 3009
2190 3126
2190 3184
2190 3197
2190 3422
2190 3487
2190 3543
2190 3603
2190 3988
2190 5120
2190 6163
2190 9263
2190 9289
2190 10594
2191 39
2191 58
2191 68
2191 70
2191 75
2191 191
2191 237
2191 238
2191 404
2191 460
2191 689
2191 893
2191 1634
2191 1771
2191 1951
2191 2328
2191 2459
2191 2623
2191 2734
2191 2823
2191 3347
2191 3368
2191 3426
2191 4269
2191 5006
2191 5774
2191 8104
2191 9044
2191 11374
2192 70
2192 1729
2192 5144
2192 5186
2192 5968
2192 11375
2192 11376
2192 11377
2192 11378
2193 3337
2193 3645
2193 4120
2193 4287
2193 4620
2193 5968
2193 6807
2193 9938
2193 11379
2193 11380
2194 2875
2194 4469
2194 5831
2194 7333
2194 7856
2194 7858
2194 8211
2194 9295
2194 9303
2194 11308
2194 11381
2194 11431
2195 376
2195 949
2195 1421
2195 2086
2195 2279
2195 2487
2195 2930
2195 7634
2195 9837
2195 11382
2196 35
2196 69
2196 2430
2196 3570
2196 5030
2196 7563
2196 11147
2196 11168
2196 11383
2196 11384
2197 79
2197 1176
2197 2474
2197 6821
2197 9353
2197 11211
2197 11385
2198 6820
2198 6821
2198 10410
2198 10770
2198 11211
2198 11386
2199 3666
2199 4961
2199 6304
2199 10978
2199 11211
2199 11387
2199 11388
2200 2493
2200 2613
2200 2614
2200 3143
2200 9691
2200 11389
2200 11390
2200 11391
2201 79
2201 80
2201 1121
2201 1271
2201 6363
2201 9593
2201 10512
2202 3602
2202 3694
2202 3742
2202 4107
2202 5919
2202 8255
2202 11392
2203 2864
2203 6205
2203 11393
2204 50
2204 92
2204 184
2204 426
2204 462
2204 468
2204 2057
2204 2272
2204 2302
2204 2925
2204 3308
2204 3309
2204 3427
2204 3624
2204 3782
2204 3784
2204 3787
2204 7736
2204 8325
2204 8908
2205 49
2205 457
2205 458
2205 587
2205 1191
2205 2632
2205 2797
2205 3381
2205 3473
2205 4604
2205 5080
2205 5317
2205 5645
2205 6023
2205 11394
2206 3457
2206 3463
2206 4189
2206 4982
2206 5389
2206 11395
2207 2051
2207 5246
2207 8141
2207 9206
2207 9208
2207 9210
2207 9264
2207 11396
2207 11397
2207 11398
2208 898
2208 949
2208 1421
2208 1608
2208 2279
2208 2562
2208 2955
2208 3041
2208 5082
2208 5969
2208 6941
2208 9208
2208 9216
2208 9220
2208 11396
2208 11397
2208 11399
2208 11400
2209 374
2209 459
2209 828
2209 1957
2209 2753
2209 3124
2209 3457
2209 3463
2209 4926
2209 5073
2209 5781
2209 6028
2209 7157
2209 11241
2209 11401
2209 11402
2210 79
2210 881
2210 885
2210 1145
2210 1380
2210 1629
2210 2182
2210 4699
2210 5374
2210 7872
2210 8863
2210 9499
2210 9853
2210 10832
2210 11403
2210 11404
2211 1145
2211 3682
2211 4178
2211 9485
2211 9487
2211 11405
2212 850
2212 4510
2212 7318
2212 7723
2212 11406
2212 11407
2213 136
2213 896
2213 1351
2213 2904
2213 3225
2213 3284
2213 3584
2213 6361
2213 7271
2213 9487
2213 10181
2213 11408
2213 11409
2213 11410
2214 21
2214 80
2214 81
2214 2161
2214 2291
2214 5428
2214 5430
2214 6764
2214 7500
2214 8222
2214 8226
2214 8414
2214 8888
2214 11411
2214 11412
2215 35
2215 970
2215 1145
2215 1355
2215 3682
2215 4002
2215 4743
2215 4859
2215 4963
2215 6633
2215 6638
2215 11413
2215 11414
2215 11415
2215 11416
2216 80
2216 389
2216 435
2216 465
2216 1314
2216 1323
2216 2292
2216 2464
2216 4386
2216 5505
2216 7444
2216 11417
2217 326
2217 1491
2217 2910
2217 3206
2217 4052
2217 4141
2217 4809
2217 4810
2217 5015
2217 5020
2217 5957
2217 11418
2218 793
2218 2954
2218 5193
2218 5813
2218 6215
2218 6500
2218 7428
2218 9935
2218 11419
2219 8945
2219 11420
2219 11421
2220 47
2220 871
2220 1399
2220 2640
2220 2924
2220 3461
2220 4048
2220 5133
2220 5315
2220 7852
2220 8531
2220 11422
2220 11423
2220 11424
2221 1170
2221 1947
2221 2871
2221 2937
2221 3541
2221 3557
2221 11015
2221 11425
2221 11426
2222 81
2222 2123
2222 5025
2222 5030
2222 7623
2222 11168
2222 11427
2222 11428
2222 11429
2223 3179
2223 6079
2223 7855
2223 11423
2223 11430
2223 11431
2224 730
2224 5389
2224 5483
2224 9604
2224 9729
2224 11432
2224 11433
2225 5544
2225 5545
2225 7774
2225 10085
2225 10086
2225 11434
2225 11435
2225 11436
2226 81
2226 4217
2226 4654
2226 6541
2226 6754
2226 6857
2226 11437
2227 4654
2227 9202
2227 9884
2228 567
2228 1025
2228 1555
2228 3741
2228 6581
2228 6587
2228 10406
2228 11438
2228 11439
2229 90
2229 1458
2229 3775
2229 4194
2229 8277
2229 9864
2229 9867
2229 9868
2230 34
2230 1837
2230 2455
2230 3350
2230 3719
2230 4098
2230 4099
2230 6319
2230 6516
2230 10797
2230 11440
2231 79
2231 203
2231 1740
2231 1750
2231 3522
2231 3531
2231 3533
2231 4178
2231 4402
2231 4404
2231 11441
2231 11442
2231 11443
2232 101
2232 140
2232 454
2232 1044
2232 1215
2232 1545
2232 1775
2232 1897
2232 1982
2232 2003
2232 2425
2232 2528
2232 2781
2232 2901
2232 6390
2232 9192
2232 10976
2233 188
2233 353
2233 646
2233 842
2233 898
2233 935
2233 1369
2233 1749
2233 2255
2233 2544
2233 2797
2233 7725
2233 8140
2234 579
2234 699
2234 1042
2234 1374
2234 1376
2234 2007
2234 2519
2234 6639
2234 7121
2234 9650
2234 11896
2235 43
2235 70
2235 1729
2235 3821
2235 4687
2235 5405
2235 5885
2235 5974
2235 7048
2235 8697
2235 11444
2236 23
2236 26
2236 1160
2236 2991
2236 3524
2236 3528
2236 3608
2236 4174
2236 4176
2236 4180
2236 4183
2236 5283
2236 8327
2236 8976
2236 9003
2236 9007
2236 9803
2236 11445
2236 11446
2236 11447
2237 201
2237 917
2237 1219
2237 1596
2237 2886
2237 4376
2237 4377
2237 4381
2237 8552
2237 11448
2238 243
2238 412
2238 500
2238 1211
2238 4573
2238 4577
2238 4578
2238 4579
2238 5650
2238 5651
2238 5652
2238 5818
2238 7904
2238 7910
2238 11449
2238 11450
2238 11451
2239 122
2239 806
2239 1491
2239 2055
2239 2073
2239 3107
2239 3947
2239 3948
2239 4807
2239 4940
2239 5954
2239 7715
2239 10199
2239 11209
2239 11452
2239 11453
2239 12212
2240 228
2240 1493
2240 1617
2240 2296
2240 2612
2240 2731
2240 3014
2240 3181
2240 3727
2240 3733
2240 3735
2240 4038
2240 4492
2240 5919
2240 7306
2240 8939
2240 11454
2240 11455
2240 11456
2240 11457
2241 2995
2241 5208
2241 6546
2241 6549
2241 6999
2241 11012
2241 11458
2241 11459
2241 11460
2241 11461
2242 1618
2242 4453
2242 4960
2242 4961
2242 6767
2242 7917
2242 8558
2242 11462
2243 80
2243 1484
2243 4002
2243 4482
2243 4960
2243 5151
2243 6003
2243 6636
2243 6638
2243 10403
2243 11463
2243 11464
2244 5570
2244 9355
2244 11303
2244 11465
2245 4021
2245 4432
2245 4838
2245 5108
2245 11023
2245 11466
2246 27
2246 80
2246 81
2246 2124
2246 3193
2246 3941
2246 5340
2246 6684
2246 9410
2246 11467
2246 11468
2247 66
2247 170
2247 792
2247 1137
2247 2282
2247 11177
2247 11469
2248 16
2248 18
2248 31
2248 192
2248 321
2248 469
2248 586
2248 1761
2248 1843
2248 2106
2248 2268
2248 2302
2248 2449
2248 2849
2248 3349
2248 3356
2248 3391
2248 3430
2248 4317
2248 4319
2248 4359
2248 4412
2248 4924
2248 4925
2248 5217
2248 5219
2248 5879
2248 10092
2249 4217
2249 10154
2249 11195
2249 11470
2250 338
2250 924
2250 2484
2250 2698
2250 3148
2250 10185
2250 11095
2250 11471
2250 11472
2250 11473
2250 11474
2251 233
2251 976
2251 4511
2251 4513
2251 5800
2251 6833
2251 6836
2251 8502
2251 8503
2251 8700
2251 11475
2252 40
2252 171
2252 190
2252 1186
2252 1663
2252 1739
2252 1791
2252 1961
2252 3192
2252 3211
2252 3842
2252 6147
2252 9992
2252 10678
2252 10844
2253 40
2253 44
2253 58
2253 63
2253 70
2253 75
2253 238
2253 324
2253 376
2253 386
2253 460
2253 689
2253 1346
2253 1771
2253 1951
2253 2734
2253 3368
2253 3437
2253 4684
2253 5169
2253 5620
2253 5774
2253 6025
2253 6034
2254 311
2254 595
2254 631
2254 754
2254 1122
2254 1134
2254 1387
2254 1479
2254 1751
2254 1767
2254 1852
2254 2258
2254 2549
2254 2612
2254 2628
2254 2700
2254 2864
2254 2880
2254 4039
2254 6206
2254 6495
2254 6845
2254 10613
2254 10830
2255 437
2255 2233
2255 3653
2255 4090
2255 4677
2255 5851
2255 11476
2255 11477
2256 333
2256 457
2256 967
2256 1017
2256 1184
2256 1222
2256 1372
2256 1531
2256 2840
2256 3325
2256 3382
2256 9641
2256 10545
2256 11478
2257 311
2257 1072
2257 1617
2257 1999
2257 2309
2257 2478
2257 2549
2257 2719
2257 2938
2257 3412
2257 4339
2257 4341
2257 4932
2257 6253
2257 7507
2257 7511
2257 10830
2257 10848
2257 11236
2257 11479
2257 11480
2257 11481
2257 11551
2258 311
2258 1134
2258 1919
2258 1999
2258 2030
2258 2058
2258 2254
2258 2296
2258 2478
2258 2537
2258 2542
2258 2612
2258 2719
2258 2880
2258 2938
2258 3218
2258 4038
2258 4039
2258 6253
2258 6495
2258 7511
2258 11482
2258 11483
2259 64
2259 238
2259 376
2259 426
2259 460
2259 470
2259 690
2259 848
2259 1105
2259 1109
2259 1470
2259 1656
2259 2065
2259 2068
2259 2175
2259 2328
2259 3223
2259 3371
2259 7735
2259 9088
2259 11484
2260 7491
2260 7492
2260 8688
2260 9366
2260 11485
2260 11486
2261 35
2261 61
2261 5722
2261 5921
2261 7158
2261 8850
2261 11487
2261 11488
2262 770
2262 1918
2262 4547
2262 4825
2262 6192
2262 7437
2262 8002
2262 8005
2262 8520
2262 10718
2262 11489
2262 11490
2262 11491
2263 68
2263 1112
2263 1679
2263 2180
2263 2334
2263 2401
2263 2867
2263 2919
2263 3544
2263 3545
2263 3552
2263 7419
2263 10449
2263 10681
2263 10683
2264 73
2264 570
2264 1136
2264 1194
2264 1232
2264 2441
2264 2558
2264 2843
2264 3060
2264 3125
2264 3428
2264 4298
2264 8917
2264 9289
2264 10595
2265 2599
2265 10149
2265 11468
2265 11492
2265 11493
2266 32
2266 50
2266 53
2266 70
2266 774
2266 938
2266 1194
2266 1303
2266 2190
2266 2367
2266 2555
2266 2741
2266 2805
2266 2937
2266 3203
2266 3487
2266 10536
2266 10594
2266 11494
2267 37
2267 46
2267 57
2267 59
2267 67
2267 679
2267 815
2267 1195
2267 1662
2267 1760
2267 2753
2267 4206
2267 4566
2267 4795
2267 4911
2267 6850
2267 7979
2267 10770
2267 11048
2268 45
2268 54
2268 62
2268 70
2268 192
2268 207
2268 437
2268 458
2268 572
2268 586
2268 731
2268 1067
2268 1114
2268 1191
2268 1235
2268 1489
2268 1531
2268 1709
2268 2248
2268 2274
2268 2360
2268 2420
2268 2794
2268 3031
2268 3349
2268 3404
2268 3501
2268 3613
2268 4319
2268 4323
2268 5855
2268 6163
2268 7979
2268 10499
2268 11495
2269 566
2269 2159
2269 10261
2269 11022
2269 11496
2269 11497
2270 80
2270 3851
2270 3866
2270 4386
2270 4520
2270 6448
2270 10631
2270 10986
2270 11498
2271 395
2271 2839
2271 2867
2271 2895
2271 3077
2271 3443
2271 3447
2271 3545
2271 3555
2271 11499
2272 43
2272 63
2272 198
2272 246
2272 248
2272 350
2272 452
2272 474
2272 538
2272 553
2272 853
2272 1159
2272 1316
2272 1383
2272 1475
2272 2204
2272 2637
2272 2804
2272 3336
2272 3619
2272 3629
2272 3785
2272 3789
2272 4308
2272 4355
2272 4620
2272 4958
2272 6358
2272 8907
2272 8909
2272 10839
2272 10871
2272 11500
2273 2168
2273 5005
2273 6808
2273 6810
2273 6924
2273 6937
2273 7765
2273 8136
2273 11501
2273 11502
2273 11503
2274 42
2274 54
2274 62
2274 458
2274 587
2274 1029
2274 1033
2274 2268
2274 2751
2274 3382
2274 3383
2274 3384
2274 3441
2274 3476
2274 3494
2274 3647
2274 3650
2274 4286
2274 4323
2274 5855
2274 10499
2274 11504
2274 11505
2274 12043
2275 42
2275 54
2275 62
2275 77
2275 1184
2275 1952
2275 2751
2275 3381
2275 3384
2275 3441
2275 3476
2275 3651
2275 4286
2275 4323
2275 5077
2275 7834
2275 9561
2275 11291
2275 11506
2276 9613
2276 9789
2276 11230
2276 12931
2277 69
2277 1724
2277 3563
2277 8037
2277 9525
2277 10911
2277 11508
2277 11509
2277 11510
2277 11511
2278 1885
2278 5874
2278 8390
2278 10905
2278 11512
2278 11513
2279 394
2279 949
2279 1308
2279 1639
2279 2195
2279 2208
2279 2678
2279 2797
2279 3658
2279 6941
2279 8138
2279 8140
2279 8141
2279 11514
2280 2333
2280 3687
2280 4035
2280 4735
2280 4760
2280 5738
2280 5740
2280 7143
2280 11515
2280 11516
2281 11
2281 57
2281 59
2281 67
2281 362
2281 1030
2281 1195
2281 1760
2281 3967
2281 4088
2281 4665
2281 7867
2281 7870
2281 7941
2281 8484
2281 8485
2281 8486
2281 10005
2282 691
2282 792
2282 1683
2282 2247
2282 3536
2282 3932
2282 5438
2282 6543
2282 7087
2282 7761
2282 11091
2282 11517
2283 587
2283 3381
2283 3383
2283 3485
2283 5077
2283 5079
2283 7368
2283 7370
2283 11518
2284 19
2284 80
2284 709
2284 1939
2284 1953
2284 2536
2284 3584
2284 3816
2284 4335
2284 5719
2284 7758
2284 11147
2284 11519
2285 448
2285 783
2285 953
2285 1196
2285 4308
2285 4788
2285 4789
2285 5522
2285 5697
2285 5770
2285 5771
2285 6659
2285 6735
2285 7451
2285 11520
2286 1245
2286 1494
2286 2676
2286 6774
2286 8801
2286 9973
2286 11521
2287 5572
2287 7176
2287 7630
2287 8024
2287 11001
2287 11002
2287 11522
2288 918
2288 953
2288 1478
2288 2162
2288 8162
2288 8164
2289 67
2289 2093
2289 3463
2289 4027
2289 5355
2289 6805
2289 11523
2290 2882
2290 4107
2290 8765
2290 8850
2290 11236
2290 11524
2290 11525
2291 80
2291 202
2291 387
2291 389
2291 412
2291 478
2291 781
2291 1314
2291 1323
2291 1509
2291 2214
2291 2292
2291 2464
2291 3186
2291 3406
2291 3576
2291 3579
2291 3838
2291 4055
2291 4326
2291 4328
2291 4386
2291 4547
2291 4548
2291 5505
2291 7444
2291 7695
2291 9983
2291 11526
2292 80
2292 248
2292 335
2292 348
2292 418
2292 435
2292 445
2292 465
2292 500
2292 523
2292 541
2292 628
2292 666
2292 882
2292 951
2292 1164
2292 1314
2292 1323
2292 1501
2292 1832
2292 2181
2292 2216
2292 2291
2292 2448
2292 2464
2292 3010
2292 3579
2292 4386
2292 5505
2292 7444
2292 9475
2292 11417
2293 599
2293 2152
2293 4199
2293 7089
2293 7934
2293 11316
2293 11527
2294 4875
2294 7934
2294 8575
2294 11528
2294 11529
2295 8116
2295 8118
2295 9766
2295 10887
2295 11530
2296 84
2296 146
2296 228
2296 1134
2296 1299
2296 1493
2296 1722
2296 2240
2296 2258
2296 2348
2296 2444
2296 2683
2296 2731
2296 3289
2296 4039
2296 4490
2296 4492
2296 7306
2296 8913
2296 11456
2296 11457
2296 11531
2297 251
2297 286
2297 1219
2297 2928
2297 3865
2297 5517
2297 6614
2297 9388
2297 11532
2298 17
2298 122
2298 341
2298 352
2298 451
2298 663
2298 959
2298 1058
2298 1315
2298 1335
2298 1491
2298 1516
2298 1590
2298 2055
2298 2865
2298 3065
2298 3107
2298 3964
2298 4141
2298 4809
2298 4813
2298 4943
2298 5157
2298 5959
2298 6759
2298 6978
2298 8520
2298 11533
2299 298
2299 630
2299 2618
2299 4866
2299 4867
2299 4868
2299 5783
2299 6841
2299 6844
2299 6963
2299 11534
2299 11535
2299 11536
2300 3931
2300 4225
2300 8337
2300 8652
2300 10022
2300 11537
2300 11538
2300 11539
2301 5654
2301 11540
2302 31
2302 53
2302 58
2302 63
2302 461
2302 586
2302 938
2302 1138
2302 1357
2302 1467
2302 1785
2302 1841
2302 1843
2302 2101
2302 2204
2302 2248
2302 2794
2302 2883
2302 3211
2302 3349
2302 3356
2302 3396
2302 3427
2302 3429
2302 3430
2302 3436
2302 3625
2302 3842
2302 4143
2302 4317
2302 4319
2302 4359
2302 4412
2302 4925
2302 6052
2302 6570
2302 10092
2303 53
2303 92
2303 93
2303 237
2303 322
2303 441
2303 471
2303 475
2303 537
2303 1120
2303 1133
2303 1146
2303 1171
2303 1183
2303 1186
2303 1488
2303 1587
2303 1619
2303 1648
2303 1739
2303 1894
2303 2021
2303 2112
2303 2150
2303 2331
2303 2349
2303 2377
2303 2883
2303 2952
2303 3211
2303 3278
2303 3287
2303 3308
2303 3425
2303 10781
2304 3826
2304 3829
2304 3937
2304 4122
2304 6315
2304 6333
2304 7123
2304 7694
2304 8643
2304 10397
2304 11541
2304 11542
2305 3829
2305 6333
2305 6865
2305 7692
2305 11543
2305 11544
2305 11545
2305 12066
2306 300
2306 336
2306 346
2306 1248
2306 1469
2306 4067
2306 5110
2306 5191
2306 7469
2306 8145
2306 8637
2306 9194
2306 10526
2306 10527
2306 11546
2307 229
2307 857
2307 2651
2307 3216
2307 7749
2307 8063
2307 8132
2307 11547
2307 11548
2308 10
2308 381
2308 1617
2308 2893
2308 3728
2308 3729
2308 5447
2308 5454
2308 5456
2308 6359
2308 8989
2308 11549
2309 1999
2309 2257
2309 4772
2309 4932
2309 4937
2309 5716
2309 7509
2309 7511
2309 8667
2309 9858
2309 10830
2309 11481
2309 11550
2309 11551
2310 1391
2310 2614
2310 3143
2310 4061
2310 9690
2310 9691
2310 10293
2310 11552
2310 11553
2310 11554
2311 76
2311 1343
2311 3633
2311 3991
2311 8821
2311 9020
2311 11555
2311 11556
2311 11557
2312 76
2312 133
2312 1877
2312 2565
2312 3002
2312 3633
2312 3792
2312 3990
2312 4355
2312 9765
2312 11281
2312 11555
2312 11558
2313 1908
2313 2022
2313 9422
2313 10949
2313 11125
2313 11559
2313 11560
2314 3769
2314 4696
2314 4699
2314 4711
2314 5809
2314 6222
2314 7875
2314 8994
2314 11561
2314 11562
2314 11563
2315 57
2315 1809
2315 4691
2315 5580
2315 9282
2315 11564
2316 922
2316 6765
2316 7665
2316 8333
2316 8399
2316 10064
2316 11565
2317 3608
2317 9110
2317 11566
2317 11567
2318 6300
2318 10613
2318 11568
2319 146
2319 1122
2319 3733
2319 4335
2319 7507
2319 8514
2319 9575
2319 10274
2319 10540
2319 11488
2319 11569
2320 1546
2320 3773
2320 4222
2320 8466
2320 8625
2320 9407
2320 10747
2320 11570
2320 11571
2320 11572
2321 3188
2321 10747
2321 11573
2321 11574
2322 211
2322 5661
2322 6366
2322 6953
2322 7398
2322 8238
2322 9276
2322 9496
2322 11575
2322 11576
2322 11577
2323 759
2323 2026
2323 9276
2323 9277
2323 9278
2324 31
2324 475
2324 740
2324 1136
2324 1641
2324 4466
2324 5486
2324 6047
2324 6657
2324 7288
2324 8489
2324 10421
2324 11578
2325 780
2325 1542
2325 4813
2325 5565
2325 6869
2325 8267
2325 8502
2325 8503
2325 11579
2325 11580
2326 2575
2326 4744
2326 5425
2326 5685
2326 11581
2326 11582
2326 11583
2327 39
2327 58
2327 63
2327 64
2327 853
2327 893
2327 2328
2327 2823
2327 3373
2327 3374
2327 4257
2327 4258
2327 4306
2327 4366
2327 4446
2327 4924
2327 5846
2327 7714
2327 11584
2328 39
2328 237
2328 296
2328 388
2328 470
2328 472
2328 536
2328 702
2328 721
2328 776
2328 853
2328 1502
2328 1619
2328 1826
2328 2112
2328 2191
2328 2259
2328 2327
2328 2623
2328 2685
2328 2811
2328 3020
2328 3506
2329 1027
2329 9271
2329 9973
2329 11585
2329 11586
2330 133
2330 263
2330 1142
2330 1317
2330 1418
2330 2783
2330 3002
2330 3792
2330 3986
2330 3988
2330 3989
2330 4268
2330 5446
2330 8176
2330 9288
2330 9765
2330 11281
2331 33
2331 53
2331 321
2331 442
2331 585
2331 822
2331 1695
2331 1962
2331 2303
2331 2622
2331 2830
2331 3125
2331 3638
2331 3721
2331 3745
2331 3750
2331 4778
2331 5604
2331 6099
2331 7178
2331 10348
2331 11587
2332 780
2332 2412
2332 5050
2332 5054
2332 5299
2332 7438
2332 10251
2332 10872
2332 11588
2333 71
2333 2280
2333 4610
2333 4748
2333 4886
2333 5982
2333 8224
2333 8878
2333 11589
2333 11590
2334 738
2334 1427
2334 1778
2334 2180
2334 2263
2334 2931
2334 2946
2334 3544
2334 3545
2334 3552
2334 7419
2334 7940
2334 9012
2334 10447
2334 10597
2334 10683
2334 11226
2334 11591
2335 2180
2335 6841
2335 7279
2335 7281
2335 7975
2335 11226
2336 29
2336 38
2336 52
2336 2838
2336 2884
2336 3347
2336 3892
2336 4449
2336 4793
2336 5780
2336 5972
2336 8218
2336 8818
2336 11005
2337 650
2337 3771
2337 4011
2337 4669
2337 5633
2337 10042
2337 11592
2337 11593
2338 46
2338 505
2338 526
2338 622
2338 626
2338 716
2338 3460
2338 3507
2338 4047
2338 4048
2338 4766
2338 5478
2338 6337
2338 7615
2339 30
2339 60
2339 309
2339 1400
2339 1521
2339 2143
2339 2504
2339 3073
2339 3126
2339 3479
2339 3799
2339 6428
2339 8922
2339 10790
2340 1289
2340 1308
2340 3369
2340 3372
2340 4279
2340 7633
2340 9921
2340 11594
2341 345
2341 1184
2341 1291
2341 1640
2341 5181
2341 6092
2341 7254
2341 9409
2341 9413
2341 10072
2341 11595
2341 11596
2342 7410
2342 8024
2342 11132
2342 11597
2343 4805
2343 4810
2343 11598
2343 11599
2343 11600
2344 262
2344 1975
2344 2179
2344 2445
2344 3148
2344 3192
2344 3518
2344 4671
2344 5124
2344 6155
2344 6186
2344 7819
2344 9672
2344 11601
2345 14
2345 340
2345 376
2345 816
2345 893
2345 3805
2345 4288
2345 4446
2345 4603
2345 4857
2345 5011
2345 5186
2345 5967
2345 6084
2345 6323
2345 7049
2345 7635
2345 7766
2345 9562
2345 9612
2345 11602
2345 11603
2346 7335
2346 11604
2347 81
2347 339
2347 360
2347 3674
2347 3677
2347 3900
2347 4328
2347 5088
2347 5305
2347 5307
2347 5420
2347 5800
2347 5913
2348 495
2348 948
2348 2179
2348 2296
2348 2445
2348 2446
2348 2892
2348 3190
2348 3192
2348 3729
2348 4118
2348 4171
2348 11605
2349 31
2349 34
2349 40
2349 73
2349 958
2349 1111
2349 1174
2349 2303
2349 2377
2349 2504
2349 2622
2349 2804
2349 3066
2349 3073
2349 3125
2349 3336
2349 3350
2349 3432
2349 3726
2349 4667
2349 4956
2349 4958
2349 6105
2349 6428
2349 7834
2349 8174
2349 8446
2349 8843
2349 8844
2350 3632
2350 3639
2350 3640
2350 3854
2350 5103
2350 7259
2350 11606
2351 40
2351 52
2351 383
2351 3261
2351 4070
2351 4152
2351 4300
2351 5346
2351 5655
2351 5659
2352 1640
2352 3378
2352 3382
2352 5080
2352 5219
2352 7822
2352 11607
2353 1644
2353 2668
2353 4577
2353 5552
2353 5649
2353 5938
2353 7666
2353 7786
2353 10360
2353 11128
2353 11608
2354 38
2354 2445
2354 3713
2354 4771
2354 5580
2354 5603
2354 6164
2354 6336
2354 6971
2354 6992
2354 7672
2354 11593
2354 11609
2355 56
2355 81
2355 446
2355 1019
2355 1722
2355 2036
2355 4386
2355 8450
2355 8452
2355 10609
2355 10917
2355 11610
2356 3221
2356 4075
2356 4191
2356 4194
2356 7473
2356 9185
2356 11611
2357 235
2357 4524
2357 9305
2357 10565
2357 10988
2357 11407
2357 11612
2358 8
2358 29
2358 53
2358 63
2358 190
2358 323
2358 1136
2358 1186
2358 1357
2358 1475
2358 1488
2358 1550
2358 1561
2358 1798
2358 1859
2358 1874
2358 2525
2358 2951
2358 3069
2358 3173
2358 3244
2358 3261
2358 3342
2358 3347
2358 3726
2358 3787
2358 3917
2358 4146
2358 4300
2358 4958
2358 4997
2358 8822
2358 9921
2359 77
2359 480
2359 587
2359 1425
2359 2360
2359 3476
2359 3634
2359 4323
2359 5848
2359 5855
2359 8736
2359 9781
2359 11613
2360 45
2360 1033
2360 1425
2360 1837
2360 2268
2360 2359
2360 3650
2360 3940
2360 8733
2360 8735
2360 8736
2360 9779
2360 9781
2360 11614
2361 723
2361 914
2361 1224
2361 3940
2361 6434
2361 7101
2361 7354
2361 11615
2361 11616
2362 4986
2362 6643
2362 10300
2362 11617
2363 6426
2363 11095
2363 11618
2363 11619
2363 11620
2364 688
2364 1261
2364 2554
2364 2692
2364 2830
2364 3007
2364 4268
2364 4276
2364 7079
2364 11621
2364 11622
2364 11623
2364 11624
2365 3850
2365 5158
2365 11625
2366 5372
2366 8711
2366 8714
2366 9853
2366 11626
2367 68
2367 337
2367 340
2367 344
2367 470
2367 771
2367 863
2367 893
2367 1112
2367 1729
2367 1947
2367 2190
2367 2266
2367 2871
2367 2937
2367 2960
2367 3203
2367 3571
2367 10594
2368 1060
2368 1740
2368 1750
2368 6527
2368 9757
2368 11627
2369 79
2369 632
2369 917
2369 1176
2369 1177
2369 3082
2369 3535
2369 4381
2369 4541
2369 5720
2369 6349
2369 6564
2369 10243
2369 11366
2370 400
2370 5564
2370 6308
2370 9678
2370 11628
2370 11629
2371 4743
2371 9862
2371 11408
2371 11630
2371 11631
2372 2374
2372 2892
2372 3082
2372 3453
2372 3462
2372 3484
2372 4338
2372 4539
2372 5059
2372 5929
2372 6556
2372 11054
2372 11081
2373 528
2373 1253
2373 1402
2373 2536
2373 2995
2373 3134
2373 3264
2373 3657
2373 4082
2373 4087
2373 5456
2373 5833
2373 5924
2373 5927
2373 5929
2373 6408
2373 11632
2373 11633
2374 495
2374 693
2374 1975
2374 2179
2374 2372
2374 2395
2374 2445
2374 3190
2374 3192
2374 4246
2374 5924
2374 5927
2374 5929
2374 7100
2374 9635
2375 1617
2375 2893
2375 2938
2375 3218
2375 4108
2375 4715
2375 9155
2375 10293
2375 11634
2376 335
2376 814
2376 1976
2376 3343
2376 5097
2376 10479
2376 11635
2376 11636
2376 11637
2376 11638
2377 52
2377 58
2377 63
2377 474
2377 536
2377 559
2377 684
2377 822
2377 1655
2377 1776
2377 2303
2377 2349
2377 2504
2377 2622
2377 2648
2377 2958
2377 3070
2377 3125
2377 3185
2377 3346
2377 3351
2377 3352
2377 3434
2377 3797
2377 4958
2378 47
2378 2640
2378 3415
2378 3484
2378 5055
2378 5056
2378 5940
2378 7699
2378 7798
2378 11106
2378 11107
2378 11639
2379 71
2379 554
2379 1147
2379 3568
2379 5025
2379 5029
2379 7623
2379 9313
2379 10621
2379 11169
2379 11640
2379 11641
2380 719
2380 1363
2380 1543
2380 6391
2380 7806
2380 7809
2380 10100
2380 11642
2380 11643
2380 11644
2381 228
2381 1683
2381 2444
2381 2557
2381 2726
2381 3032
2381 3094
2381 3727
2381 3735
2381 4038
2381 4490
2381 4492
2381 6696
2381 7308
2381 11645
2382 1145
2382 4910
2382 5286
2382 5291
2382 8935
2382 9863
2382 11646
2383 12
2383 43
2383 1194
2383 1196
2383 1706
2383 2553
2383 4274
2383 4313
2383 4532
2383 5175
2383 7281
2383 11647
2383 11648
2384 6
2384 194
2384 923
2384 1866
2384 2892
2384 3082
2384 3729
2384 4230
2384 10483
2384 10865
2384 10868
2384 11649
2385 3323
2385 8005
2385 9407
2385 9408
2385 11650
2386 836
2386 912
2386 5502
2386 5503
2386 6458
2386 7105
2386 9885
2386 11651
2386 11652
2387 5510
2387 6875
2387 11653
2388 36
2388 67
2388 459
2388 1195
2388 2753
2388 3457
2388 3463
2388 4928
2388 5069
2388 5394
2388 5781
2388 5998
2388 9607
2388 11241
2388 11654
2389 8131
2389 11655
2389 11656
2389 11729
2390 23
2390 2182
2390 2443
2390 4180
2390 9852
2390 9853
2390 11657
2391 8869
2391 9226
2391 9228
2391 11658
2391 11659
2392 80
2392 642
2392 8332
2392 9228
2392 11660
2393 2783
2393 2784
2393 3002
2393 3798
2393 3988
2393 4674
2393 7250
2393 10999
2393 11661
2394 787
2394 3489
2394 5862
2394 7761
2394 8742
2394 8970
2394 9473
2394 11662
2394 11663
2395 1367
2395 1829
2395 1939
2395 2374
2395 2536
2395 2748
2395 3134
2395 3135
2395 4229
2395 7498
2395 7503
2395 9079
2395 10967
2395 11664
2396 5722
2396 6720
2396 10444
2396 10718
2396 11665
2396 11666
2397 8036
2397 10674
2397 10675
2397 11667
2397 11668
2398 355
2398 573
2398 592
2398 1044
2398 2653
2398 5260
2398 5261
2398 5262
2398 5616
2398 6681
2398 7200
2398 8542
2398 10955
2398 11669
2398 11670
2398 11671
2399 71
2399 4748
2399 4886
2399 5982
2399 11672
2400 4775
2400 5713
2400 9873
2400 11673
2400 11674
2401 77
2401 1427
2401 1778
2401 2086
2401 2263
2401 2839
2401 2867
2401 3544
2401 3545
2401 3552
2401 7419
2401 10252
2401 10449
2401 10597
2401 10683
2402 185
2402 350
2402 2424
2402 2760
2402 3615
2402 3721
2402 5204
2402 5223
2402 7006
2402 8249
2402 8428
2402 10571
2403 1229
2403 1695
2403 2622
2403 3475
2403 7006
2403 9229
2403 11675
2403 11676
2404 1288
2404 7715
2404 11677
2405 246
2405 1526
2405 3518
2405 3770
2405 3805
2405 4852
2405 5344
2405 10054
2405 11678
2405 11679
2406 1237
2406 1578
2406 7957
2406 9249
2406 9614
2407 898
2407 6077
2407 7644
2407 7957
2407 11038
2407 11680
2408 1816
2408 6077
2408 7957
2408 7958
2408 10352
2408 11681
2409 341
2409 663
2409 680
2409 842
2409 849
2409 1302
2409 1590
2409 1764
2409 2569
2409 2802
2409 3011
2409 3107
2409 3149
2409 4141
2409 4809
2409 6982
2409 7957
2409 11344
2410 81
2410 782
2410 1588
2410 1718
2410 4384
2410 4387
2410 4388
2410 5083
2410 5087
2410 5091
2410 5094
2410 5688
2410 7450
2410 8336
2411 768
2411 889
2411 980
2411 1004
2411 1127
2411 2712
2411 2777
2411 3221
2411 4191
2411 4724
2411 5544
2411 6981
2411 8297
2411 10097
2412 1600
2412 2332
2412 2413
2412 2557
2412 2852
2412 7311
2412 7313
2412 10880
2413 746
2413 2412
2413 2415
2413 7311
2413 7314
2413 10880
2413 11682
2414 1606
2414 2030
2414 2543
2414 2719
2414 2938
2414 3014
2414 3218
2414 3331
2414 11683
2415 746
2415 1396
2415 1594
2415 1871
2415 2413
2415 7311
2415 10880
2416 412
2416 4918
2416 5651
2416 7202
2416 7394
2416 7910
2416 8282
2416 10675
2416 10983
2416 11684
2417 676
2417 1696
2417 2601
2417 2906
2417 3572
2417 10480
2418 17
2418 680
2418 2055
2418 4730
2418 4807
2418 4941
2418 7042
2418 7679
2418 9478
2418 11685
2418 11686
2419 7259
2419 8692
2419 11687
2419 11688
2420 54
2420 68
2420 2268
2420 2632
2420 2717
2420 3494
2420 3645
2420 3650
2420 4373
2420 4598
2420 5182
2420 5249
2420 5855
2420 7153
2420 7532
2420 7640
2420 11689
2420 11690
2421 22
2421 35
2421 69
2421 81
2421 1554
2421 2575
2421 2978
2421 3710
2421 8075
2421 11691
2422 814
2422 1149
2422 1819
2422 2976
2422 3207
2422 3963
2422 4430
2422 6453
2422 7568
2422 11692
2423 218
2423 338
2423 925
2423 962
2423 1249
2423 2739
2423 2781
2423 3163
2423 4461
2423 7495
2423 7497
2423 11091
2424 118
2424 227
2424 530
2424 585
2424 903
2424 1229
2424 2402
2424 2560
2424 3897
2424 5223
2424 7990
2424 9959
2425 79
2425 351
2425 2232
2425 3630
2425 6283
2425 7495
2425 11118
2426 61
2426 6622
2426 8888
2426 11693
2427 5261
2427 5714
2427 7008
2427 7620
2427 8204
2427 8888
2427 11044
2427 11694
2427 11695
2428 2554
2428 3064
2428 3141
2428 3788
2428 4364
2428 5120
2428 7417
2428 7711
2428 7737
2428 7738
2428 10780
2428 11602
2428 11696
2429 71
2429 5024
2429 5304
2429 7563
2429 8224
2429 8782
2429 11697
2429 11698
2430 2048
2430 2196
2430 7563
2430 11699
2431 628
2431 3818
2431 4377
2431 6349
2431 8301
2431 8341
2431 8554
2431 8557
2431 10512
2431 11700
2431 11701
2431 11702
2432 28
2432 2793
2432 6665
2432 11703
2433 4378
2433 6349
2433 8554
2433 11704
2434 51
2434 61
2434 81
2434 464
2434 3530
2434 4399
2434 4735
2434 4760
2434 5738
2434 5741
2434 6068
2434 6529
2434 6543
2434 6563
2434 8880
2434 11705
2434 11706
2435 69
2435 81
2435 103
2435 1394
2435 1703
2435 1745
2435 1817
2435 2049
2435 2181
2435 3291
2435 3560
2435 5302
2435 5956
2436 26
2436 3679
2436 4502
2436 4753
2436 5295
2436 5296
2436 5308
2436 5578
2436 5583
2436 5664
2436 5667
2436 5670
2436 5762
2436 5764
2436 7143
2436 7238
2436 7895
2436 11707
2436 11708
2437 458
2437 1996
2437 3501
2437 3634
2437 4790
2437 5320
2437 5848
2437 5853
2437 7367
2437 10500
2437 10752
2437 11709
2438 2913
2438 3134
2438 3520
2438 3684
2438 4391
2438 4756
2438 5692
2438 7798
2438 9333
2439 35
2439 4576
2439 6681
2439 6684
2439 7168
2439 9477
2439 10212
2439 11451
2439 11710
2439 11711
2440 4710
2440 4977
2440 6501
2440 6986
2440 7265
2440 7798
2440 10156
2440 11639
2440 11712
2440 11713
2441 118
2441 172
2441 452
2441 874
2441 1136
2441 1167
2441 1168
2441 1503
2441 1886
2441 2264
2441 2732
2441 9032
2442 51
2442 81
2442 384
2442 1134
2442 3082
2442 3600
2442 3684
2442 4045
2442 4362
2442 4539
2442 5161
2442 8323
2443 65
2443 78
2443 89
2443 434
2443 716
2443 792
2443 1019
2443 2390
2443 2913
2443 3081
2443 11714
2444 228
2444 1529
2444 1683
2444 2296
2444 2381
2444 3727
2444 3735
2444 4490
2444 4491
2444 4492
2444 7306
2445 82
2445 403
2445 495
2445 948
2445 1041
2445 1249
2445 2344
2445 2348
2445 2354
2445 2374
2445 2446
2445 3120
2445 3180
2445 11714
2446 495
2446 1767
2446 2179
2446 2348
2446 2445
2446 3190
2446 3192
2446 4246
2446 7097
2446 8323
2446 10967
2446 11483
2446 11714
2446 11715
2447 430
2447 2844
2447 3513
2447 3866
2447 4535
2447 6361
2447 6857
2447 7271
2447 7970
2447 9862
2447 11716
2447 11717
2448 1314
2448 2292
2448 2464
2448 4226
2448 10413
2448 11718
2448 11719
2448 11720
2448 11721
2449 54
2449 437
2449 458
2449 1709
2449 2248
2449 3501
2449 5320
2449 5853
2449 10499
2449 10500
2449 11722
2450 149
2450 1256
2450 1361
2450 3825
2450 3829
2450 4847
2450 7754
2450 9309
2450 11723
2450 11724
2450 11725
2451 5161
2451 8065
2451 8067
2451 11726
2451 11727
2452 1618
2452 3142
2452 4109
2452 4840
2452 5284
2452 9025
2452 11728
2452 11729
2453 282
2453 1618
2453 7159
2453 11730
2453 11731
2454 3944
2454 4162
2454 4270
2454 10497
2454 11732
2455 1333
2455 2230
2455 3038
2455 3313
2455 3617
2455 4072
2455 5204
2455 6036
2455 6599
2455 6719
2455 10080
2455 10141
2455 10838
2455 11733
2455 11734
2456 1196
2456 3338
2456 4270
2456 4288
2456 5011
2456 5591
2456 5702
2456 7738
2456 9361
2456 11602
2456 11621
2456 11735
2456 11736
2456 11737
2457 43
2457 3141
2457 3388
2457 5011
2457 7737
2457 7738
2457 11602
2458 2479
2458 2494
2458 2514
2458 10968
2458 11253
2458 11738
2458 11739
2459 75
2459 92
2459 191
2459 192
2459 197
2459 237
2459 349
2459 426
2459 442
2459 468
2459 731
2459 853
2459 1159
2459 1196
2459 1316
2459 1761
2459 1858
2459 2094
2459 2191
2459 3620
2459 3624
2459 3793
2459 4269
2459 4303
2459 4304
2459 4305
2459 4306
2459 4307
2459 4308
2459 4311
2459 4312
2459 4313
2459 4315
2459 4316
2459 4318
2459 4413
2460 80
2460 81
2460 1314
2460 1581
2460 2655
2460 3590
2460 3815
2460 4326
2460 11740
2461 1618
2461 3518
2461 3679
2461 3718
2461 4670
2461 4749
2461 4770
2461 5336
2461 5578
2461 5583
2461 5586
2461 5671
2461 5757
2461 5759
2461 5762
2461 5893
2461 5911
2461 7241
2461 11741
2461 11742
2462 318
2462 2568
2462 5554
2462 5812
2462 6183
2462 6184
2462 7297
2462 7781
2462 10301
2462 11743
2463 25
2463 28
2463 36
2463 37
2463 41
2463 46
2463 57
2463 59
2463 67
2463 295
2463 1195
2463 1759
2463 3853
2463 4456
2463 4850
2463 4928
2463 5329
2463 5332
2463 5457
2463 6083
2464 80
2464 435
2464 1314
2464 2216
2464 2291
2464 2292
2464 2448
2464 4294
2464 7695
2464 9477
2464 9983
2464 11744
2465 520
2465 4966
2465 5689
2465 6228
2465 6331
2465 6333
2465 6931
2465 7607
2465 8945
2465 11214
2465 11745
2465 11746
2466 4035
2466 4966
2466 5689
2466 6328
2466 6525
2466 7606
2466 9777
2466 11747
2467 47
2467 55
2467 78
2467 95
2467 269
2467 396
2467 619
2467 831
2467 1181
2467 1313
2467 1519
2467 1621
2467 1747
2467 2174
2467 2771
2467 2921
2467 3416
2468 64
2468 238
2468 404
2468 460
2468 848
2468 1470
2468 2068
2468 2112
2468 2175
2468 3370
2468 3371
2468 4261
2468 4854
2468 5709
2468 5967
2468 7714
2468 9088
2469 30
2469 49
2469 1495
2469 1521
2469 3479
2469 3796
2469 4368
2469 4869
2469 4990
2469 9119
2469 11748
2470 1343
2470 2742
2470 2783
2470 3064
2470 4262
2470 4368
2470 11749
2470 11750
2471 2172
2471 2695
2471 3583
2471 6504
2471 7357
2471 7359
2471 7361
2471 11751
2471 11752
2472 61
2472 3932
2472 5241
2472 5785
2472 6529
2472 6563
2472 6564
2472 11753
2472 11754
2473 8075
2473 12920
2474 56
2474 625
2474 2076
2474 2197
2474 2997
2474 3907
2474 6821
2474 11756
2475 52
2475 474
2475 1761
2475 1987
2475 2792
2475 3395
2475 3488
2475 9948
2476 1375
2476 3678
2476 3681
2476 5493
2476 6382
2476 6383
2476 11757
2476 11758
2477 563
2477 3676
2477 3678
2477 5978
2477 6383
2477 11759
2477 11760
2477 11761
2478 1269
2478 1751
2478 1999
2478 2257
2478 2258
2478 3218
2478 4341
2478 4932
2478 4937
2479 2458
2479 2514
2479 2861
2479 5821
2479 10968
2479 11253
2479 11738
2479 11739
2479 11762
2480 79
2480 3082
2480 3714
2480 3729
2480 3769
2480 5165
2480 6258
2480 7760
2480 11763
2480 11764
2481 4724
2481 6982
2481 7258
2481 10672
2481 11153
2481 11301
2481 11765
2481 11766
2482 308
2482 911
2482 1704
2482 1723
2482 1848
2482 2633
2482 2689
2482 4075
2482 4191
2482 4195
2482 10097
2482 10234
2482 11491
2483 11
2483 36
2483 46
2483 57
2483 59
2483 67
2483 125
2483 362
2483 449
2483 1026
2483 1195
2483 1760
2483 3201
2483 3856
2483 3967
2483 7941
2484 287
2484 914
2484 948
2484 2250
2484 2875
2484 3139
2484 3148
2484 3178
2484 4804
2484 7497
2484 10053
2484 11767
2485 676
2485 4671
2485 4820
2485 5575
2485 5629
2485 5634
2485 5991
2485 6066
2485 11768
2485 11769
2486 1259
2486 4646
2486 4712
2486 6217
2486 6500
2486 6501
2486 7425
2486 9318
2486 9321
2486 11435
2487 1350
2487 1364
2487 1421
2487 1608
2487 1964
2487 2195
2487 4602
2487 5082
2487 8141
2487 9773
2488 399
2488 569
2488 763
2488 1373
2488 4646
2488 4649
2488 5106
2488 5611
2488 5618
2488 7377
2489 4256
2489 5347
2489 5596
2489 5602
2489 5731
2489 6164
2489 9011
2489 9699
2489 11770
2489 11771
2489 11772
2489 11773
2490 468
2490 537
2490 606
2490 683
2490 1132
2490 1208
2490 1979
2490 2843
2490 3079
2490 3486
2490 3616
2490 3664
2490 4241
2490 5658
2490 5661
2490 9584
2491 8595
2491 11389
2491 11774
2491 11775
2492 836
2492 5367
2492 11321
2492 11776
2493 2200
2493 11389
2493 11391
2494 372
2494 2458
2494 11389
2494 11777
2494 11778
2495 238
2495 2551
2495 4274
2495 4363
2495 4364
2495 7730
2495 11779
2495 11780
2495 11781
2495 11782
2496 1123
2496 1300
2496 4585
2496 7230
2496 7453
2496 7570
2496 8855
2496 9385
2496 11783
2496 11784
2497 7
2497 2698
2497 4530
2497 6296
2497 7655
2497 11785
2498 1595
2498 2605
2498 2649
2498 9249
2498 10238
2498 11786
2499 70
2499 621
2499 3078
2499 3140
2499 3556
2499 5523
2499 7280
2499 9009
2499 10252
2499 11787
2500 785
2500 1494
2500 2578
2500 6372
2500 11788
2500 11789
2501 200
2501 738
2501 1170
2501 1601
2501 3556
2501 10252
2501 10253
2501 11227
2501 11790
2501 11791
2502 166
2502 2505
2502 4115
2502 4117
2502 8667
2502 11792
2502 11793
2503 4115
2503 4116
2503 11793
2503 11794
2504 1016
2504 1741
2504 2339
2504 2349
2504 2377
2504 2837
2504 6152
2504 8844
2504 10591
2505 6
2505 166
2505 2502
2505 2536
2505 2549
2505 4115
2505 4334
2505 7230
2505 11793
2506 599
2506 1084
2506 1448
2506 1939
2506 2152
2506 2573
2506 2646
2506 5554
2506 6461
2506 11795
2506 11796
2506 11797
2506 11798
2507 5098
2507 6505
2507 11799
2508 153
2508 203
2508 792
2508 2738
2508 2739
2508 4031
2508 4032
2508 4391
2508 7487
2508 11177
2509 61
2509 4021
2509 4701
2509 6760
2509 7397
2509 8037
2509 8053
2509 8178
2509 10196
2509 11800
2510 4742
2510 7397
2510 11751
2510 11801
2510 11802
2511 4073
2511 6008
2511 8372
2511 10542
2511 11803
2512 2537
2512 2549
2512 2700
2512 8765
2512 8853
2512 10612
2513 2555
2513 2558
2513 2559
2513 2784
2513 7570
2514 2458
2514 2479
2514 10968
2514 11253
2514 11738
2515 351
2515 3952
2515 3954
2515 4044
2515 4046
2515 5227
2515 5417
2515 10878
2515 11804
2515 11805
2515 11806
2516 210
2516 630
2516 1774
2516 2619
2516 2750
2516 2947
2516 4427
2516 4631
2516 4632
2516 6841
2516 11807
2517 51
2517 81
2517 465
2517 3588
2517 3674
2517 3677
2517 4861
2517 4963
2517 6636
2517 10621
2517 11808
2518 51
2518 69
2518 71
2518 81
2518 1980
2518 4861
2518 6069
2518 11809
2519 382
2519 2234
2519 2546
2519 2571
2519 2597
2519 3705
2519 8536
2519 11810
2519 11811
2519 11812
2520 1429
2520 1551
2520 3507
2520 8038
2520 9440
2520 9795
2520 11813
2521 209
2521 1721
2521 4421
2521 4964
2521 11814
2522 13
2522 209
2522 431
2522 1512
2522 1721
2522 3208
2522 4421
2522 4429
2522 4430
2522 8702
2522 8757
2522 11815
2523 64
2523 1185
2523 3805
2523 3812
2523 5006
2523 6030
2523 6035
2523 7048
2523 7084
2523 7133
2523 7138
2523 11816
2524 144
2524 1979
2524 4638
2524 6283
2524 9032
2524 11817
2524 11818
2525 8
2525 29
2525 38
2525 206
2525 1136
2525 1242
2525 1316
2525 1333
2525 1447
2525 1502
2525 1874
2525 2358
2525 3173
2525 3244
2525 3398
2525 3917
2525 9032
2525 9450
2525 10392
2526 823
2526 3995
2526 4452
2526 8326
2526 10167
2526 11819
2526 11820
2527 1837
2527 6735
2527 11821
2528 1176
2528 1215
2528 2232
2528 8130
2528 11822
2529 1043
2529 4289
2529 6628
2529 7568
2529 11629
2529 11823
2530 13
2530 5936
2530 9125
2530 9805
2530 11824
2530 11825
2531 4979
2531 7687
2531 8375
2531 8864
2531 11023
2531 11731
2531 11826
2531 11827
2531 11828
2532 3536
2532 4180
2532 4405
2532 5741
2533 4111
2533 6856
2533 6951
2533 8949
2533 9848
2533 11829
2534 3274
2534 4289
2534 7190
2534 8457
2534 11830
2535 1409
2535 6951
2535 8949
2535 10241
2535 11831
2536 138
2536 148
2536 166
2536 421
2536 427
2536 450
2536 492
2536 691
2536 754
2536 758
2536 907
2536 971
2536 1137
2536 1299
2536 1386
2536 1392
2536 1493
2536 1683
2536 1829
2536 1861
2536 1919
2536 1997
2536 2284
2536 2373
2536 2395
2536 2505
2536 2731
2536 2736
2536 2748
2536 2864
2536 2880
2536 2995
2536 3001
2536 4945
2536 6678
2536 7570
2536 10612
2537 311
2537 421
2537 499
2537 754
2537 873
2537 1023
2537 1097
2537 1617
2537 1621
2537 1708
2537 1767
2537 1985
2537 2258
2537 2512
2537 2541
2537 2549
2537 2596
2537 2641
2537 2700
2537 2864
2537 2880
2537 2913
2537 3134
2537 3218
2537 3226
2537 4040
2537 4945
2537 8764
2537 10612
2538 1270
2538 1271
2538 2104
2538 3673
2538 4608
2538 4656
2538 4716
2538 9350
2538 11537
2538 11832
2538 11833
2539 117
2539 662
2539 1466
2539 1803
2539 2643
2539 3910
2539 3913
2539 3916
2539 4102
2539 4106
2539 4874
2539 6299
2539 10735
2539 11834
2540 33
2540 75
2540 185
2540 248
2540 463
2540 690
2540 1452
2540 1695
2540 3146
2540 3868
2540 4155
2540 4161
2540 4164
2540 4532
2540 5224
2540 5498
2540 6972
2540 10355
2541 2537
2541 2700
2541 2938
2541 3134
2541 8764
2541 9079
2541 11835
2542 138
2542 2258
2542 2599
2542 2719
2542 2850
2542 4936
2542 7503
2542 9079
2542 11139
2542 11836
2542 11837
2542 11838
2543 1606
2543 2414
2543 2599
2543 2719
2543 7503
2543 7507
2543 8912
2543 11839
2544 1639
2544 2233
2544 4329
2544 10352
2544 11353
2544 11840
2545 81
2545 3582
2545 4389
2545 5095
2545 10563
2545 11841
2546 1042
2546 2519
2546 4329
2546 4843
2546 5867
2546 6445
2546 8347
2546 8440
2546 9760
2546 11842
2547 193
2547 3762
2547 4329
2547 5465
2547 7123
2547 8788
2547 11843
2547 11844
2548 495
2548 1017
2548 3453
2548 3462
2548 3482
2548 4227
2548 6018
2548 9775
2548 11845
2548 11846
2549 492
2549 499
2549 754
2549 1097
2549 1122
2549 1567
2549 1621
2549 2254
2549 2257
2549 2505
2549 2512
2549 2537
2549 2700
2549 2893
2549 3014
2549 3218
2549 3730
2549 4765
2549 4945
2549 6214
2549 8764
2549 8765
2549 11835
2550 33
2550 75
2550 185
2550 248
2550 601
2550 690
2550 3618
2550 3720
2550 4253
2550 4255
2550 4256
2550 4619
2550 4623
2550 4771
2550 5008
2550 5201
2550 5596
2550 8709
2551 2495
2551 2553
2551 4277
2551 10890
2551 11781
2551 11847
2552 419
2552 8067
2552 8068
2552 8851
2552 8853
2552 11848
2553 2383
2553 2551
2553 2604
2553 3986
2553 4277
2553 7473
2553 11780
2553 11781
2553 11849
2554 43
2554 462
2554 774
2554 848
2554 1194
2554 1196
2554 2112
2554 2364
2554 2428
2554 2558
2554 2604
2554 2830
2554 3202
2554 3388
2554 4268
2554 5120
2554 9289
2554 11781
2555 82
2555 115
2555 299
2555 737
2555 1243
2555 1251
2555 1324
2555 1526
2555 1742
2555 1879
2555 1886
2555 2132
2555 2266
2555 2513
2555 2686
2555 2925
2555 3109
2555 3257
2555 3287
2555 3386
2555 3419
2555 3420
2556 93
2556 955
2556 1196
2556 1310
2556 1706
2556 1877
2556 2724
2556 2783
2556 2784
2556 2785
2556 3002
2556 3113
2556 3487
2556 3792
2556 3986
2556 3992
2556 4262
2556 4278
2556 4313
2556 7710
2556 8821
2556 11850
2557 1027
2557 1134
2557 1381
2557 2111
2557 2381
2557 2412
2557 2612
2557 2628
2557 2938
2557 3014
2557 3032
2557 3095
2557 3199
2557 4491
2557 4892
2558 73
2558 187
2558 1163
2558 1700
2558 2095
2558 2147
2558 2264
2558 2513
2558 2554
2558 2559
2558 2604
2558 2804
2558 3197
2558 3203
2558 7570
2559 70
2559 2513
2559 2558
2559 3203
2559 3426
2559 3428
2559 8099
2560 585
2560 1849
2560 2424
2560 3392
2560 3425
2560 5223
2560 6152
2560 6567
2560 7597
2560 9590
2560 9959
2561 68
2561 70
2561 1243
2561 1482
2561 3549
2561 4602
2561 8136
2561 9012
2561 9215
2561 11225
2561 11397
2561 11851
2562 1421
2562 1608
2562 2051
2562 2208
2562 2845
2562 6121
2562 11397
2562 11400
2563 1560
2563 4124
2563 8500
2563 11491
2563 11852
2564 976
2564 1560
2564 4124
2564 4510
2564 5706
2564 5800
2564 8500
2564 10116
2564 11853
2565 29
2565 38
2565 2312
2565 3633
2565 4265
2565 4487
2565 6894
2565 10782
2565 11854
2566 1746
2566 9557
2566 9558
2566 11855
2566 11856
2567 36
2567 46
2567 57
2567 59
2567 67
2567 1195
2567 1362
2567 3858
2567 5482
2567 5781
2567 6337
2567 7615
2568 1669
2568 2462
2568 4697
2568 4977
2568 5819
2568 6222
2568 7872
2568 9816
2568 11857
2569 1766
2569 2055
2569 2409
2569 3065
2569 3107
2569 3961
2569 4940
2569 5196
2569 5836
2569 10651
2569 11858
2569 11859
2570 769
2570 5150
2570 5155
2570 5836
2570 6073
2570 6074
2570 6504
2570 11860
2570 11861
2571 2519
2571 2597
2571 5463
2571 6746
2571 8536
2571 11862
2572 3291
2572 4415
2572 4608
2572 7602
2573 2506
2573 4744
2573 5509
2573 8710
2573 11863
2574 81
2574 378
2574 2078
2574 3954
2574 4055
2574 4332
2574 4484
2574 5095
2574 11864
2574 11865
2575 81
2575 297
2575 1121
2575 1554
2575 2326
2575 2421
2575 4332
2575 4484
2575 4862
2575 5302
2575 5689
2575 6328
2575 11866
2576 1466
2576 2583
2576 4216
2576 6187
2576 9894
2577 35
2577 69
2577 80
2577 81
2577 1145
2577 1355
2577 4216
2577 9314
2577 10903
2578 355
2578 1044
2578 1053
2578 1670
2578 2500
2578 2653
2578 5986
2578 6391
2578 11143
2578 11867
2578 11868
2579 38
2579 52
2579 1135
2579 1183
2579 3796
2579 5215
2579 6595
2579 7823
2579 10390
2580 1238
2580 1247
2580 2581
2580 3814
2580 4621
2580 6236
2580 7579
2580 11869
2580 11870
2581 2580
2581 3038
2581 3814
2581 6236
2581 9252
2581 11869
2582 1016
2582 1296
2582 2852
2582 5553
2582 6185
2582 9423
2582 9668
2582 10310
2582 10931
2582 11871
2582 11872
2583 1783
2583 2576
2583 3040
2583 3142
2583 5108
2583 11468
2583 11828
2583 11873
2584 7687
2584 7932
2584 7934
2584 11828
2584 11874
2584 11875
2584 11876
2585 27
2585 3248
2585 6504
2585 8457
2585 11828
2585 11877
2585 11878
2586 700
2586 3780
2586 5324
2586 7125
2586 11879
2587 3849
2587 4293
2587 5017
2587 5367
2587 5368
2587 6766
2587 8624
2587 11880
2587 11881
2587 11882
2587 11883
2588 5364
2588 11252
2588 11884
2588 11885
2588 11886
2589 57
2589 59
2589 67
2589 80
2589 81
2589 362
2589 712
2589 1195
2589 1760
2589 3124
2589 3315
2589 4665
2589 5480
2589 7942
2589 9456
2589 9601
2589 11887
2590 67
2590 4706
2590 5480
2590 6310
2590 11888
2590 11889
2591 3753
2591 3928
2591 4359
2591 5321
2591 6043
2591 6047
2591 6086
2591 6434
2591 6917
2591 8921
2591 10172
2591 11890
2591 11891
2592 897
2592 999
2592 4014
2592 7463
2592 7956
2592 10192
2592 11892
2592 11893
2593 61
2593 3932
2593 6529
2593 11894
2594 1284
2594 1963
2594 3865
2594 9069
2595 3982
2595 4916
2595 4918
2595 7205
2596 148
2596 2537
2596 3730
2596 4041
2596 4340
2596 5780
2596 6210
2596 11895
2597 545
2597 579
2597 1042
2597 1374
2597 1376
2597 2007
2597 2519
2597 2571
2597 4333
2597 5463
2597 6448
2597 8534
2597 8536
2597 9646
2597 9648
2597 11896
2598 23
2598 81
2598 1618
2598 3529
2598 3531
2598 3535
2598 4174
2598 4176
2598 4177
2598 4180
2598 4399
2598 4503
2598 4740
2598 10508
2598 11897
2599 1479
2599 1999
2599 2265
2599 2542
2599 2543
2599 3134
2599 3331
2599 4039
2599 7503
2599 7507
2599 7510
2599 11139
2599 11898
2599 11899
2599 11900
2600 56
2600 79
2600 103
2600 1176
2600 1219
2600 5458
2600 10295
2600 10410
2601 1696
2601 2417
2601 3572
2601 4039
2601 4820
2601 10294
2601 10480
2601 11140
2602 1429
2602 4701
2602 4805
2602 8037
2602 11901
2603 3862
2603 4014
2603 4016
2603 7956
2603 11902
2604 12
2604 50
2604 73
2604 1131
2604 1194
2604 2553
2604 2554
2604 2558
2604 3113
2604 4277
2604 7198
2604 8821
2605 2498
2605 9489
2605 11903
2605 11904
2606 22
2606 2886
2606 8075
2606 11865
2606 11905
2606 11906
2606 11907
2607 4209
2607 4210
2607 5873
2607 9429
2608 5873
2608 11908
2608 11909
2609 69
2609 81
2609 137
2609 1688
2609 3561
2609 3563
2609 3567
2609 4004
2609 5091
2609 11910
2610 84
2610 1134
2610 2938
2610 3014
2610 3735
2610 4906
2610 8913
2610 11236
2610 11531
2610 11683
2611 3014
2611 11683
2611 11911
2612 499
2612 1097
2612 2058
2612 2240
2612 2254
2612 2258
2612 2557
2612 2628
2612 2700
2612 2942
2612 3014
2612 3032
2612 3095
2612 8850
2612 11111
2612 11683
2613 7
2613 1391
2613 2200
2613 2614
2613 3143
2613 4061
2613 9690
2613 9692
2613 10293
2614 1391
2614 2200
2614 2310
2614 2613
2614 3143
2614 9690
2614 9691
2614 9692
2614 11554
2615 2170
2615 2862
2615 4392
2615 9150
2615 11253
2615 11352
2615 11798
2615 11912
2616 117
2616 259
2616 346
2616 569
2616 594
2616 1248
2616 1534
2616 1705
2616 3333
2616 4066
2616 4437
2616 4650
2616 5106
2616 5113
2616 5903
2616 6299
2616 6594
2616 10494
2616 11913
2617 2651
2617 4392
2617 4918
2617 11914
2617 11915
2618 210
2618 587
2618 630
2618 2114
2618 2299
2618 2619
2618 4425
2618 4427
2618 4632
2618 11536
2618 11916
2618 11917
2619 10
2619 298
2619 630
2619 751
2619 1774
2619 2114
2619 2516
2619 2618
2619 4425
2619 4632
2619 4864
2619 4866
2619 4867
2619 6965
2619 11536
2620 68
2620 2621
2620 2867
2620 2870
2620 3443
2620 3555
2620 5176
2620 5973
2620 7282
2620 10337
2620 10338
2620 11918
2620 11919
2621 188
2621 395
2621 737
2621 2620
2621 3440
2621 3555
2621 4371
2621 4601
2621 5148
2621 5176
2621 5973
2621 7277
2621 11920
2622 60
2622 73
2622 227
2622 283
2622 366
2622 405
2622 804
2622 903
2622 973
2622 1163
2622 1171
2622 1214
2622 1319
2622 1496
2622 1602
2622 1827
2622 1962
2622 2163
2622 2331
2622 2349
2622 2377
2622 2403
2622 2804
2622 3084
2622 3125
2622 3130
2622 3346
2622 3354
2622 3483
2622 3631
2622 4150
2622 4487
2622 4952
2622 6102
2623 39
2623 64
2623 186
2623 404
2623 426
2623 1332
2623 2191
2623 2328
2623 2674
2623 2702
2623 2811
2623 2823
2623 3723
2623 5701
2623 10738
2624 25
2624 41
2624 46
2624 59
2624 466
2624 730
2624 743
2624 894
2624 1760
2624 1784
2624 2644
2624 3365
2624 3459
2624 4850
2624 5312
2624 5389
2624 6083
2624 11921
2625 242
2625 381
2625 434
2625 459
2625 466
2625 1026
2625 1737
2625 1784
2625 1831
2625 1935
2625 2663
2625 3456
2625 3459
2625 10580
2625 11106
2626 45
2626 779
2626 1905
2626 4590
2626 4830
2626 5714
2626 11922
2627 1999
2627 2089
2627 8068
2627 8851
2627 8853
2627 9661
2627 11086
2628 631
2628 1122
2628 1852
2628 2254
2628 2557
2628 2612
2628 2731
2628 3032
2628 3095
2628 3730
2628 8066
2628 8067
2628 8474
2628 8476
2628 8851
2628 11923
2629 1036
2629 1618
2629 8130
2629 11924
2629 11925
2630 116
2630 272
2630 2657
2630 2723
2630 3899
2630 3905
2630 10492
2630 11926
2631 1945
2631 8652
2631 9603
2631 10140
2631 10311
2631 10468
2631 11927
2632 42
2632 60
2632 452
2632 457
2632 467
2632 472
2632 606
2632 739
2632 775
2632 802
2632 1132
2632 1139
2632 1184
2632 1222
2632 1346
2632 1482
2632 1601
2632 1746
2632 1854
2632 2205
2632 2420
2632 2797
2632 3152
2632 6665
2633 1396
2633 1594
2633 1704
2633 2482
2633 2689
2633 4194
2633 6193
2633 9807
2633 11868
2633 11928
2634 1534
2634 1654
2634 4194
2634 5197
2634 8022
2634 8981
2634 9707
2634 10207
2634 10249
2634 10389
2634 11929
2634 11930
2635 64
2635 452
2635 743
2635 1108
2635 3022
2635 3369
2635 3371
2635 3540
2635 4279
2635 4596
2635 4855
2635 5082
2635 5402
2635 5404
2635 5593
2635 5701
2635 5885
2635 6571
2635 7046
2635 7051
2635 7738
2635 10780
2635 11197
2635 11931
2635 11932
2636 3679
2636 4502
2636 4750
2636 4753
2636 4754
2636 5308
2636 5762
2636 5763
2636 11698
2636 11933
2637 16
2637 18
2637 24
2637 32
2637 50
2637 52
2637 322
2637 337
2637 383
2637 463
2637 469
2637 474
2637 684
2637 1119
2637 1120
2637 1133
2637 1171
2637 1174
2637 1194
2637 1741
2637 1894
2637 2272
2637 3128
2637 3203
2637 3391
2637 3426
2637 3895
2637 4925
2637 5116
2637 8907
2638 47
2638 398
2638 914
2638 1830
2638 2640
2638 2771
2638 2892
2638 2893
2638 3460
2638 4766
2638 4947
2638 5129
2638 5944
2638 5945
2638 7038
2639 354
2639 2886
2639 6864
2639 7953
2639 8178
2639 11934
2640 55
2640 173
2640 313
2640 339
2640 396
2640 619
2640 986
2640 1181
2640 1399
2640 1519
2640 1611
2640 1907
2640 2012
2640 2060
2640 2174
2640 2220
2640 2378
2640 2638
2640 2740
2640 2771
2640 2786
2640 2921
2640 3416
2640 4714
2640 11935
2641 47
2641 2537
2641 3416
2641 3666
2641 3718
2641 4567
2641 5692
2641 10934
2641 11936
2641 11937
2642 436
2642 458
2642 621
2642 3476
2642 3494
2642 3652
2642 4323
2642 5732
2642 5848
2642 5853
2642 5855
2642 5916
2642 6021
2642 11495
2642 11938
2642 11939
2643 117
2643 164
2643 212
2643 336
2643 399
2643 407
2643 444
2643 512
2643 662
2643 753
2643 801
2643 945
2643 1104
2643 1130
2643 1141
2643 1248
2643 1466
2643 1534
2643 1675
2643 1705
2643 1772
2643 1803
2643 1847
2643 2009
2643 2539
2643 3333
2643 3910
2643 3915
2643 3916
2643 5105
2643 5557
2643 6594
2644 36
2644 57
2644 59
2644 67
2644 1195
2644 1230
2644 1760
2644 2624
2644 3932
2644 4566
2644 5393
2644 5394
2644 9954
2644 11940
2644 11941
2645 190
2645 474
2645 581
2645 799
2645 914
2645 1120
2645 1538
2645 1739
2645 1862
2645 3321
2645 3842
2645 4168
2645 4779
2645 4998
2645 6854
2645 7355
2645 9981
2645 11942
2646 599
2646 1084
2646 2152
2646 2506
2646 6377
2646 6461
2646 6503
2646 11943
2647 80
2647 3973
2647 4551
2647 5098
2647 10238
2647 11944
2647 11945
2648 1533
2648 2116
2648 2377
2648 3373
2648 6129
2648 11206
2648 11946
2649 1595
2649 2498
2649 5367
2649 9249
2649 9722
2649 10237
2649 10238
2650 10786
2650 12944
2651 49
2651 2307
2651 2617
2651 3178
2651 3179
2651 3216
2651 3319
2651 3439
2651 3446
2651 3657
2651 3732
2651 4087
2651 4246
2651 5927
2651 7749
2651 9463
2651 11948
2651 11949
2652 5687
2652 11951
2652 12914
2653 131
2653 355
2653 454
2653 1044
2653 2398
2653 2578
2653 5992
2653 11952
2653 11953
2654 80
2654 435
2654 2655
2654 4547
2654 4552
2654 11954
2655 76
2655 80
2655 240
2655 558
2655 726
2655 845
2655 954
2655 1011
2655 1581
2655 2460
2655 2654
2655 3964
2655 4055
2655 4326
2655 4547
2655 4550
2655 4552
2655 6077
2655 6512
2655 8150
2655 11955
2656 1110
2656 1521
2656 3106
2656 3390
2656 3515
2656 3663
2656 6235
2656 10383
2656 11956
2656 11957
2657 116
2657 2630
2657 3899
2657 3902
2657 3905
2657 4004
2657 5242
2657 6226
2657 11934
2657 11958
2658 2696
2658 2729
2658 3071
2658 4172
2658 5104
2658 6895
2658 6899
2658 11850
2658 11959
2658 11960
2659 50
2659 717
2659 987
2659 2925
2659 3203
2659 3308
2659 3391
2659 3426
2659 3428
2659 7639
2660 97
2660 277
2660 389
2660 2713
2660 3231
2660 3839
2660 3949
2660 3969
2660 4052
2660 8604
2661 61
2661 939
2661 1829
2661 1868
2661 1909
2661 2770
2661 2988
2661 3016
2661 4295
2661 5072
2661 10784
2661 10785
2661 10786
2662 5339
2662 5494
2662 11961
2663 36
2663 57
2663 59
2663 67
2663 78
2663 242
2663 1195
2663 2000
2663 2625
2663 3124
2663 4568
2663 7867
2663 11106
2664 51
2664 79
2664 1060
2664 1740
2664 4637
2664 8617
2664 9417
2664 9847
2664 10918
2665 4
2665 6554
2665 11130
2665 11962
2666 1321
2666 3949
2666 9489
2666 11904
2666 11945
2667 80
2667 465
2667 5291
2667 6998
2667 11963
2667 11964
2668 922
2668 1125
2668 2001
2668 2353
2668 5649
2668 11965
2668 11966
2669 889
2669 2023
2669 5649
2669 7666
2669 7668
2669 9636
2669 11046
2669 11967
2670 5414
2670 5415
2670 5416
2670 5747
2670 6179
2670 11968
2670 11969
2671 650
2671 3857
2671 4144
2671 4170
2671 5138
2671 6066
2671 7227
2671 7819
2671 11970
2671 11971
2672 79
2672 216
2672 815
2672 988
2672 1701
2672 4799
2672 9371
2672 11972
2673 768
2673 1065
2673 1212
2673 4191
2673 7149
2673 7150
2673 8296
2673 8759
2673 11973
2674 52
2674 63
2674 184
2674 343
2674 349
2674 2623
2674 2823
2674 3313
2674 3352
2674 3386
2674 3391
2674 3619
2674 4258
2674 4359
2674 5881
2674 6105
2674 10123
2675 19
2675 56
2675 79
2675 1176
2675 3688
2675 5243
2675 6954
2675 8435
2675 9174
2675 11974
2675 11975
2675 11976
2676 2286
2676 8801
2676 8806
2676 9902
2676 9972
2676 9973
2676 10959
2677 1299
2677 1861
2677 2730
2677 3289
2677 3727
2677 3728
2677 4036
2677 4038
2677 8913
2677 11456
2677 11457
2677 11977
2678 935
2678 949
2678 1568
2678 2279
2678 3658
2678 5081
2678 5969
2678 6941
2678 8136
2678 8138
2678 8139
2678 8141
2678 11978
2679 79
2679 3936
2679 5864
2679 6399
2679 11979
2680 5986
2680 5988
2680 10148
2680 10200
2680 10202
2680 11980
2681 6228
2681 6931
2681 6933
2681 11981
2682 767
2682 6228
2682 6331
2682 6523
2682 6865
2682 11982
2683 2296
2683 3735
2683 4906
2683 5919
2683 8913
2683 11456
2683 11457
2683 11983
2684 47
2684 55
2684 504
2684 1719
2684 2947
2684 4334
2684 10530
2684 11984
2685 24
2685 58
2685 63
2685 184
2685 343
2685 683
2685 821
2685 1607
2685 1841
2685 2328
2685 2804
2685 3198
2685 5169
2685 5171
2685 5225
2685 5673
2685 5676
2685 5879
2685 6119
2686 1324
2686 2555
2686 3063
2686 3164
2686 4267
2686 9495
2687 79
2687 632
2687 917
2687 1177
2687 3082
2687 4381
2687 4541
2687 5720
2687 6564
2687 10243
2687 11366
2688 6709
2688 8052
2688 8635
2688 11985
2689 1704
2689 1723
2689 2482
2689 2633
2689 4075
2689 4195
2689 7393
2689 10808
2690 229
2690 277
2690 456
2690 602
2690 1058
2690 1411
2690 1551
2690 1643
2690 1775
2690 1869
2690 1928
2690 2035
2690 2054
2690 3331
2690 4824
2690 4827
2690 7630
2690 10122
2690 11986
2691 3944
2691 10497
2691 10972
2691 10974
2691 11987
2692 322
2692 2364
2692 3165
2692 3944
2692 4160
2692 4162
2692 4674
2692 11988
2692 11989
2692 12006
2693 19
2693 56
2693 79
2693 307
2693 429
2693 1137
2693 1176
2693 1375
2693 3024
2693 3592
2693 3676
2693 3678
2693 5243
2693 9070
2693 11990
2694 43
2694 419
2694 4312
2694 5593
2694 6436
2694 11444
2695 1001
2695 2471
2695 4343
2695 4897
2695 6953
2695 7399
2695 10550
2695 11991
2695 11992
2696 2094
2696 2658
2696 4172
2696 6895
2696 6899
2696 11960
2696 11993
2697 4
2697 228
2697 631
2697 807
2697 1027
2697 1122
2697 1811
2697 1852
2697 2030
2697 3015
2697 4493
2697 4892
2697 6554
2697 10068
2697 11994
2697 11995
2698 718
2698 1522
2698 2250
2698 2497
2698 3245
2698 3788
2698 5780
2698 6109
2698 6296
2698 7169
2698 9434
2698 11473
2698 11996
2699 32
2699 50
2699 70
2699 395
2699 1196
2699 1729
2699 2190
2699 2937
2699 3140
2699 3256
2699 3644
2699 3821
2699 4371
2699 9210
2699 11997
2700 1097
2700 1122
2700 1459
2700 1621
2700 1767
2700 2254
2700 2512
2700 2537
2700 2541
2700 2549
2700 2612
2700 2893
2700 2942
2700 3218
2700 3729
2700 3730
2700 4553
2700 4765
2700 6209
2700 6214
2700 7347
2700 8764
2700 8765
2701 494
2701 529
2701 1025
2701 5254
2701 5978
2701 6225
2701 7352
2701 9503
2701 10556
2702 39
2702 64
2702 83
2702 426
2702 1194
2702 1196
2702 1332
2702 1854
2702 2623
2702 3371
2702 3374
2702 3434
2702 5701
2702 5776
2702 5885
2702 7618
2702 10531
2703 4
2703 746
2703 1010
2703 2704
2703 7311
2703 10104
2703 10812
2703 11998
2704 4
2704 746
2704 1206
2704 1899
2704 2703
2704 7309
2704 7314
2704 10089
2704 11999
2705 925
2705 2822
2705 2896
2705 3095
2705 3978
2705 6296
2705 8044
2705 8474
2705 8476
2705 8855
2705 11977
2705 12000
2706 1245
2706 1998
2706 2861
2706 3095
2706 3978
2706 8474
2706 8475
2706 8476
2706 9272
2706 11352
2707 1035
2707 4124
2707 5464
2707 8268
2707 12001
2707 12002
2708 1632
2708 5464
2708 7316
2708 7317
2708 7318
2708 10335
2708 10692
2708 12003
2708 12004
2709 249
2709 893
2709 3651
2709 3653
2709 4282
2709 4284
2709 4458
2709 6094
2709 9447
2709 12005
2710 834
2710 1475
2710 3165
2710 4274
2710 4532
2710 5440
2710 7250
2710 9920
2710 10930
2710 11850
2710 12006
2711 3884
2711 8301
2711 12007
2711 12008
2712 300
2712 682
2712 710
2712 912
2712 2411
2712 2777
2712 3839
2712 3969
2712 5563
2712 6986
2712 6987
2712 12009
2712 12010
2713 97
2713 541
2713 697
2713 979
2713 1127
2713 1850
2713 2039
2713 2660
2713 3232
2713 3949
2713 3969
2713 5563
2713 6645
2713 12011
2714 61
2714 3932
2714 4911
2714 5785
2714 9174
2714 9176
2714 11366
2715 1968
2715 3997
2715 4513
2715 6002
2715 6005
2715 6007
2715 10185
2715 11039
2715 11525
2715 12012
2715 12013
2716 3186
2716 4294
2716 9477
2716 10621
2716 12014
2716 12015
2716 12016
2717 42
2717 62
2717 77
2717 345
2717 437
2717 467
2717 496
2717 739
2717 752
2717 1114
2717 1191
2717 1235
2717 1278
2717 1773
2717 1905
2717 1994
2717 1996
2717 2027
2717 2185
2717 2420
2717 2911
2717 2912
2717 2929
2717 2945
2717 3288
2717 3421
2717 7285
2717 10074
2718 1296
2718 4197
2718 5548
2718 8997
2718 12017
2718 12018
2719 796
2719 963
2719 1097
2719 1263
2719 1606
2719 2257
2719 2258
2719 2414
2719 2542
2719 2543
2719 2880
2719 2938
2719 4039
2719 9348
2719 9931
2719 10294
2719 11838
2719 11900
2720 68
2720 70
2720 1196
2720 1506
2720 2094
2720 2934
2720 3072
2720 3543
2720 3557
2720 3821
2720 4285
2720 5141
2720 8832
2720 10558
2720 12019
2721 69
2721 1147
2721 3846
2721 4001
2721 7218
2721 7623
2721 12020
2721 12021
2722 609
2722 905
2722 3068
2722 4001
2722 4800
2722 7450
2722 11244
2723 116
2723 352
2723 2630
2723 2796
2723 2856
2723 3899
2723 3905
2723 10492
2723 11926
2723 12022
2723 12023
2723 12024
2724 5
2724 1196
2724 2556
2724 3002
2724 4262
2724 11850
2724 12025
2724 12026
2725 21
2725 4468
2725 4469
2725 4880
2725 5033
2725 6295
2725 6600
2725 12027
2726 631
2726 2381
2726 6696
2726 6847
2726 11645
2727 631
2727 1529
2727 6413
2727 6696
2727 6847
2727 12028
2727 12029
2727 12030
2728 1145
2728 4694
2728 10204
2728 12031
2729 1035
2729 1140
2729 1251
2729 1938
2729 2050
2729 2658
2729 2737
2729 3113
2730 1861
2730 2677
2730 2893
2730 3289
2730 3728
2730 3729
2730 4036
2730 4038
2731 916
2731 1010
2731 1122
2731 2240
2731 2296
2731 2536
2731 2628
2731 3181
2731 3512
2731 3727
2731 3735
2731 4036
2731 4038
2731 10233
2731 12032
2732 48
2732 73
2732 527
2732 537
2732 839
2732 1194
2732 1233
2732 1403
2732 2095
2732 2441
2732 5965
2732 6358
2732 6432
2732 9414
2732 9415
2732 9416
2733 50
2733 64
2733 774
2733 958
2733 1332
2733 3073
2733 3313
2733 3337
2733 3386
2733 3811
2733 5965
2733 6432
2733 8174
2733 10008
2734 39
2734 44
2734 58
2734 63
2734 75
2734 227
2734 386
2734 460
2734 470
2734 689
2734 1771
2734 1951
2734 2191
2734 2253
2734 3368
2734 6105
2735 11
2735 36
2735 57
2735 59
2735 67
2735 1195
2735 1759
2735 1956
2735 3124
2735 3967
2735 5072
2735 8484
2735 9654
2735 9881
2735 10637
2735 10950
2735 11026
2736 9
2736 218
2736 925
2736 2536
2736 2738
2736 2739
2736 2781
2736 4165
2736 7495
2736 12033
2737 1140
2737 1408
2737 2095
2737 2729
2737 7247
2737 8166
2738 9
2738 65
2738 792
2738 884
2738 925
2738 2508
2738 2736
2738 2739
2738 2781
2738 4165
2738 7495
2738 11392
2739 76
2739 218
2739 269
2739 338
2739 421
2739 974
2739 1061
2739 1678
2739 2423
2739 2508
2739 2736
2739 2738
2739 2781
2739 4165
2740 28
2740 41
2740 47
2740 398
2740 2640
2740 3497
2740 12034
2741 1243
2741 2266
2741 2871
2741 2934
2741 3571
2741 6799
2741 7978
2742 5
2742 745
2742 955
2742 1706
2742 2470
2742 2785
2742 3060
2743 788
2743 4916
2743 10292
2744 4273
2744 6296
2744 6297
2744 8852
2744 8855
2744 12035
2744 12036
2745 49
2745 395
2745 1243
2745 1506
2745 2839
2745 3439
2745 3446
2745 3648
2745 3821
2745 5142
2745 5173
2745 5623
2745 5844
2745 9640
2745 10231
2745 12037
2746 8095
2746 12916
2747 61
2747 3178
2747 3179
2747 4804
2747 5923
2747 7060
2747 7855
2747 9225
2747 12039
2748 1227
2748 1253
2748 2395
2748 2536
2748 7060
2748 9296
2748 12040
2749 3573
2749 3584
2749 3907
2749 8850
2749 9861
2749 12041
2749 12042
2750 630
2750 1774
2750 2516
2750 2812
2750 2947
2750 2980
2750 4631
2750 6840
2751 62
2751 77
2751 2274
2751 2275
2751 3384
2751 3497
2751 4830
2751 12043
2752 48
2752 73
2752 958
2752 1171
2752 1317
2752 1383
2752 1475
2752 1521
2752 1707
2752 2132
2752 2143
2752 3002
2752 3185
2752 3790
2752 4529
2752 4555
2752 9519
2752 12044
2753 36
2753 57
2753 59
2753 67
2753 242
2753 1026
2753 1195
2753 1873
2753 2173
2753 2209
2753 2267
2753 2388
2753 5998
2753 11241
2754 317
2754 825
2754 4142
2754 4359
2754 7355
2754 7605
2754 9213
2754 12045
2755 1505
2755 3857
2755 4047
2755 5228
2755 6196
2755 6967
2755 12046
2755 12047
2756 17
2756 1491
2756 1764
2756 3974
2756 4813
2756 6759
2756 7255
2756 8520
2756 10199
2756 11580
2756 12048
2757 20
2757 1002
2757 1326
2757 2055
2757 2918
2757 5190
2757 7255
2757 8025
2758 6272
2758 7255
2758 12049
2759 24
2759 92
2759 1356
2759 3254
2759 5101
2759 5169
2759 5676
2759 9060
2760 52
2760 173
2760 411
2760 475
2760 585
2760 668
2760 822
2760 1146
2760 1169
2760 1674
2760 1828
2760 2151
2760 2402
2760 2817
2760 3236
2760 4488
2760 5223
2760 5346
2760 7005
2761 34
2761 40
2761 50
2761 52
2761 70
2761 73
2761 469
2761 958
2761 987
2761 2804
2761 3185
2761 3203
2761 3309
2761 3389
2761 3426
2761 3477
2761 5619
2761 5879
2761 8843
2762 5298
2762 8310
2762 11725
2762 12050
2762 12051
2763 80
2763 1025
2763 1657
2763 5298
2763 8656
2763 10690
2763 12052
2764 80
2764 1638
2764 4518
2764 4846
2764 5298
2764 9465
2764 10351
2764 12053
2765 5298
2765 9847
2765 10331
2765 12054
2766 3901
2766 4186
2766 4946
2766 8032
2766 12055
2766 12056
2767 35
2767 80
2767 8224
2767 12057
2768 3519
2768 4186
2768 5875
2768 12058
2769 381
2769 1249
2769 3363
2769 4030
2769 4186
2769 5458
2770 428
2770 939
2770 1875
2770 2661
2770 3731
2770 4765
2770 5477
2770 8920
2770 12059
2771 47
2771 398
2771 2467
2771 2638
2771 2640
2771 3190
2771 3414
2771 5056
2771 10014
2771 12060
2772 17
2772 1331
2772 2780
2772 4943
2772 7044
2772 8095
2772 9028
2772 12061
2772 12062
2772 12063
2773 3823
2773 3828
2773 7689
2773 9934
2773 10575
2774 4384
2774 5524
2774 7689
2774 8617
2774 12064
2775 3829
2775 4385
2775 7689
2775 7692
2775 8727
2775 12065
2775 12066
2775 12067
2776 3960
2776 6505
2776 6984
2776 8608
2776 8609
2776 12068
2776 12069
2777 97
2777 127
2777 400
2777 682
2777 710
2777 912
2777 950
2777 1788
2777 2411
2777 2712
2777 3839
2777 4101
2777 6984
2777 6986
2777 12070
2778 3178
2778 3179
2778 3657
2778 6312
2778 9297
2778 12071
2779 17
2779 7424
2779 8095
2779 12062
2779 12063
2779 12072
2780 1051
2780 2772
2780 5614
2780 8095
2780 9512
2780 9514
2780 12062
2780 12073
2781 9
2781 153
2781 792
2781 925
2781 1022
2781 2047
2781 2232
2781 2423
2781 2736
2781 2738
2781 2739
2781 4461
2781 12074
2782 21
2782 71
2782 428
2782 3600
2782 4439
2782 4440
2782 4442
2782 5023
2782 12075
2783 5
2783 93
2783 299
2783 2190
2783 2330
2783 2393
2783 2470
2783 2556
2783 3003
2783 3009
2783 3058
2783 3257
2783 3487
2783 3992
2783 4268
2783 4278
2783 4368
2784 5
2784 73
2784 93
2784 1317
2784 1828
2784 1877
2784 1938
2784 2190
2784 2393
2784 2513
2784 2556
2784 3002
2784 3113
2785 5
2785 1317
2785 1343
2785 1460
2785 1855
2785 1877
2785 2556
2785 2742
2785 3056
2785 3057
2785 3063
2785 3071
2785 3792
2785 3986
2785 3991
2785 3992
2785 4268
2785 4281
2785 7710
2785 9742
2786 47
2786 619
2786 1023
2786 1382
2786 1907
2786 2028
2786 2640
2786 2956
2786 3768
2786 5452
2786 6789
2786 8260
2786 12076
2787 56
2787 79
2787 856
2787 905
2787 1176
2787 4418
2787 6342
2787 7753
2787 12077
2788 6342
2788 11244
2788 12078
2789 2863
2789 4551
2789 4729
2789 5151
2789 5961
2789 5962
2789 7044
2789 9557
2789 9558
2789 9559
2789 9737
2789 12079
2790 958
2790 2143
2790 3073
2790 5879
2790 8174
2790 8176
2790 8446
2791 63
2791 363
2791 1241
2791 1837
2791 3160
2791 3297
2791 6145
2791 12080
2792 1475
2792 2475
2792 3940
2792 6145
2792 6149
2792 9467
2792 12081
2793 42
2793 62
2793 345
2793 606
2793 752
2793 1552
2793 1905
2793 2027
2793 2185
2793 2432
2793 3288
2793 10074
2794 344
2794 518
2794 2268
2794 2302
2794 3479
2794 3540
2794 4319
2794 4596
2794 6019
2794 6020
2794 6751
2795 3068
2795 4035
2795 7640
2795 11907
2795 12082
2795 12083
2796 69
2796 81
2796 1355
2796 1703
2796 2723
2796 3574
2796 3899
2796 3901
2796 3902
2796 3907
2796 3908
2796 5242
2796 5479
2796 5950
2796 6633
2796 10276
2796 12084
2796 12085
2797 49
2797 587
2797 802
2797 1170
2797 1521
2797 1619
2797 2185
2797 2205
2797 2233
2797 2279
2797 2632
2797 3381
2797 3439
2797 3446
2797 3473
2797 3486
2797 4604
2797 4679
2797 5076
2797 5186
2797 6018
2797 6023
2797 6241
2798 115
2798 350
2798 463
2798 585
2798 822
2798 858
2798 1054
2798 1233
2798 1674
2798 1837
2798 2150
2798 2151
2798 2817
2798 3129
2798 3236
2798 3294
2798 5223
2798 7193
2798 8241
2798 9957
2798 9959
2799 37
2799 46
2799 217
2799 1662
2799 3008
2799 3856
2799 4459
2799 4460
2799 4658
2799 4664
2799 4848
2799 4849
2799 4850
2799 4926
2799 4928
2799 12086
2800 37
2800 46
2800 449
2800 3856
2800 4460
2800 4664
2800 4850
2800 4926
2800 12087
2801 4805
2801 4810
2801 5155
2801 6603
2801 12088
2802 663
2802 2055
2802 2409
2802 3583
2802 4807
2802 4813
2802 5155
2802 5157
2802 6759
2802 12089
2802 12090
2803 410
2803 1401
2803 5090
2803 9324
2803 12091
2803 12092
2803 12093
2804 12
2804 48
2804 50
2804 73
2804 197
2804 241
2804 469
2804 474
2804 553
2804 774
2804 903
2804 930
2804 1079
2804 1133
2804 1163
2804 1171
2804 1194
2804 1232
2804 1319
2804 1855
2804 1894
2804 1962
2804 2272
2804 2349
2804 2558
2804 2622
2804 2685
2804 2761
2804 2843
2804 3125
2804 3126
2804 3160
2804 3203
2804 3287
2804 3351
2804 4952
2804 4988
2805 32
2805 48
2805 50
2805 70
2805 73
2805 337
2805 777
2805 1139
2805 1194
2805 1400
2805 1521
2805 2190
2805 2266
2805 3126
2805 3203
2805 3895
2805 4922
2805 4988
2806 361
2806 828
2806 895
2806 948
2806 2043
2806 3178
2806 3179
2806 3180
2806 3235
2806 3418
2806 5069
2806 5719
2806 5922
2806 6359
2806 9297
2807 351
2807 3714
2807 6184
2807 6967
2807 10924
2807 10926
2807 12094
2808 3812
2808 4151
2808 4446
2808 4957
2808 5443
2808 6534
2808 6539
2808 7577
2808 7585
2808 7632
2808 7635
2808 7766
2808 8156
2808 10290
2808 12095
2808 12096
2809 4497
2809 8375
2809 12097
2809 12098
2810 4979
2810 7687
2810 8375
2810 8525
2810 11731
2810 11827
2810 11828
2810 12099
2811 64
2811 376
2811 2328
2811 2623
2811 3368
2811 4802
2811 5002
2811 6031
2811 7080
2812 2114
2812 2750
2812 2947
2812 4631
2812 10669
2812 11035
2812 12100
2813 1309
2813 2051
2813 4331
2813 4333
2813 4847
2813 5187
2813 6315
2813 7717
2813 10398
2813 11032
2813 12067
2813 12101
2814 79
2814 80
2814 81
2814 4002
2814 4453
2814 5030
2814 8233
2814 12102
2815 45
2815 1905
2815 3407
2815 3780
2815 6488
2815 7823
2815 10136
2816 591
2816 3726
2816 3854
2816 3999
2816 5580
2816 5603
2816 6973
2816 12103
2817 33
2817 52
2817 173
2817 350
2817 461
2817 463
2817 474
2817 585
2817 822
2817 1138
2817 1146
2817 1183
2817 1655
2817 2760
2817 2798
2817 3005
2817 3236
2817 3294
2817 3397
2817 3625
2817 3721
2817 3805
2817 5224
2817 5346
2817 6969
2817 7005
2817 8488
2817 12104
2818 951
2818 5022
2818 8151
2818 8153
2818 9012
2818 10874
2818 12105
2819 918
2819 2162
2819 6729
2819 8163
2819 9043
2819 9925
2819 10635
2819 12106
2820 5939
2820 7230
2820 9142
2820 12107
2820 12108
2821 1194
2821 1828
2821 3125
2821 4353
2821 6102
2821 11779
2822 939
2822 2047
2822 2705
2822 2896
2822 3103
2822 3212
2822 4069
2822 7230
2822 8043
2822 8044
2822 8855
2823 776
2823 2191
2823 2327
2823 2623
2823 2674
2823 2952
2823 3625
2823 4257
2823 4258
2823 4312
2823 4356
2823 5006
2823 5846
2823 6129
2823 7422
2823 8999
2823 12109
2823 12110
2824 284
2824 315
2824 3169
2824 3685
2824 4963
2824 6635
2824 6636
2824 10417
2824 12111
2824 12112
2825 4078
2825 4206
2825 5518
2825 12113
2825 12114
2826 3720
2826 3838
2826 5347
2826 6161
2826 12115
2827 42
2827 62
2827 1029
2827 3127
2827 3381
2827 3385
2827 6429
2827 11083
2827 12116
2828 26
2828 5583
2828 12117
2829 539
2829 2835
2829 3763
2829 5030
2829 12118
2830 1131
2830 1307
2830 1652
2830 2125
2830 2190
2830 2331
2830 2364
2830 2554
2830 3420
2831 67
2831 4078
2831 5233
2831 5389
2831 5391
2831 6953
2831 11861
2831 12119
2832 36
2832 57
2832 59
2832 67
2832 1195
2832 1698
2832 1760
2832 3082
2832 9954
2832 12120
2833 61
2833 79
2833 1137
2833 3906
2833 4707
2833 7142
2833 7273
2833 12121
2834 472
2834 1749
2834 1867
2834 3645
2834 4590
2834 5072
2834 5082
2834 5407
2834 6540
2834 10270
2834 12122
2835 51
2835 80
2835 81
2835 2829
2835 3765
2835 4139
2835 4612
2835 4784
2835 5091
2835 6438
2835 6518
2835 7450
2835 9322
2835 10222
2835 10917
2835 11260
2835 12123
2836 56
2836 79
2836 988
2836 1137
2836 1176
2836 1804
2836 3995
2836 4541
2836 4689
2836 4691
2836 6949
2837 29
2837 38
2837 44
2837 474
2837 559
2837 1345
2837 1663
2837 2504
2837 3070
2837 3244
2837 3352
2837 3897
2837 4144
2837 4793
2837 9470
2838 1312
2838 2336
2838 4144
2838 5456
2838 6359
2838 9468
2838 9470
2839 68
2839 200
2839 437
2839 501
2839 738
2839 904
2839 1142
2839 1427
2839 1601
2839 1679
2839 2083
2839 2086
2839 2180
2839 2271
2839 2401
2839 2745
2839 2919
2839 3077
2839 3234
2839 5147
2839 9787
2840 458
2840 1901
2840 2256
2840 3651
2840 3662
2840 5853
2840 7248
2840 7944
2840 9781
2840 12124
2841 56
2841 79
2841 134
2841 1176
2841 3678
2841 4798
2841 10552
2841 12125
2842 1196
2842 3353
2842 4172
2842 6358
2842 6895
2842 6899
2842 11663
2842 12126
2843 537
2843 924
2843 1194
2843 1648
2843 1770
2843 1797
2843 1836
2843 2095
2843 2264
2843 2490
2843 2804
2843 3066
2843 3196
2843 3629
2843 5122
2843 6358
2843 7075
2843 8906
2843 12127
2844 51
2844 56
2844 69
2844 79
2844 81
2844 239
2844 812
2844 1137
2844 1176
2844 1804
2844 1980
2844 2447
2844 3684
2844 3694
2844 4206
2844 4332
2844 6804
2844 8036
2844 12128
2845 949
2845 2562
2845 4287
2845 9221
2845 12129
2845 12130
2846 805
2846 3826
2846 7692
2846 12131
2846 12132
2847 308
2847 4583
2847 4584
2847 12133
2848 248
2848 1416
2848 1695
2848 1790
2848 3716
2848 4616
2848 6048
2848 8060
2848 9231
2848 12134
2848 12135
2849 32
2849 48
2849 50
2849 60
2849 441
2849 469
2849 825
2849 930
2849 938
2849 1139
2849 1163
2849 1183
2849 1223
2849 1400
2849 1521
2849 1619
2849 2147
2849 2190
2849 2248
2849 3126
2849 3128
2849 3197
2849 3391
2849 3895
2849 4925
2849 4952
2849 5116
2849 8060
2850 901
2850 2542
2850 2920
2850 4009
2850 4112
2850 5131
2850 12136
2850 12137
2851 396
2851 3676
2851 4009
2851 5693
2851 12138
2851 12139
2852 1624
2852 2412
2852 2582
2852 4937
2852 5571
2852 8067
2852 8068
2852 9662
2852 12140
2853 76
2853 575
2853 1169
2853 1268
2853 2944
2853 3089
2853 4149
2853 4562
2853 4563
2853 5204
2853 6619
2854 3597
2854 3741
2854 8423
2854 12141
2855 103
2855 1688
2855 4004
2855 12091
2855 12142
2856 79
2856 2723
2856 3899
2856 3907
2856 4004
2856 8130
2856 12024
2856 12143
2857 1825
2857 3765
2857 4137
2857 4390
2857 4606
2857 4607
2857 4610
2857 4612
2857 4656
2857 5033
2857 6522
2857 6783
2857 6804
2857 9626
2857 12144
2858 1795
2858 6186
2858 6456
2858 6496
2858 8355
2858 10719
2858 11601
2858 12145
2859 5061
2859 9437
2859 12146
2859 12147
2860 918
2860 5588
2860 9043
2860 11781
2860 12148
2861 2479
2861 2706
2861 9272
2861 10389
2862 1939
2862 2170
2862 2615
2862 9272
2862 12149
2863 17
2863 1482
2863 2789
2863 5158
2863 5961
2863 7044
2863 8604
2864 631
2864 1122
2864 1751
2864 2203
2864 2254
2864 2536
2864 2537
2864 5131
2864 11900
2865 2055
2865 2298
2865 4939
2865 6760
2865 7512
2865 8604
2865 11878
2865 12150
2866 49
2866 457
2866 775
2866 5078
2866 10683
2867 1427
2867 2082
2867 2086
2867 2263
2867 2271
2867 2401
2867 2620
2867 2895
2867 2931
2867 2946
2867 3544
2867 3545
2867 3552
2867 5203
2867 6799
2867 10445
2867 10683
2867 11226
2867 12151
2868 311
2868 1999
2868 3134
2868 7511
2868 8667
2868 10264
2868 11481
2869 400
2869 5561
2869 7511
2869 9365
2869 12152
2870 68
2870 738
2870 893
2870 1879
2870 2620
2870 2946
2870 3544
2870 3545
2870 4602
2870 6799
2870 7278
2870 7976
2870 12153
2871 893
2871 1114
2871 2221
2871 2367
2871 2741
2871 2937
2871 2948
2871 5203
2871 5899
2871 6799
2871 12154
2872 3658
2872 9593
2872 9595
2873 2088
2873 2171
2873 3658
2873 8137
2873 11038
2873 12155
2874 3090
2874 3132
2874 3139
2874 3178
2874 3179
2874 3657
2874 4081
2874 7486
2875 2194
2875 2484
2875 3178
2875 4081
2875 7856
2875 12156
2875 12157
2876 81
2876 2161
2876 3674
2876 3677
2876 4293
2876 4744
2876 12091
2876 12158
2876 12159
2877 56
2877 79
2877 81
2877 1176
2877 3930
2877 3935
2877 6074
2877 7269
2877 8781
2878 6939
2878 7623
2878 12160
2879 15
2879 421
2879 4189
2879 7818
2879 9693
2879 9695
2879 9696
2879 12161
2879 12162
2880 78
2880 969
2880 2030
2880 2254
2880 2258
2880 2536
2880 2537
2880 2719
2880 3218
2880 5131
2880 6253
2880 7503
2880 9928
2880 11634
2880 12163
2881 27
2881 365
2881 4497
2881 4821
2881 5211
2881 5339
2881 5585
2881 9873
2882 222
2882 403
2882 449
2882 521
2882 886
2882 1122
2882 1173
2882 1300
2882 1575
2882 1866
2882 2290
2882 5585
2882 12164
2883 31
2883 40
2883 48
2883 53
2883 58
2883 63
2883 73
2883 192
2883 629
2883 1032
2883 1135
2883 1138
2883 1183
2883 1467
2883 1785
2883 1843
2883 2101
2883 2302
2883 2303
2883 3308
2883 3349
2883 3427
2883 3429
2883 3430
2883 3435
2883 3784
2883 3795
2883 4143
2883 4146
2883 4247
2883 4412
2883 4413
2883 6104
2883 6570
2884 48
2884 73
2884 1828
2884 2336
2884 3436
2884 3892
2884 4146
2885 42
2885 62
2885 345
2885 458
2885 587
2885 1029
2885 1033
2885 3382
2885 3383
2885 3384
2885 3385
2885 3441
2885 3476
2885 3494
2885 3647
2885 3650
2885 3859
2885 4323
2885 5855
2885 10499
2885 11504
2886 707
2886 1863
2886 2237
2886 2606
2886 2639
2886 3361
2886 12165
2887 1536
2887 1920
2887 3154
2887 3155
2887 3361
2887 3424
2887 8946
2887 12166
2887 12167
2888 744
2888 2049
2888 3361
2888 6581
2888 11428
2888 12168
2889 4573
2889 4577
2889 4579
2889 7018
2889 7808
2889 8124
2889 8758
2889 12169
2890 1560
2890 5294
2890 5800
2890 12170
2890 12171
2890 12172
2891 4706
2891 5352
2891 5518
2891 10878
2891 12173
2892 47
2892 194
2892 339
2892 384
2892 421
2892 708
2892 926
2892 1177
2892 1277
2892 1386
2892 1586
2892 1820
2892 1875
2892 1989
2892 2348
2892 2372
2892 2384
2892 2638
2892 3016
2892 4118
2893 47
2893 84
2893 194
2893 384
2893 421
2893 549
2893 754
2893 873
2893 1041
2893 1097
2893 1173
2893 1617
2893 1989
2893 1997
2893 2308
2893 2375
2893 2549
2893 2638
2893 2700
2893 2730
2893 3019
2893 3051
2893 3318
2893 4118
2894 3641
2894 4600
2894 6486
2894 6492
2894 7125
2894 10135
2894 12174
2895 54
2895 70
2895 395
2895 436
2895 2082
2895 2271
2895 2867
2895 3077
2895 3447
2895 3545
2895 3555
2895 11499
2896 9
2896 218
2896 2047
2896 2705
2896 2822
2896 3103
2896 3212
2896 3213
2896 4475
2896 10481
2896 12175
2897 61
2897 311
2897 3600
2897 3914
2897 4475
2897 4766
2897 5137
2897 5411
2897 11754
2897 12176
2897 12177
2897 12178
2898 3520
2898 4406
2898 12179
2899 4406
2899 4651
2899 8671
2899 10304
2899 12180
2900 26
2900 4180
2900 4746
2900 9007
2900 12181
2900 12182
2900 12183
2901 832
2901 2232
2901 4232
2901 4497
2901 4979
2901 6692
2901 7015
2901 8377
2901 12184
2901 12185
2901 12186
2901 12187
2902 1145
2902 1351
2902 4431
2902 8230
2902 8403
2902 9577
2902 12188
2903 4289
2903 8230
2903 12189
2904 61
2904 1145
2904 1750
2904 2213
2904 3529
2904 5587
2904 10095
2904 12190
2905 338
2905 1896
2905 5629
2905 9385
2905 11942
2905 12191
2906 2417
2906 5629
2906 9483
2907 409
2907 1312
2907 5629
2907 5636
2907 7025
2907 12192
2908 43
2908 64
2908 154
2908 568
2908 2909
2908 3103
2908 4069
2908 5709
2908 7196
2908 12193
2909 2908
2909 3213
2909 4069
2909 4530
2909 5709
2909 12194
2910 1491
2910 2217
2910 5015
2910 5019
2910 8270
2910 12195
2911 321
2911 1508
2911 2717
2911 3461
2911 3749
2911 3799
2911 5225
2911 5663
2911 6233
2911 12196
2912 45
2912 62
2912 333
2912 587
2912 967
2912 1033
2912 1235
2912 2717
2912 3127
2912 3146
2912 3381
2912 3486
2912 3493
2912 3664
2912 6233
2912 12197
2913 351
2913 2438
2913 2443
2913 2537
2913 4391
2913 4756
2913 5438
2913 12198
2914 3
2914 81
2914 3134
2914 4136
2914 4469
2914 4756
2914 12178
2914 12199
2914 12200
2914 12201
2915 3177
2915 7280
2915 12202
2916 3845
2916 6760
2916 12203
2917 367
2917 3736
2917 4137
2917 5352
2917 5359
2917 6361
2918 20
2918 397
2918 602
2918 1775
2918 2126
2918 2757
2918 5190
2918 5192
2918 5547
2918 5562
2918 6695
2918 8021
2918 8372
2918 10542
2918 10963
2918 11327
2918 11330
2918 12204
2918 12205
2919 54
2919 246
2919 2263
2919 2839
2919 3438
2919 3440
2919 3650
2919 5620
2920 2850
2920 3452
2920 8317
2920 12206
2921 47
2921 831
2921 986
2921 1099
2921 2467
2921 2640
2921 2956
2921 3413
2921 3449
2921 3452
2921 3769
2921 10279
2921 12207
2921 12208
2921 12209
2922 3161
2922 3974
2922 10308
2922 11201
2922 12210
2922 12211
2923 122
2923 2073
2923 3974
2923 4942
2923 7549
2923 7914
2923 12212
2923 12213
2924 45
2924 61
2924 2220
2924 4801
2924 5479
2925 32
2925 1194
2925 2094
2925 2190
2925 2204
2925 2555
2925 2659
2925 3125
2925 3895
2925 5116
2925 7639
2925 8819
2926 35
2926 939
2926 1499
2926 3588
2926 3602
2926 7883
2927 53
2927 73
2927 1319
2927 1637
2927 1828
2927 3726
2927 4560
2927 4561
2927 5221
2927 8587
2927 9022
2927 10126
2928 988
2928 1284
2928 1334
2928 1568
2928 1693
2928 2297
2928 3301
2928 4906
2929 45
2929 62
2929 1905
2929 2717
2929 3146
2929 3147
2929 3377
2929 3404
2929 3496
2929 11989
2930 738
2930 1427
2930 2195
2930 5147
2930 5203
2930 7280
2930 12214
2930 12215
2931 340
2931 738
2931 904
2931 1112
2931 1427
2931 2086
2931 2180
2931 2334
2931 2867
2931 2946
2931 6797
2931 7280
2931 9785
2931 10597
2932 1721
2932 4429
2932 6630
2932 11191
2933 3899
2933 4626
2933 5950
2933 12024
2933 12216
2934 70
2934 340
2934 344
2934 737
2934 738
2934 1196
2934 1879
2934 2720
2934 2741
2934 2937
2934 3542
2934 3547
2934 3553
2934 3557
2934 5179
2934 8824
2934 11425
2935 200
2935 353
2935 457
2935 1243
2935 1593
2935 2936
2935 3009
2936 344
2936 893
2936 1243
2936 1729
2936 2935
2936 2974
2936 3542
2937 68
2937 340
2937 344
2937 408
2937 771
2937 893
2937 1243
2937 1729
2937 1742
2937 1947
2937 2190
2937 2221
2937 2266
2937 2367
2937 2699
2937 2871
2937 2934
2937 2966
2937 3542
2938 311
2938 421
2938 796
2938 1269
2938 1751
2938 1866
2938 2058
2938 2257
2938 2258
2938 2375
2938 2414
2938 2541
2938 2557
2938 2610
2938 2719
2938 3134
2938 3218
2938 4341
2938 4493
2939 102
2939 3842
2939 3892
2939 4994
2939 4998
2939 8846
2939 10168
2940 3922
2940 5043
2940 6187
2940 12217
2940 12218
2941 1164
2941 3682
2941 3964
2941 6504
2941 7384
2941 7398
2941 8454
2941 12219
2942 6
2942 1097
2942 1134
2942 2612
2942 2700
2942 3014
2942 3095
2942 3512
2942 3730
2942 4765
2942 8474
2942 8476
2942 12220
2942 12221
2943 241
2943 463
2943 924
2943 972
2943 1814
2943 1995
2943 2944
2943 3089
2943 4556
2943 4559
2944 241
2944 248
2944 463
2944 1119
2944 1814
2944 2853
2944 2943
2944 3089
2944 4556
2944 4562
2944 4563
2944 6055
2944 12222
2945 1026
2945 1662
2945 1702
2945 1746
2945 1760
2945 1957
2945 2184
2945 2717
2945 3127
2945 3401
2945 3507
2945 4566
2945 12223
2946 738
2946 1427
2946 2086
2946 2180
2946 2334
2946 2867
2946 2870
2946 2931
2946 10597
2947 375
2947 504
2947 907
2947 1532
2947 1579
2947 1907
2947 1919
2947 2516
2947 2684
2947 2750
2947 2812
2947 4714
2948 2871
2948 3401
2948 3808
2948 3819
2948 3971
2948 4544
2948 4600
2948 5849
2948 9172
2948 12224
2949 51
2949 80
2949 81
2949 5978
2949 12225
2950 79
2950 1176
2950 4390
2950 9350
2950 10470
2950 12226
2951 29
2951 38
2951 63
2951 70
2951 924
2951 1196
2951 1311
2951 1556
2951 1648
2951 2358
2951 3203
2951 3624
2951 3793
2951 3917
2951 4313
2951 4997
2951 6151
2951 6811
2951 12227
2952 39
2952 43
2952 64
2952 547
2952 774
2952 1171
2952 2303
2952 2823
2952 3125
2952 3313
2952 3373
2952 3374
2952 3793
2952 3811
2952 7420
2952 7421
2952 7422
2952 12228
2953 3901
2953 4626
2953 4798
2953 5950
2953 8129
2953 11021
2954 550
2954 885
2954 2218
2954 5813
2954 6217
2954 6500
2954 12229
2954 12230
2955 64
2955 643
2955 1196
2955 2068
2955 2208
2955 3259
2955 3373
2955 3374
2955 4276
2955 4601
2955 4857
2955 5199
2955 7366
2955 8136
2955 12231
2956 55
2956 78
2956 95
2956 269
2956 396
2956 619
2956 926
2956 986
2956 1023
2956 1041
2956 1181
2956 1277
2956 1519
2956 1621
2956 1747
2956 1907
2956 2028
2956 2060
2956 2174
2956 2786
2956 2921
2956 3145
2956 4714
2957 3126
2957 3130
2957 4952
2957 8906
2957 9987
2958 413
2958 585
2958 2377
2958 4922
2958 5661
2958 5663
2958 6368
2958 9059
2958 10383
2958 12232
2959 1196
2959 1242
2959 1310
2959 3540
2959 3644
2959 7636
2959 7734
2959 9043
2960 48
2960 73
2960 1194
2960 1196
2960 1232
2960 1236
2960 1721
2960 2367
2960 3125
2960 3351
2960 3355
2960 3644
2960 7197
2960 10595
2960 11850
2961 329
2961 700
2961 1368
2961 3546
2961 3644
2961 4288
2961 5041
2961 5045
2961 11425
2961 12233
2962 117
2962 1010
2962 1199
2962 4437
2962 6961
2962 12234
2963 1740
2963 4031
2963 4946
2963 5123
2963 5355
2963 7097
2963 8033
2963 10590
2963 12055
2963 12235
2964 1145
2964 6259
2964 12236
2964 12237
2964 12238
2965 1142
2965 3140
2965 4371
2965 8930
2965 10252
2965 12239
2966 70
2966 1601
2966 2937
2966 3140
2966 3398
2966 3540
2966 4371
2966 11397
2967 262
2967 1618
2967 1975
2967 2179
2967 3192
2967 4046
2967 4670
2967 11054
2967 12240
2968 4235
2968 5384
2968 5688
2968 11756
2968 12241
2969 58
2969 63
2969 184
2969 321
2969 1138
2969 1183
2969 3613
2969 3624
2969 3751
2969 3784
2969 4241
2969 5013
2970 64
2970 415
2970 803
2970 1169
2970 1771
2970 3805
2970 5009
2970 5013
2970 5058
2970 5170
2970 5675
2970 5679
2970 5680
2970 5700
2970 5714
2970 7577
2970 9686
2970 12242
2971 1049
2971 6999
2971 7002
2971 12243
2971 12244
2971 12246
2972 6999
2972 8360
2972 11461
2972 12245
2972 12246
2973 24
2973 48
2973 53
2973 58
2973 63
2973 64
2973 73
2973 75
2973 198
2973 386
2973 470
2973 683
2973 1120
2973 1132
2973 1550
2973 1673
2973 1859
2973 3079
2973 3313
2973 3355
2973 3368
2973 3428
2973 3432
2973 4247
2973 5169
2973 6104
2974 904
2974 2936
2974 12247
2975 51
2975 483
2975 4178
2975 4737
2975 4837
2975 7271
2975 11581
2976 2422
2976 4429
2976 4430
2976 7568
2976 12248
2977 67
2977 712
2977 4566
2977 5480
2977 6079
2977 12249
2978 81
2978 523
2978 611
2978 2421
2978 3092
2978 3710
2978 4861
2978 8009
2978 8301
2978 12250
2979 659
2979 4631
2979 6841
2979 12251
2980 252
2980 630
2980 1774
2980 2114
2980 2750
2980 4427
2980 4631
2980 4632
2980 6841
2980 11917
2981 4046
2981 5416
2981 9621
2981 12139
2981 12252
2982 4046
2982 4289
2982 5284
2982 9201
2982 12253
2983 5991
2983 8575
2983 8956
2983 9805
2983 11876
2983 12254
2984 5991
2984 12898
2985 754
2985 873
2985 1617
2985 1708
2985 3218
2985 4229
2985 5991
2985 7347
2985 11065
2985 12256
2986 181
2986 4111
2986 8655
2986 9078
2986 12257
2987 1170
2987 4982
2987 4983
2987 5053
2987 6663
2987 9222
2987 11426
2987 12258
2987 12259
2988 282
2988 367
2988 439
2988 939
2988 983
2988 1308
2988 1462
2988 1519
2988 1608
2988 1759
2988 1829
2988 1868
2988 1909
2988 2661
2988 3016
2988 3268
2988 3270
2988 3732
2988 4011
2988 5053
2989 1618
2989 3942
2989 4706
2989 9964
2989 10115
2989 12260
2989 12261
2990 3942
2990 4343
2990 4701
2990 5265
2990 12262
2990 12263
2991 66
2991 989
2991 1160
2991 1433
2991 2236
2991 3606
2991 3608
2991 8329
2991 8339
2991 11567
2991 12264
2992 80
2992 567
2992 900
2992 1588
2992 1718
2992 5087
2992 5091
2992 5094
2992 6581
2992 6588
2992 7447
2992 7967
2992 9140
2992 9343
2992 12265
2993 53
2993 102
2993 190
2993 1120
2993 1475
2993 1739
2993 3396
2993 3842
2993 4413
2993 6854
2993 12266
2994 1618
2994 5316
2994 12267
2995 2241
2995 2373
2995 2536
2995 3134
2995 7318
2995 12268
2996 680
2996 939
2996 4730
2996 5804
2996 12269
2997 56
2997 2037
2997 2474
2997 3602
2997 5688
2997 6821
2997 11148
2997 12270
2998 3741
2998 5688
2998 11438
2998 12271
2999 1227
2999 4087
2999 5069
2999 5456
2999 6359
2999 9223
2999 12272
3000 11
3000 36
3000 362
3000 421
3000 3967
3000 4088
3000 4929
3000 7941
3000 8484
3000 9669
3000 10005
3000 12273
3001 6
3001 28
3001 159
3001 332
3001 375
3001 381
3001 679
3001 730
3001 876
3001 1454
3001 1698
3001 2014
3001 2033
3001 2043
3001 2536
3001 3082
3001 3340
3001 3453
3002 93
3002 133
3002 1251
3002 1343
3002 1478
3002 1706
3002 1828
3002 1938
3002 2096
3002 2312
3002 2330
3002 2393
3002 2556
3002 2724
3002 2752
3002 2784
3002 3003
3002 3056
3002 3059
3002 3063
3002 3487
3002 3792
3002 3986
3002 3990
3002 3991
3002 3992
3002 4262
3002 4278
3002 7710
3002 9742
3003 1142
3003 1232
3003 2783
3003 3002
3003 3064
3003 3113
3003 3487
3003 3792
3003 3986
3003 3990
3003 4278
3003 4364
3003 4674
3003 9742
3003 12026
3004 1343
3004 3063
3004 3064
3004 3792
3004 3991
3004 8169
3004 9742
3004 9875
3004 12274
3004 12275
3005 30
3005 52
3005 317
3005 475
3005 585
3005 1169
3005 1797
3005 2817
3005 3392
3005 3479
3005 3870
3005 4356
3005 4990
3005 5224
3005 5619
3005 7823
3005 12276
3006 4671
3006 5634
3006 12277
3006 12278
3007 688
3007 829
3007 2364
3007 4162
3007 4276
3007 7075
3008 36
3008 41
3008 57
3008 59
3008 67
3008 125
3008 660
3008 1067
3008 1195
3008 1900
3008 2799
3008 3127
3008 4458
3008 4569
3008 5070
3008 12279
3009 32
3009 50
3009 68
3009 70
3009 457
3009 893
3009 2083
3009 2190
3009 2783
3009 2935
3009 3345
3010 71
3010 81
3010 2292
3010 3579
3010 4477
3010 5153
3010 5962
3010 12098
3010 12280
3010 12281
3011 17
3011 57
3011 1195
3011 2409
3011 3065
3011 5961
3011 5962
3011 7044
3011 12282
3012 1606
3012 3520
3012 8850
3012 10860
3012 12283
3013 3598
3013 3873
3013 9897
3013 9899
3014 304
3014 1381
3014 2240
3014 2414
3014 2549
3014 2557
3014 2610
3014 2611
3014 2612
3014 2942
3014 3727
3014 4493
3014 11683
3015 4
3015 2022
3015 2697
3015 4493
3015 12284
3016 1462
3016 2661
3016 2892
3016 2988
3016 3082
3016 3270
3016 4765
3016 5072
3016 8119
3016 10786
3017 56
3017 79
3017 384
3017 554
3017 1176
3017 1234
3017 3692
3017 4223
3017 4225
3017 5065
3017 8119
3018 375
3018 526
3018 730
3018 1982
3018 3217
3018 7242
3018 7244
3018 8119
3018 9360
3018 12285
3018 12286
3019 1382
3019 2893
3019 3729
3019 3732
3019 8119
3019 8837
3019 12285
3019 12287
3020 64
3020 681
3020 1656
3020 2067
3020 2068
3020 2328
3020 3022
3020 3810
3020 4596
3020 4857
3020 5701
3020 7084
3021 43
3021 64
3021 547
3021 568
3021 702
3021 877
3021 1185
3021 2067
3021 2068
3021 3022
3021 3811
3021 4857
3021 7084
3021 7135
3022 568
3022 1185
3022 2067
3022 2635
3022 3020
3022 3021
3022 3812
3022 4857
3022 5001
3022 5701
3022 7084
3022 7846
3022 7851
3023 790
3023 5993
3023 7479
3023 12288
3024 2693
3024 3599
3024 3866
3024 4208
3024 7074
3024 9545
3024 11218
3025 4755
3025 5939
3025 10850
3025 11081
3025 12289
3026 1940
3026 2117
3026 5562
3026 5572
3026 11002
3026 12290
3027 1940
3027 5562
3027 5572
3027 12290
3027 12291
3028 17
3028 2055
3028 3065
3028 4807
3028 4941
3028 4942
3028 4943
3028 8520
3028 8604
3029 1977
3029 3640
3029 3771
3029 3814
3029 5096
3029 5097
3029 5102
3029 9149
3029 11637
3030 42
3030 45
3030 119
3030 161
3030 1029
3030 1067
3030 3408
3030 3500
3031 62
3031 70
3031 1531
3031 1709
3031 2268
3031 3327
3031 3404
3031 3408
3031 3476
3031 3501
3031 5855
3031 8831
3031 11495
3031 11938
3032 1122
3032 1216
3032 2381
3032 2557
3032 2612
3032 2628
3032 3095
3032 8066
3032 8474
3032 8763
3032 11792
3032 11923
3033 267
3033 1395
3033 1925
3033 3936
3033 4447
3033 5864
3033 7877
3033 7878
3033 9766
3033 12292
3034 120
3034 4223
3034 5864
3034 6291
3034 9341
3035 613
3035 3973
3035 12293
3036 80
3036 1129
3036 1323
3036 3700
3036 3973
3036 12294
3037 48
3037 3348
3037 3795
3037 10591
3037 10790
3038 2455
3038 2581
3038 3814
3038 6236
3038 9252
3039 3679
3039 4670
3039 5293
3039 5576
3039 5582
3039 12295
3040 1466
3040 2583
3040 4706
3040 5227
3040 6167
3040 9894
3040 12296
3041 2208
3041 3319
3041 5099
3041 5852
3042 693
3042 1678
3042 3148
3042 4030
3042 5099
3042 7101
3042 7179
3042 10054
3042 12297
3042 12298
3043 922
3043 8277
3043 12299
3044 664
3044 2073
3044 3949
3044 8277
3044 9807
3044 11929
3044 12300
3045 2031
3045 2056
3045 3047
3045 3221
3045 8277
3045 11143
3046 7
3046 3101
3046 10068
3046 12301
3046 12302
3047 1363
3047 1723
3047 1848
3047 2056
3047 3045
3047 8277
3047 10819
3047 12303
3048 1371
3048 1789
3048 3391
3048 3474
3048 4494
3048 5342
3048 7115
3048 12304
3049 1775
3049 2077
3049 4494
3049 6777
3049 8374
3049 10876
3049 11667
3050 4494
3050 10128
3050 10132
3050 10435
3050 10983
3050 12305
3050 12306
3051 1831
3051 2893
3051 3453
3051 3462
3051 3515
3051 5060
3051 5397
3051 7818
3051 12307
3052 76
3052 1417
3052 2070
3052 3639
3052 3640
3052 6002
3052 6003
3052 6007
3052 6679
3052 6851
3052 9762
3052 11095
3052 11472
3052 12308
3053 458
3053 5916
3053 12309
3054 80
3054 3640
3054 4771
3054 5102
3054 8438
3054 10936
3054 12310
3055 1526
3055 3518
3055 4771
3055 5601
3055 6971
3055 11679
3056 1460
3056 1706
3056 2785
3056 3002
3056 3057
3056 3058
3056 3059
3056 3060
3057 1317
3057 2785
3057 3056
3057 3063
3057 3064
3057 3487
3057 3992
3057 9288
3058 133
3058 299
3058 2783
3058 3056
3058 3988
3058 4673
3058 10999
3058 11494
3058 12312
3059 1317
3059 1938
3059 3002
3059 3056
3059 3792
3059 3988
3059 9288
3059 9481
3059 10999
3060 172
3060 955
3060 1031
3060 2264
3060 2742
3060 3056
3060 3792
3060 3986
3060 9032
3061 665
3061 1520
3061 3393
3061 3940
3061 4529
3061 6988
3061 9033
3061 11062
3061 12313
3062 69
3062 1328
3062 3574
3062 3906
3062 10730
3062 12314
3063 263
3063 299
3063 1317
3063 1324
3063 1706
3063 2686
3063 2785
3063 3002
3063 3004
3063 3057
3063 3164
3064 848
3064 1317
3064 1410
3064 2428
3064 2470
3064 3003
3064 3004
3064 3057
3064 3202
3064 12315
3065 341
3065 435
3065 849
3065 936
3065 1302
3065 1344
3065 1432
3065 1590
3065 1595
3065 1724
3065 1800
3065 1844
3065 1845
3065 2298
3065 2569
3065 3011
3065 3028
3065 5157
3066 309
3066 461
3066 958
3066 1133
3066 1233
3066 1236
3066 1707
3066 1791
3066 2095
3066 2349
3066 2843
3066 3196
3066 8174
3067 3640
3067 4997
3067 10186
3067 12316
3068 279
3068 1145
3068 2131
3068 2181
3068 2722
3068 2795
3068 3282
3068 4001
3068 4035
3068 4289
3069 29
3069 1108
3069 1475
3069 1874
3069 2358
3069 3173
3069 3244
3069 3352
3069 3917
3069 4997
3069 9921
3070 38
3070 559
3070 2377
3070 2837
3070 3244
3070 4997
3070 6146
3071 366
3071 1196
3071 2658
3071 2785
3071 7710
3071 9288
3071 10453
3072 173
3072 237
3072 839
3072 938
3072 958
3072 1879
3072 2720
3072 3896
3072 4159
3072 8174
3073 463
3073 958
3073 1119
3073 2339
3073 2349
3073 2733
3073 2790
3073 3196
3073 8174
3074 1924
3074 6109
3074 9651
3074 12317
3075 3682
3075 4293
3075 5240
3075 8114
3075 11383
3075 11387
3075 12318
3076 35
3076 69
3076 71
3076 80
3076 81
3076 465
3076 2161
3076 3674
3076 3677
3076 3900
3076 3904
3076 4002
3076 4293
3076 4502
3076 8390
3076 10904
3076 12319
3077 49
3077 54
3077 587
3077 1170
3077 1887
3077 2271
3077 2839
3077 2895
3077 3439
3077 3443
3077 3446
3077 3447
3077 4370
3077 4592
3077 9012
3077 12320
3078 1142
3078 1887
3078 2499
3078 3140
3078 3443
3078 4370
3078 4371
3078 4374
3078 12321
3079 39
3079 43
3079 48
3079 64
3079 237
3079 324
3079 343
3079 547
3079 877
3079 1196
3079 1508
3079 2490
3079 2973
3079 3373
3079 3428
3079 3804
3079 3811
3079 4258
3079 4306
3079 4313
3079 5776
3079 7422
3080 3513
3080 3681
3080 5302
3080 6331
3080 6857
3080 7163
3080 7261
3080 11746
3080 12322
3081 873
3081 2443
3081 4945
3081 6178
3081 7996
3081 12323
3082 194
3082 287
3082 375
3082 384
3082 421
3082 434
3082 685
3082 716
3082 876
3082 1181
3082 1698
3082 1873
3082 1875
3082 1963
3082 2060
3082 2113
3082 2369
3082 2372
3082 2384
3082 2442
3082 2480
3082 2687
3082 2832
3082 3001
3082 3016
3082 3538
3082 4040
3082 4945
3083 698
3083 897
3083 1545
3083 1649
3083 1857
3083 2119
3083 3945
3083 3963
3083 5505
3083 7117
3083 10465
3083 12324
3083 12325
3084 33
3084 184
3084 321
3084 442
3084 585
3084 668
3084 903
3084 1254
3084 1674
3084 2150
3084 2622
3084 3475
3084 3627
3084 3721
3084 3746
3084 4561
3084 4619
3085 13
3085 4431
3085 5165
3085 8457
3085 12326
3086 19
3086 23
3086 26
3086 79
3086 145
3086 1176
3086 3528
3086 3535
3086 3587
3086 3590
3086 3689
3086 5165
3086 7927
3086 9133
3086 12327
3087 71
3087 2161
3087 3677
3087 10621
3087 12328
3088 51
3088 81
3088 208
3088 4628
3088 7953
3088 10621
3088 12329
3089 30
3089 40
3089 48
3089 73
3089 241
3089 585
3089 924
3089 1602
3089 2125
3089 2853
3089 2943
3089 2944
3089 3795
3089 4559
3089 4561
3089 6055
3089 6428
3089 12330
3090 1258
3090 1653
3090 2874
3090 3954
3090 3956
3090 9304
3091 4137
3091 5033
3091 12331
3092 1025
3092 1554
3092 2978
3092 4137
3092 6522
3092 11691
3093 735
3093 1058
3093 1217
3093 1888
3093 1913
3093 2035
3093 5955
3093 6759
3093 7041
3094 228
3094 2381
3094 4492
3094 5115
3094 7308
3094 8066
3094 8412
3094 12332
3094 12333
3095 1027
3095 1245
3095 1852
3095 1998
3095 2557
3095 2612
3095 2628
3095 2705
3095 2706
3095 2942
3095 3032
3095 8066
3095 10829
3095 11923
3096 3124
3096 3454
3096 7231
3096 10512
3096 11937
3096 12334
3097 5728
3097 5731
3097 12335
3098 34
3098 50
3098 958
3098 3203
3098 4099
3098 8446
3098 12336
3099 7
3099 12337
3100 7
3100 4065
3100 8013
3100 10545
3100 11184
3101 7
3101 560
3101 3046
3101 12338
3102 7
3102 1206
3102 3979
3102 9609
3103 2047
3103 2822
3103 2896
3103 2908
3103 3213
3103 6283
3103 6297
3103 8044
3103 9743
3103 10480
3103 12339
3104 941
3104 3835
3104 7258
3104 7720
3104 12340
3105 5468
3105 7720
3105 10424
3105 12341
3105 12342
3105 12343
3106 58
3106 63
3106 469
3106 1194
3106 1333
3106 1790
3106 2656
3106 3184
3106 3255
3106 3337
3106 4601
3106 4958
3107 312
3107 341
3107 663
3107 732
3107 936
3107 1028
3107 1051
3107 1058
3107 1164
3107 1314
3107 1315
3107 1331
3107 1491
3107 1590
3107 1724
3107 1766
3107 1800
3107 2239
3107 2298
3107 2409
3107 2569
3107 3149
3107 5157
3108 448
3108 996
3108 1037
3108 3719
3108 4168
3108 4749
3108 8856
3108 9142
3108 11783
3108 12344
3109 1460
3109 1901
3109 2555
3109 4172
3109 6110
3109 8926
3109 12345
3110 632
3110 917
3110 3677
3110 4381
3110 8345
3110 12346
3111 331
3111 632
3111 917
3111 1831
3111 4381
3111 5056
3111 5478
3111 12347
3111 12348
3112 4176
3112 4180
3112 4503
3112 7880
3112 12349
3113 73
3113 955
3113 1194
3113 2556
3113 2604
3113 2729
3113 2784
3113 3003
3113 3798
3113 7198
3114 4745
3114 7378
3114 12350
3114 12351
3115 61
3115 3932
3115 6529
3115 11894
3115 12352
3116 4520
3116 7070
3116 10986
3116 10994
3117 4520
3117 7070
3117 10986
3117 10994
3117 12353
3118 3993
3118 4520
3118 12354
3119 1025
3119 5257
3119 6227
3119 6396
3119 7953
3119 9950
3119 12355
3120 495
3120 2445
3120 3180
3120 7168
3120 10545
3120 12356
3121 292
3121 948
3121 4604
3121 7168
3121 12357
3122 1831
3122 2013
3122 5073
3122 5478
3122 12358
3123 331
3123 459
3123 3191
3123 3217
3123 3458
3123 5478
3123 5484
3123 9621
3123 10698
3123 10775
3123 12359
3124 77
3124 261
3124 313
3124 374
3124 466
3124 624
3124 894
3124 1067
3124 1399
3124 1454
3124 1465
3124 1699
3124 1784
3124 1820
3124 1823
3124 1957
3124 2173
3124 2209
3124 2589
3124 2663
3124 2735
3124 3096
3124 3468
3125 186
3125 197
3125 462
3125 469
3125 717
3125 774
3125 929
3125 1079
3125 1142
3125 1171
3125 1233
3125 1556
3125 1641
3125 1743
3125 1828
3125 1849
3125 1959
3125 2189
3125 2264
3125 2331
3125 2349
3125 2377
3125 2622
3125 2804
3125 2821
3125 2925
3125 2952
3125 2960
3125 3419
3125 3422
3126 73
3126 190
3126 314
3126 322
3126 337
3126 469
3126 777
3126 834
3126 1139
3126 1232
3126 1476
3126 1503
3126 1707
3126 1834
3126 1855
3126 1961
3126 2190
3126 2339
3126 2804
3126 2805
3126 2849
3126 2957
3126 3261
3126 3422
3127 62
3127 624
3127 906
3127 1191
3127 1278
3127 2074
3127 2827
3127 2912
3127 2945
3127 3008
3127 3325
3127 3326
3127 3377
3128 337
3128 441
3128 469
3128 471
3128 717
3128 987
3128 1119
3128 1879
3128 2637
3128 2849
3128 3309
3128 3422
3129 52
3129 63
3129 70
3129 285
3129 475
3129 1054
3129 1169
3129 1837
3129 2798
3129 3480
3129 4790
3129 5628
3130 115
3130 777
3130 834
3130 930
3130 1475
3130 1503
3130 1707
3130 1834
3130 1894
3130 1898
3130 2622
3130 2957
3130 3185
3130 3422
3131 189
3131 3666
3131 5513
3131 9526
3131 9547
3131 12360
3132 2874
3132 3666
3132 12361
3133 3494
3133 5848
3133 8831
3133 12321
3133 12362
3134 165
3134 281
3134 796
3134 867
3134 1072
3134 1479
3134 2373
3134 2395
3134 2438
3134 2537
3134 2541
3134 2599
3134 2868
3134 2914
3134 2938
3134 2995
3134 4108
3134 7503
3134 9079
3134 11139
3135 1367
3135 2395
3135 4295
3135 7503
3135 9629
3135 12363
3136 79
3136 1618
3136 3688
3136 4656
3136 5241
3136 5355
3136 9169
3136 10275
3136 12364
3137 5352
3137 5355
3137 12365
3138 3826
3138 12366
3139 2484
3139 2874
3139 3178
3139 4061
3139 12297
3140 200
3140 1142
3140 2499
3140 2699
3140 2965
3140 2966
3140 3078
3140 3141
3140 4276
3141 296
3141 2428
3141 2457
3141 3140
3141 3388
3141 4971
3142 939
3142 1141
3142 1330
3142 2452
3142 2583
3142 4431
3142 5108
3142 9511
3142 12367
3143 1391
3143 2200
3143 2310
3143 2613
3143 2614
3143 4061
3143 9689
3143 9690
3143 11553
3143 12368
3144 3411
3144 3413
3144 12074
3144 12369
3145 396
3145 2956
3145 3413
3145 3671
3145 8047
3145 8462
3145 11357
3145 12370
3146 42
3146 62
3146 271
3146 1114
3146 1191
3146 1235
3146 1489
3146 1900
3146 2074
3146 2184
3146 2540
3146 2912
3146 2929
3146 3377
3146 3405
3146 7285
3147 42
3147 62
3147 271
3147 345
3147 1191
3147 1302
3147 2074
3147 2929
3147 3377
3147 7285
3148 95
3148 144
3148 495
3148 1249
3148 2179
3148 2250
3148 2344
3148 2484
3148 3042
3148 3192
3148 4030
3149 2409
3149 3107
3149 3961
3149 4141
3149 4809
3149 12371
3150 15
3150 6556
3150 6882
3150 12372
3151 1690
3151 1803
3151 1847
3151 6556
3151 9892
3151 10695
3151 11825
3151 12373
3152 54
3152 1746
3152 2632
3152 4551
3152 4677
3152 5961
3152 10461
3152 12374
3153 382
3153 699
3153 1360
3153 3937
3153 5460
3153 7928
3153 9600
3154 2887
3154 3157
3154 6288
3154 7601
3154 8336
3154 11014
3155 2123
3155 2887
3155 6288
3155 7303
3155 12375
3156 3675
3156 3699
3156 4813
3156 6288
3156 7983
3156 9132
3156 12376
3157 1946
3157 3154
3157 6288
3157 11010
3157 11910
3158 692
3158 801
3158 4075
3158 4874
3158 5543
3158 5615
3158 5617
3158 6961
3158 8637
3158 9188
3158 10086
3158 11330
3158 12377
3159 4874
3159 12378
3160 48
3160 474
3160 2791
3160 2804
3160 3428
3160 3480
3160 4150
3160 7247
3160 12379
3161 2922
3161 6007
3161 8001
3162 59
3162 1830
3162 5389
3162 12380
3163 2423
3163 4170
3163 5136
3163 5138
3163 9369
3164 1324
3164 2686
3164 3063
3164 3165
3164 3989
3164 9495
3165 299
3165 1251
3165 1317
3165 1324
3165 2692
3165 2710
3165 3164
3165 3166
3165 3487
3165 3986
3165 3989
3165 3992
3165 4268
3165 4674
3165 9742
3165 12381
3165 12382
3166 3165
3166 3262
3166 3487
3166 3989
3166 3992
3166 4268
3166 4674
3166 8826
3167 1555
3167 8336
3167 12383
3168 375
3168 3365
3168 5318
3168 6468
3168 7036
3168 12384
3169 2824
3169 3907
3169 4656
3169 8330
3169 12385
3169 12386
3170 417
3170 1249
3170 4030
3170 5694
3170 9680
3170 12387
3171 1406
3171 3178
3171 3179
3171 4188
3171 4189
3171 9734
3172 4047
3172 4048
3172 5232
3172 6825
3172 12388
3173 8
3173 29
3173 38
3173 2358
3173 2525
3173 3069
3173 3917
3173 4144
3173 4997
3173 9921
3174 4863
3174 4867
3174 6962
3174 12389
3175 81
3175 3765
3175 4388
3175 5086
3175 5091
3176 71
3176 80
3176 3765
3176 4606
3176 5083
3176 7984
3176 12390
3176 12391
3177 287
3177 878
3177 923
3177 2088
3177 2915
3177 5922
3177 6880
3178 160
3178 287
3178 332
3178 374
3178 375
3178 459
3178 730
3178 907
3178 948
3178 975
3178 1173
3178 1253
3178 1272
3178 1426
3178 1446
3178 1495
3178 1575
3178 1831
3178 2013
3178 2014
3178 2484
3178 2651
3178 2747
3178 2778
3178 2806
3178 2874
3178 2875
3178 3139
3178 3171
3178 5922
3178 12392
3179 160
3179 332
3179 375
3179 459
3179 730
3179 907
3179 948
3179 975
3179 1157
3179 1173
3179 1253
3179 1426
3179 1446
3179 1495
3179 1575
3179 1831
3179 2013
3179 2014
3179 2223
3179 2651
3179 2747
3179 2778
3179 2806
3179 2874
3179 3171
3179 5922
3180 495
3180 1446
3180 2445
3180 2806
3180 3120
3180 3235
3180 5922
3180 12393
3181 1678
3181 2240
3181 2731
3181 3727
3181 4038
3181 12394
3181 12395
3182 7264
3182 7586
3182 12396
3182 12397
3183 7264
3183 9823
3183 12398
3184 18
3184 30
3184 70
3184 337
3184 462
3184 684
3184 938
3184 1162
3184 1619
3184 1770
3184 1840
3184 1858
3184 2143
3184 2190
3184 3106
3184 3185
3184 3791
3184 5619
3184 6046
3184 10297
3185 16
3185 18
3185 31
3185 70
3185 441
3185 777
3185 1133
3185 1163
3185 2147
3185 2377
3185 2752
3185 2761
3185 3130
3185 3184
3185 3203
3185 3389
3185 3391
3185 3426
3185 3791
3185 6046
3185 8061
3186 80
3186 220
3186 465
3186 1501
3186 2291
3186 2716
3186 3703
3186 4547
3186 4813
3186 4825
3186 8005
3186 12001
3186 12399
3187 1116
3187 3300
3187 4813
3187 12400
3187 12401
3188 2321
3188 4124
3188 12402
3189 232
3189 976
3189 1035
3189 2137
3189 4124
3189 4513
3189 8266
3189 8267
3189 9929
3189 12403
3190 495
3190 871
3190 948
3190 1387
3190 1767
3190 2348
3190 2374
3190 2446
3190 2771
3190 4032
3190 4040
3190 11714
3191 332
3191 427
3191 495
3191 526
3191 1041
3191 1157
3191 1173
3191 1831
3191 3123
3191 4040
3192 262
3192 495
3192 871
3192 948
3192 1678
3192 2252
3192 2344
3192 2348
3192 2374
3192 2446
3192 2967
3192 3148
3192 3209
3192 4040
3193 80
3193 2246
3193 5153
3193 5341
3193 12404
3194 3230
3194 4606
3194 6518
3194 7623
3195 4606
3195 4610
3195 7602
3195 11429
3195 12405
3196 31
3196 32
3196 76
3196 309
3196 537
3196 897
3196 1233
3196 1236
3196 2843
3196 3066
3196 3073
3196 3480
3196 3636
3196 4359
3196 4925
3196 5663
3196 6046
3196 6358
3197 32
3197 48
3197 50
3197 73
3197 76
3197 737
3197 1163
3197 1194
3197 1354
3197 1700
3197 1840
3197 2147
3197 2190
3197 2558
3197 2849
3197 3351
3197 3636
3197 5120
3197 6163
3198 386
3198 553
3198 651
3198 683
3198 689
3198 930
3198 1159
3198 1607
3198 1673
3198 1860
3198 2685
3198 3346
3199 20
3199 1916
3199 2557
3199 4236
3199 5547
3199 5562
3199 7551
3199 10959
3199 12406
3200 64
3200 702
3200 853
3200 2067
3200 3371
3200 3386
3200 4363
3200 4364
3200 7734
3201 36
3201 59
3201 67
3201 298
3201 466
3201 660
3201 1195
3201 2483
3201 4425
3201 4632
3201 4866
3201 8471
3202 48
3202 73
3202 2554
3202 3064
3202 3388
3202 3604
3202 5120
3202 12315
3202 12407
3203 12
3203 50
3203 60
3203 337
3203 441
3203 469
3203 471
3203 717
3203 774
3203 821
3203 938
3203 1018
3203 1073
3203 1139
3203 1146
3203 1232
3203 1345
3203 1500
3203 1502
3203 1619
3203 1673
3203 1729
3203 1770
3203 1790
3203 1828
3203 1879
3203 2147
3203 2266
3203 2367
3203 2558
3203 2559
3203 2637
3203 2659
3203 2761
3203 2804
3203 2805
3203 2951
3203 3098
3203 3185
3203 3255
3203 3309
3203 5120
3204 6206
3204 12408
3205 735
3205 1055
3205 3850
3205 4134
3205 4141
3205 4809
3205 12409
3205 12410
3206 288
3206 936
3206 977
3206 2055
3206 2217
3206 4141
3206 4809
3206 5822
3206 11418
3207 1721
3207 2422
3207 4423
3207 4430
3207 7569
3207 12411
3208 211
3208 1721
3208 2522
3208 4421
3208 4423
3208 4430
3208 7116
3209 3192
3209 4047
3209 12412
3209 12413
3210 14
3210 478
3210 643
3210 3372
3210 3805
3210 3810
3210 4256
3210 5058
3210 5883
3210 5970
3210 8321
3210 11773
3210 12414
3211 30
3211 31
3211 38
3211 40
3211 48
3211 53
3211 73
3211 190
3211 929
3211 1135
3211 1183
3211 1357
3211 1476
3211 1587
3211 1663
3211 1739
3211 1843
3211 2252
3211 2302
3211 2303
3211 3309
3211 3349
3211 3427
3211 3428
3211 3430
3211 3435
3211 3624
3211 3795
3211 3842
3211 4143
3211 4247
3211 4299
3211 4300
3211 4413
3211 6570
3212 9
3212 154
3212 221
3212 330
3212 925
3212 2047
3212 2822
3212 2896
3212 8044
3213 9
3213 2896
3213 2909
3213 3103
3213 4069
3213 12415
3214 80
3214 435
3214 4055
3214 12416
3214 12417
3214 12418
3214 12477
3215 3640
3215 5727
3215 5826
3215 6152
3215 12419
3216 447
3216 857
3216 2307
3216 2651
3216 4087
3216 7749
3217 200
3217 246
3217 331
3217 459
3217 528
3217 870
3217 896
3217 1029
3217 1157
3217 1184
3217 1830
3217 1831
3217 2013
3217 3018
3217 3123
3217 3345
3217 3469
3218 311
3218 499
3218 549
3218 754
3218 1097
3218 1606
3218 1617
3218 1627
3218 2030
3218 2258
3218 2375
3218 2414
3218 2478
3218 2537
3218 2549
3218 2700
3218 2880
3218 2938
3218 2985
3218 6214
3219 1135
3219 3842
3219 4359
3219 6104
3219 10172
3219 12420
3220 1471
3220 4191
3220 5570
3220 12421
3221 2356
3221 2411
3221 3045
3221 4191
3221 8277
3221 10493
3221 11143
3221 12422
3222 6003
3222 7029
3222 12423
3223 199
3223 568
3223 681
3223 1185
3223 1656
3223 1805
3223 2067
3223 2068
3223 2175
3223 2259
3223 3370
3224 81
3224 3933
3224 5052
3224 12424
3225 51
3225 81
3225 284
3225 1618
3225 2213
3225 3933
3225 4289
3225 11421
3226 1767
3226 2537
3226 4118
3226 4136
3226 4765
3226 5693
3226 8323
3226 8324
3226 12425
3227 42
3227 68
3227 246
3227 333
3227 340
3227 621
3227 1139
3227 1170
3227 1184
3227 1887
3227 4592
3227 4597
3227 9084
3228 13
3228 801
3228 1145
3228 4109
3228 4289
3228 12426
3229 4109
3229 7148
3229 12427
3230 80
3230 81
3230 3194
3230 3311
3230 4609
3230 4610
3230 4613
3230 7980
3230 12428
3231 2084
3231 2660
3231 3949
3231 8288
3231 10689
3231 12429
3232 709
3232 950
3232 1917
3232 1953
3232 2713
3232 3949
3232 11904
3233 3971
3233 4677
3233 5444
3233 5782
3233 8157
3233 12130
3233 12430
3234 730
3234 2839
3234 4287
3234 4981
3234 4983
3234 5186
3234 5248
3234 5406
3234 12042
3234 12431
3235 89
3235 262
3235 948
3235 1446
3235 1809
3235 2806
3235 3180
3235 3418
3235 5069
3235 5924
3235 5927
3236 52
3236 350
3236 585
3236 804
3236 1013
3236 1695
3236 2151
3236 2760
3236 2798
3236 2817
3236 3389
3236 3397
3236 3407
3236 3868
3236 4152
3236 5224
3236 5225
3236 8582
3237 3
3237 3895
3237 10796
3237 12432
3238 10
3238 12433
3239 69
3239 79
3239 81
3239 201
3239 1740
3239 3693
3239 3703
3239 3906
3239 4380
3239 9203
3240 5197
3240 6498
3240 7550
3240 12434
3241 3742
3241 3930
3241 8075
3241 12435
3242 5689
3242 8350
3242 10087
3242 12021
3242 12083
3242 12436
3243 6077
3243 12437
3243 12438
3243 12439
3244 29
3244 38
3244 63
3244 1108
3244 1859
3244 1874
3244 1894
3244 2358
3244 2525
3244 2837
3244 3069
3244 3070
3244 3342
3244 3347
3244 3352
3244 3368
3244 3917
3245 2698
3245 3631
3245 9613
3245 12440
3246 20
3246 1948
3246 2075
3246 4826
3246 5190
3246 11016
3247 594
3247 885
3247 1337
3247 5190
3247 6690
3247 6692
3247 7892
3247 9444
3248 81
3248 889
3248 1714
3248 1972
3248 2585
3248 3562
3248 3579
3248 11526
3248 12441
3249 61
3249 4138
3249 6059
3249 12442
3250 3675
3250 4138
3250 12443
3251 3808
3251 5058
3251 6125
3251 6839
3251 12444
3252 36
3252 37
3252 57
3252 59
3252 61
3252 67
3252 1026
3252 1195
3252 1510
3252 1760
3252 3364
3252 3366
3252 3967
3253 317
3253 3623
3253 3719
3253 5607
3253 11676
3253 12445
3254 2759
3254 3719
3254 3857
3254 4790
3254 6908
3254 12446
3255 50
3255 70
3255 426
3255 1133
3255 3106
3255 3203
3255 3603
3255 3722
3255 3821
3256 32
3256 2699
3256 3442
3256 3821
3257 2555
3257 2783
3257 3487
3257 4262
3257 11750
3258 22
3258 995
3258 4006
3258 4880
3258 6581
3259 497
3259 688
3259 1196
3259 1898
3259 2955
3259 4270
3259 6163
3259 7077
3260 43
3260 64
3260 1242
3260 3386
3260 6163
3260 7734
3261 30
3261 40
3261 52
3261 321
3261 323
3261 406
3261 413
3261 474
3261 1120
3261 1186
3261 1403
3261 1475
3261 1488
3261 1648
3261 1827
3261 1843
3261 1859
3261 2351
3261 2358
3261 3126
3261 3347
3261 3349
3261 3350
3261 3356
3261 3430
3261 3726
3261 4143
3261 4150
3261 4412
3261 4413
3261 4529
3262 133
3262 3166
3262 3988
3262 3989
3262 4674
3262 12274
3263 4532
3263 8926
3263 12902
3264 154
3264 287
3264 361
3264 528
3264 1402
3264 2092
3264 2373
3264 5456
3264 6360
3265 1560
3265 4123
3265 4513
3265 8964
3265 12448
3266 4513
3266 12449
3267 2073
3267 6986
3267 12450
3268 2988
3268 4767
3268 5072
3268 8593
3268 10950
3268 12451
3269 5072
3269 8202
3269 8203
3269 12452
3270 2988
3270 3016
3270 5072
3270 8593
3270 10950
3270 12453
3271 3488
3271 4790
3271 11134
3271 12454
3272 3632
3272 3635
3272 3854
3272 9762
3272 10046
3272 12455
3273 58
3273 63
3273 73
3273 163
3273 237
3273 413
3273 474
3273 522
3273 752
3273 924
3273 958
3273 1119
3273 1120
3273 1472
3273 1475
3273 1562
3273 1652
3273 1874
3273 3336
3273 3347
3273 4529
3273 4559
3274 13
3274 479
3274 1955
3274 2534
3274 5810
3274 10048
3275 3854
3275 6676
3275 12356
3275 12456
3276 3446
3276 3478
3276 7686
3277 3940
3277 4167
3277 4463
3277 7651
3277 8385
3277 10272
3277 11173
3277 12457
3278 40
3278 52
3278 413
3278 475
3278 585
3278 822
3278 1403
3278 1561
3278 2303
3278 3389
3278 3397
3278 6567
3279 473
3279 3770
3279 6132
3279 6576
3279 12458
3280 3770
3280 12459
3280 12460
3281 61
3281 1177
3281 3770
3281 5945
3281 12461
3282 69
3282 81
3282 3068
3282 4002
3282 10760
3283 27
3283 35
3283 3852
3283 4002
3283 11311
3283 12462
3284 1320
3284 2213
3284 4002
3284 9487
3284 11408
3284 12463
3285 249
3285 446
3285 1631
3285 4315
3285 6538
3285 12464
3286 3449
3286 10190
3286 10600
3286 12465
3287 31
3287 48
3287 73
3287 1828
3287 2303
3287 2555
3287 2804
3287 3308
3287 3309
3287 3425
3287 3428
3287 3797
3287 4258
3287 4555
3288 587
3288 1170
3288 1184
3288 1640
3288 1905
3288 2717
3288 2793
3288 3381
3288 3382
3288 3403
3288 3501
3288 10074
3289 84
3289 1134
3289 1299
3289 1861
3289 2296
3289 2677
3289 2730
3289 3730
3289 5454
3290 108
3290 4388
3290 11010
3290 11429
3291 302
3291 523
3291 913
3291 2435
3291 2572
3291 4216
3291 4388
3291 7123
3291 7984
3291 12466
3291 12467
3292 4388
3292 4886
3292 12468
3293 3561
3293 3907
3293 5366
3293 8087
3293 12469
3293 12470
3294 18
3294 463
3294 471
3294 668
3294 1674
3294 2798
3294 2817
3294 3391
3294 3870
3294 5225
3295 239
3295 1137
3295 1804
3295 3602
3295 12270
3296 1360
3296 4386
3296 5501
3296 5978
3296 9601
3296 12471
3297 64
3297 73
3297 285
3297 474
3297 774
3297 874
3297 1194
3297 1837
3297 2791
3297 3386
3297 3480
3297 3811
3297 4150
3298 4765
3298 7370
3298 10120
3299 1760
3299 4206
3299 12472
3300 3187
3300 4206
3300 4210
3300 12473
3300 12474
3301 1219
3301 2928
3301 4206
3301 4543
3301 12475
3302 80
3302 3830
3302 4408
3302 10364
3303 3830
3303 12476
3304 467
3304 4677
3304 10159
3304 12477
3304 12478
3305 27
3305 3852
3305 6760
3305 7267
3305 12479
3306 27
3306 3852
3306 4292
3306 5154
3306 12480
3307 27
3307 1379
3307 3852
3307 8304
3307 9655
3307 12481
3308 441
3308 462
3308 1146
3308 1828
3308 2204
3308 2303
3308 2659
3308 2883
3308 3287
3308 3389
3308 3428
3308 10781
3309 18
3309 32
3309 50
3309 73
3309 322
3309 441
3309 462
3309 908
3309 987
3309 1133
3309 1146
3309 1171
3309 1183
3309 1194
3309 1828
3309 1879
3309 2094
3309 2204
3309 2761
3309 3128
3309 3203
3309 3211
3309 3287
3309 3389
3309 3391
3309 3428
3310 71
3310 1147
3310 3741
3310 10760
3310 11439
3310 12482
3311 80
3311 81
3311 3230
3311 3741
3311 6763
3311 9135
3311 9768
3312 1437
3312 3741
3312 7295
3312 10470
3312 12483
3312 12484
3313 24
3313 64
3313 70
3313 73
3313 92
3313 198
3313 248
3313 474
3313 570
3313 586
3313 853
3313 1171
3313 1194
3313 1828
3313 1855
3313 2455
3313 2674
3313 2733
3313 2952
3313 2973
3313 3373
3313 3386
3314 652
3314 4706
3314 12385
3315 2589
3315 4706
3315 8949
3315 10521
3315 12485
3316 566
3316 1954
3316 3510
3316 4706
3316 6575
3316 11496
3316 12486
3317 1307
3317 3986
3317 7473
3317 10890
3317 11780
3318 939
3318 2893
3318 3729
3318 8253
3318 10967
3318 12413
3319 457
3319 583
3319 1308
3319 2651
3319 3041
3319 3347
3319 4144
3319 9560
3320 29
3320 38
3320 68
3320 1357
3320 3347
3320 4144
3320 9470
3321 30
3321 58
3321 63
3321 171
3321 190
3321 463
3321 908
3321 1183
3321 1311
3321 1663
3321 1739
3321 2645
3321 3347
3321 3504
3321 3842
3321 4779
3321 10411
3322 57
3322 59
3322 67
3322 730
3322 1195
3322 1760
3322 1830
3322 3460
3322 12487
3323 849
3323 959
3323 1331
3323 1547
3323 2385
3323 4141
3323 12488
3324 3964
3324 5817
3324 5837
3324 9918
3324 12489
3324 12490
3325 45
3325 333
3325 1222
3325 2184
3325 2256
3325 3127
3325 3382
3325 3496
3326 45
3326 2184
3326 3127
3326 3327
3326 3382
3326 8483
3327 45
3327 716
3327 1531
3327 3031
3327 3326
3327 3382
3327 10074
3328 69
3328 80
3328 81
3328 3675
3328 6522
3328 12069
3328 12491
3329 20
3329 594
3329 1337
3329 1890
3329 4508
3329 12492
3330 3
3330 3600
3330 12493
3331 916
3331 1606
3331 2414
3331 2599
3331 2690
3331 4039
3331 7488
3331 12494
3331 12495
3332 22
3332 2049
3332 5051
3332 11641
3332 12496
3333 117
3333 1705
3333 2616
3333 2643
3333 3910
3333 4066
3333 5903
3333 12497
3333 12498
3334 3453
3334 3462
3334 5313
3334 7098
3334 10530
3334 10580
3334 12499
3335 23
3335 1666
3335 3529
3335 7880
3335 10416
3336 24
3336 322
3336 474
3336 684
3336 1031
3336 1119
3336 1171
3336 1174
3336 1356
3336 1472
3336 1488
3336 2272
3336 2349
3336 3273
3337 24
3337 452
3337 839
3337 1741
3337 1834
3337 2193
3337 2733
3337 3106
3338 1196
3338 1310
3338 2094
3338 2456
3338 3428
3338 4270
3338 6163
3338 10531
3339 28
3339 41
3339 876
3339 2033
3339 3453
3339 9860
3339 11085
3340 28
3340 2043
3340 3001
3340 7843
3340 12500
3341 28
3341 41
3341 105
3341 1297
3341 1709
3341 5414
3342 29
3342 34
3342 322
3342 383
3342 684
3342 1108
3342 1233
3342 1874
3342 2358
3342 3244
3342 3897
3343 1976
3343 2376
3343 3640
3343 10639
3344 3640
3344 6852
3344 8187
3345 32
3345 246
3345 309
3345 1139
3345 1400
3345 1521
3345 1619
3345 1651
3345 3009
3345 3217
3346 33
3346 53
3346 118
3346 283
3346 413
3346 442
3346 564
3346 2377
3346 2622
3346 3198
3347 34
3347 197
3347 322
3347 1120
3347 1312
3347 1476
3347 1628
3347 1874
3347 1879
3347 2096
3347 2191
3347 2336
3347 2358
3347 3244
3347 3261
3347 3273
3347 3319
3347 3320
3347 3321
3348 34
3348 171
3348 717
3348 1171
3348 1641
3348 1741
3348 1770
3348 3037
3349 34
3349 44
3349 53
3349 190
3349 207
3349 323
3349 343
3349 470
3349 475
3349 553
3349 586
3349 629
3349 929
3349 1132
3349 1135
3349 1183
3349 1345
3349 1467
3349 1476
3349 1507
3349 1648
3349 1776
3349 1849
3349 2248
3349 2268
3349 2302
3349 2883
3349 3211
3349 3261
3350 34
3350 92
3350 115
3350 155
3350 383
3350 474
3350 623
3350 752
3350 759
3350 1081
3350 1090
3350 1356
3350 1472
3350 1602
3350 1741
3350 1770
3350 1855
3350 2230
3350 2349
3350 3261
3351 34
3351 717
3351 1111
3351 1232
3351 1478
3351 1828
3351 1962
3351 2095
3351 2377
3351 2804
3351 2960
3351 3197
3351 3422
3352 34
3352 197
3352 343
3352 527
3352 684
3352 1120
3352 1383
3352 1961
3352 2143
3352 2377
3352 2674
3352 2837
3352 3069
3352 3244
3353 34
3353 651
3353 839
3353 1520
3353 2163
3353 2842
3354 34
3354 60
3354 383
3354 537
3354 2622
3355 34
3355 53
3355 60
3355 197
3355 470
3355 653
3355 718
3355 774
3355 1183
3355 1673
3355 1743
3355 2112
3355 2127
3355 2960
3355 2973
3356 34
3356 190
3356 323
3356 475
3356 929
3356 1305
3356 1476
3356 2248
3356 2302
3356 3261
3357 35
3357 103
3357 12501
3358 35
3358 5290
3358 12183
3358 12502
3359 35
3359 11023
3359 12503
3360 35
3360 1145
3360 1816
3360 4784
3360 4899
3360 12504
3361 35
3361 69
3361 2886
3361 2887
3361 2888
3361 7302
3362 35
3362 226
3362 5031
3362 6330
3363 37
3363 55
3363 261
3363 367
3363 543
3363 625
3363 919
3363 1697
3363 2011
3363 2769
3364 37
3364 1177
3364 2113
3364 3252
3365 37
3365 65
3365 361
3365 364
3365 716
3365 934
3365 2624
3365 3168
3365 3468
3366 37
3366 242
3366 361
3366 362
3366 381
3366 434
3366 466
3366 660
3366 1258
3366 1662
3366 1701
3366 3252
3367 38
3367 1108
3368 39
3368 376
3368 470
3368 848
3368 1634
3368 1854
3368 2191
3368 2253
3368 2734
3368 2811
3368 2973
3368 3244
3369 39
3369 376
3369 392
3369 404
3369 452
3369 568
3369 681
3369 848
3369 853
3369 1805
3369 1826
3369 2340
3369 2635
3370 39
3370 64
3370 186
3370 199
3370 1332
3370 1826
3370 2067
3370 2112
3370 2175
3370 2468
3370 3223
3371 39
3371 186
3371 199
3371 404
3371 470
3371 568
3371 681
3371 803
3371 848
3371 853
3371 1109
3371 1332
3371 1656
3371 1805
3371 1826
3371 2065
3371 2067
3371 2259
3371 2468
3371 2635
3371 2702
3371 3200
3372 39
3372 1656
3372 2340
3372 3210
3373 39
3373 75
3373 475
3373 586
3373 776
3373 853
3373 1079
3373 1171
3373 1353
3373 1619
3373 1776
3373 1879
3373 2327
3373 2648
3373 2952
3373 2955
3373 3079
3373 3313
3374 39
3374 547
3374 776
3374 853
3374 1171
3374 1743
3374 1776
3374 2327
3374 2702
3374 2952
3374 2955
3375 41
3375 339
3375 3471
3375 3538
3375 7158
3375 8988
3375 9860
3376 42
3376 906
3377 42
3377 62
3377 1029
3377 1905
3377 2929
3377 3127
3377 3146
3377 3147
3377 3385
3378 42
3378 872
3378 2352
3379 42
3379 622
3379 1114
3379 1388
3380 42
3380 333
3380 345
3380 413
3380 522
3380 835
3380 1813
3381 42
3381 62
3381 77
3381 333
3381 548
3381 760
3381 1184
3381 1905
3381 1926
3381 1995
3381 2116
3381 2205
3381 2275
3381 2283
3381 2797
3381 2827
3381 2912
3381 3288
3382 42
3382 87
3382 437
3382 572
3382 739
3382 1029
3382 1114
3382 1482
3382 1531
3382 1813
3382 1926
3382 1996
3382 2256
3382 2274
3382 2352
3382 2885
3382 3288
3382 3325
3382 3326
3382 3327
3383 42
3383 77
3383 333
3383 463
3383 548
3383 760
3383 1090
3383 1995
3383 2274
3383 2283
3383 2885
3384 42
3384 77
3384 2274
3384 2275
3384 2751
3384 2885
3385 42
3385 62
3385 522
3385 906
3385 1029
3385 1388
3385 1773
3385 2006
3385 2827
3385 2885
3385 3377
3386 43
3386 70
3386 73
3386 469
3386 570
3386 683
3386 774
3386 776
3386 853
3386 1079
3386 2021
3386 2067
3386 2555
3386 2674
3386 2733
3386 3200
3386 3260
3386 3297
3386 3313
3387 43
3387 11931
3388 43
3388 1959
3388 2112
3388 2457
3388 2554
3388 3141
3388 3202
3388 5011
3389 44
3389 337
3389 366
3389 441
3389 469
3389 717
3389 987
3389 1133
3389 1681
3389 1840
3389 2147
3389 2151
3389 2761
3389 3185
3389 3236
3389 3278
3389 3308
3389 3309
3390 44
3390 461
3390 752
3390 1651
3390 1652
3390 2656
3391 44
3391 53
3391 95
3391 337
3391 441
3391 462
3391 469
3391 471
3391 717
3391 821
3391 938
3391 987
3391 1119
3391 1133
3391 1549
3391 1619
3391 1673
3391 1840
3391 1879
3391 2147
3391 2248
3391 2637
3391 2659
3391 2674
3391 2849
3391 3048
3391 3185
3391 3294
3391 3309
3392 44
3392 1305
3392 1345
3392 1758
3392 1849
3392 2560
3392 3005
3393 44
3393 1520
3393 3061
3394 44
3394 1859
3395 44
3395 1799
3395 1859
3395 1987
3395 2475
3396 44
3396 198
3396 462
3396 474
3396 929
3396 1345
3396 2302
3396 2993
3397 44
3397 248
3397 441
3397 475
3397 1146
3397 1169
3397 1191
3397 1316
3397 1655
3397 1681
3397 2143
3397 2817
3397 3236
3397 3278
3398 44
3398 246
3398 296
3398 333
3398 395
3398 404
3398 452
3398 472
3398 952
3398 1250
3398 1482
3398 2525
3398 2966
3399 44
3399 54
3399 68
3399 395
3399 470
3399 1243
3399 3571
3400 45
3401 45
3401 570
3401 874
3401 1114
3401 1482
3401 2945
3401 2948
3402 45
3402 437
3402 3650
3402 3653
3403 45
3403 62
3403 119
3403 345
3403 437
3403 467
3403 1235
3403 1278
3403 1552
3403 1773
3403 1905
3403 1994
3403 1996
3403 2185
3403 3288
3404 45
3404 62
3404 119
3404 271
3404 345
3404 1067
3404 1552
3404 2184
3404 2185
3404 2268
3404 2929
3404 3031
3404 8491
3405 45
3405 3146
3405 7286
3406 45
3406 49
3406 1314
3406 2291
3406 5996
3406 11576
3407 45
3407 173
3407 411
3407 461
3407 496
3407 1191
3407 1246
3407 1489
3407 2034
3407 2151
3407 2815
3407 3236
3408 42
3408 45
3408 62
3408 1029
3408 2184
3408 3030
3408 3031
3409 47
3410 47
3410 1896
3411 47
3411 1041
3411 3144
3412 47
3412 421
3412 549
3412 1567
3412 1606
3412 1627
3412 2257
3413 47
3413 926
3413 986
3413 1277
3413 1747
3413 2060
3413 2921
3413 3144
3413 3145
3414 47
3414 55
3414 313
3414 986
3414 1621
3414 1907
3414 2771
3414 3416
3415 47
3415 339
3415 361
3415 381
3415 716
3415 1519
3415 2012
3415 2378
3416 47
3416 2467
3416 2640
3416 2641
3416 3414
3417 47
3417 55
3417 361
3417 1392
3418 47
3418 1678
3418 2806
3418 3235
3418 5316
3418 12240
3418 12505
3419 48
3419 73
3419 1196
3419 1837
3419 1849
3419 2555
3419 3125
3419 4301
3420 48
3420 73
3420 475
3420 1196
3420 2555
3420 2830
3421 49
3421 2717
3421 9086
3421 12506
3422 50
3422 1472
3422 2190
3422 3125
3422 3126
3422 3128
3422 3130
3422 3351
3422 3426
3423 50
3423 1509
3423 10460
3423 11992
3423 12507
3424 51
3424 812
3424 2887
3424 4883
3424 6288
3424 7563
3424 10854
3425 52
3425 1828
3425 2303
3425 2560
3425 3287
3425 5215
3425 6152
3426 53
3426 337
3426 441
3426 469
3426 527
3426 717
3426 893
3426 1119
3426 1133
3426 1236
3426 1500
3426 1619
3426 1840
3426 1879
3426 2095
3426 2147
3426 2191
3426 2559
3426 2637
3426 2659
3426 2761
3426 3185
3426 3422
3427 53
3427 1138
3427 1183
3427 1467
3427 1785
3427 2101
3427 2147
3427 2204
3427 2302
3427 2883
3427 3211
3428 53
3428 441
3428 469
3428 471
3428 718
3428 737
3428 774
3428 1133
3428 1142
3428 1183
3428 1418
3428 1503
3428 1673
3428 1840
3428 2147
3428 2264
3428 2559
3428 2659
3428 2973
3428 3079
3428 3160
3428 3211
3428 3287
3428 3308
3428 3309
3428 3338
3429 53
3429 75
3429 171
3429 186
3429 237
3429 468
3429 1138
3429 1163
3429 1183
3429 2118
3429 2302
3429 2883
3430 53
3430 190
3430 207
3430 237
3430 323
3430 343
3430 441
3430 475
3430 929
3430 1135
3430 1163
3430 1183
3430 1476
3430 1507
3430 1758
3430 1849
3430 2248
3430 2302
3430 2883
3430 3211
3430 3261
3431 53
3431 987
3432 53
3432 472
3432 929
3432 1674
3432 1894
3432 2349
3432 2973
3433 53
3433 246
3433 470
3434 53
3434 197
3434 323
3434 383
3434 537
3434 829
3434 1140
3434 1223
3434 1799
3434 1879
3434 2094
3434 2377
3434 2702
3435 53
3435 317
3435 321
3435 474
3435 538
3435 930
3435 1163
3435 1183
3435 1316
3435 1549
3435 2034
3435 2143
3435 2147
3435 2883
3435 3211
3436 53
3436 186
3436 1183
3436 2302
3436 2884
3437 54
3437 436
3437 458
3437 1018
3437 1346
3437 2253
3438 54
3438 436
3438 1018
3438 1346
3438 1358
3438 1495
3438 2919
3439 54
3439 93
3439 186
3439 246
3439 333
3439 375
3439 457
3439 466
3439 630
3439 775
3439 802
3439 967
3439 1110
3439 1139
3439 1184
3439 1372
3439 1482
3439 1601
3439 1926
3439 1995
3439 2651
3439 2745
3439 2797
3439 3077
3440 54
3440 188
3440 246
3440 340
3440 344
3440 395
3440 436
3440 452
3440 458
3440 737
3440 1018
3440 1506
3440 1879
3440 2621
3440 2919
3441 54
3441 60
3441 436
3441 458
3441 480
3441 1114
3441 1184
3441 2274
3441 2275
3441 2885
3442 54
3442 3256
3443 54
3443 587
3443 1593
3443 2082
3443 2271
3443 2620
3443 3077
3443 3078
3444 54
3444 340
3444 518
3444 737
3444 1593
3445 54
3445 1114
3445 1184
3446 54
3446 60
3446 246
3446 457
3446 775
3446 802
3446 967
3446 1601
3446 1926
3446 2651
3446 2745
3446 2797
3446 3077
3446 3276
3447 54
3447 2271
3447 2895
3447 3077
3448 54
3449 55
3449 78
3449 269
3449 339
3449 619
3449 716
3449 857
3449 871
3449 1023
3449 1143
3449 1181
3449 1621
3449 2012
3449 2921
3449 3286
3450 55
3450 2152
3450 6390
3451 55
3452 55
3452 78
3452 396
3452 619
3452 1621
3452 2920
3452 2921
3453 55
3453 85
3453 159
3453 160
3453 331
3453 332
3453 375
3453 459
3453 526
3453 730
3453 870
3453 1157
3453 1446
3453 1575
3453 1823
3453 1830
3453 1831
3453 1982
3453 2013
3453 2014
3453 2372
3453 2548
3453 3001
3453 3051
3453 3334
3453 3339
3454 55
3454 126
3454 377
3454 633
3454 706
3454 1823
3454 2000
3454 3096
3455 55
3455 374
3455 385
3455 427
3455 466
3455 919
3456 55
3456 2625
3457 55
3457 2206
3457 2209
3457 2388
3458 55
3458 159
3458 176
3458 331
3458 381
3458 685
3458 1157
3458 1459
3458 2013
3458 3123
3459 55
3459 385
3459 427
3459 2624
3459 2625
3460 55
3460 159
3460 331
3460 332
3460 374
3460 385
3460 427
3460 459
3460 466
3460 870
3460 1157
3460 1362
3460 1830
3460 1831
3460 2013
3460 2014
3460 2338
3460 2638
3460 3322
3461 37
3461 55
3461 328
3461 361
3461 427
3461 466
3461 679
3461 876
3461 1423
3461 2069
3461 2220
3461 2911
3462 55
3462 159
3462 160
3462 287
3462 331
3462 332
3462 374
3462 375
3462 459
3462 526
3462 730
3462 870
3462 1157
3462 1446
3462 1575
3462 1830
3462 1831
3462 2013
3462 2014
3462 2372
3462 2548
3462 3051
3462 3334
3463 55
3463 367
3463 374
3463 482
3463 622
3463 1365
3463 1406
3463 2206
3463 2209
3463 2289
3463 2388
3464 56
3464 79
3464 1137
3464 1176
3464 1804
3464 9848
3464 12508
3465 56
3465 625
3465 1234
3465 3586
3465 3993
3466 57
3466 59
3466 67
3466 1195
3466 1830
3467 57
3467 67
3467 587
3467 672
3467 7995
3468 57
3468 67
3468 79
3468 466
3468 660
3468 1701
3468 3124
3468 3365
3468 4866
3469 59
3469 3217
3470 59
3470 5542
3470 12509
3471 59
3471 3375
3471 12510
3472 59
3473 60
3473 2205
3473 2797
3474 60
3474 437
3474 1770
3474 3048
3475 60
3475 184
3475 283
3475 366
3475 405
3475 651
3475 839
3475 903
3475 1214
3475 1311
3475 1319
3475 1520
3475 1827
3475 2403
3475 3084
3476 60
3476 437
3476 472
3476 480
3476 1114
3476 1184
3476 2274
3476 2275
3476 2359
3476 2642
3476 2885
3476 3031
3477 60
3477 752
3477 890
3477 1834
3477 1836
3477 2761
3478 60
3478 3276
3479 60
3479 115
3479 246
3479 309
3479 457
3479 684
3479 775
3479 777
3479 802
3479 938
3479 1110
3479 1139
3479 1495
3479 1619
3479 1652
3479 2021
3479 2034
3479 2143
3479 2339
3479 2469
3479 2794
3479 3005
3480 60
3480 469
3480 547
3480 683
3480 1837
3480 3129
3480 3160
3480 3196
3480 3297
3481 60
3482 60
3482 461
3482 1651
3482 2143
3482 2548
3483 60
3483 190
3483 469
3483 834
3483 1111
3483 1140
3483 1186
3483 1354
3483 1475
3483 1476
3483 1758
3483 1840
3483 1879
3483 1898
3483 1962
3483 2095
3483 2622
3484 60
3484 331
3484 846
3484 884
3484 909
3484 1019
3484 1522
3484 1725
3484 1812
3484 2372
3484 2378
3485 54
3485 60
3485 246
3485 333
3485 457
3485 1813
3485 2283
3486 60
3486 77
3486 349
3486 467
3486 472
3486 752
3486 1114
3486 1132
3486 1184
3486 1191
3486 1316
3486 1346
3486 1854
3486 1979
3486 2143
3486 2490
3486 2797
3486 2912
3487 60
3487 93
3487 186
3487 299
3487 1410
3487 1651
3487 1706
3487 2096
3487 2190
3487 2266
3487 2556
3487 2783
3487 3002
3487 3003
3487 3057
3487 3165
3487 3166
3487 3257
3488 60
3488 174
3488 474
3488 475
3488 537
3488 1223
3488 1681
3488 1758
3488 1770
3488 1797
3488 2026
3488 2475
3488 3271
3489 61
3489 2394
3490 61
3490 882
3490 939
3490 4295
3490 7794
3490 7992
3491 61
3491 6303
3491 12511
3492 61
3492 81
3492 5208
3492 8235
3492 12512
3493 62
3493 2074
3493 2184
3493 2912
3494 62
3494 87
3494 572
3494 1191
3494 2274
3494 2420
3494 2642
3494 2885
3494 3133
3495 42
3495 62
3496 62
3496 894
3496 1067
3496 1773
3496 2184
3496 2929
3496 3325
3497 62
3497 345
3497 1905
3497 2185
3497 2740
3497 2751
3498 62
3498 1552
3498 2116
3499 62
3500 62
3500 3030
3501 62
3501 77
3501 345
3501 408
3501 472
3501 739
3501 952
3501 1231
3501 1489
3501 1709
3501 1905
3501 2185
3501 2268
3501 2437
3501 2449
3501 3031
3501 3288
3502 42
3502 62
3502 1388
3503 42
3503 62
3503 2006
3503 2027
3504 63
3504 475
3504 3321
3505 64
3505 5170
3506 64
3506 404
3506 2328
3506 5967
3507 55
3507 65
3507 78
3507 147
3507 242
3507 361
3507 434
3507 445
3507 505
3507 1238
3507 1431
3507 1702
3507 2338
3507 2520
3507 2945
3508 65
3508 195
3508 282
3508 360
3508 378
3508 403
3508 416
3508 425
3508 443
3508 473
3508 1037
3508 1075
3508 1748
3508 1978
3509 65
3509 195
3509 282
3509 360
3509 403
3509 416
3509 443
3509 473
3509 729
3509 1075
3509 1477
3509 1748
3509 1978
3510 65
3510 3316
3511 65
3511 1244
3511 1336
3511 1612
3512 65
3512 1982
3512 2731
3512 2942
3512 7363
3513 65
3513 2447
3513 3080
3514 65
3515 65
3515 77
3515 246
3515 314
3515 333
3515 353
3515 452
3515 652
3515 1157
3515 1250
3515 1482
3515 1607
3515 1698
3515 1784
3515 2656
3515 3051
3516 65
3516 5691
3516 8671
3517 65
3517 72
3517 12513
3518 65
3518 139
3518 219
3518 262
3518 280
3518 282
3518 338
3518 339
3518 403
3518 409
3518 417
3518 427
3518 434
3518 476
3518 947
3518 948
3518 1015
3518 1386
3518 1526
3518 1900
3518 1971
3518 2163
3518 2344
3518 2405
3518 2461
3518 3055
3519 65
3519 179
3519 440
3519 1244
3519 2135
3519 2768
3520 65
3520 78
3520 867
3520 1072
3520 2438
3520 2898
3520 3012
3521 65
3521 403
3521 406
3521 473
3521 891
3521 1075
3521 1514
3521 1978
3522 65
3522 66
3522 203
3522 260
3522 279
3522 281
3522 1072
3522 1089
3522 1557
3522 2231
3523 66
3524 66
3524 2236
3525 66
3525 464
3525 557
3525 1072
3525 2015
3526 66
3526 260
3526 279
3526 281
3526 334
3526 424
3526 464
3527 66
3527 889
3527 928
3528 66
3528 557
3528 2236
3528 3086
3529 66
3529 78
3529 260
3529 280
3529 307
3529 316
3529 356
3529 360
3529 403
3529 414
3529 424
3529 425
3529 439
3529 453
3529 464
3529 476
3529 498
3529 524
3529 539
3529 729
3529 883
3529 989
3529 1102
3529 1160
3529 1585
3529 1697
3529 1906
3529 2598
3529 2904
3529 3335
3530 66
3530 281
3530 424
3530 557
3530 571
3530 1126
3530 1518
3530 2434
3531 66
3531 175
3531 279
3531 424
3531 483
3531 498
3531 703
3531 879
3531 1160
3531 1906
3531 2231
3531 2598
3532 66
3532 203
3532 260
3532 571
3532 879
3532 1038
3532 1072
3532 1160
3532 1626
3533 66
3533 175
3533 281
3533 424
3533 483
3533 498
3533 879
3533 1095
3533 1713
3533 2231
3534 66
3534 145
3534 204
3534 247
3534 379
3534 414
3534 423
3534 425
3534 428
3534 453
3534 539
3534 1038
3534 1126
3534 1892
3535 66
3535 72
3535 134
3535 195
3535 254
3535 279
3535 281
3535 307
3535 417
3535 424
3535 429
3535 476
3535 815
3535 883
3535 947
3535 1005
3535 1160
3535 1885
3535 2369
3535 2598
3535 3086
3536 66
3536 423
3536 424
3536 1160
3536 2282
3536 2532
3537 67
3537 1195
3537 1250
3538 67
3538 730
3538 3082
3538 3375
3538 12514
3539 68
3540 68
3540 115
3540 296
3540 392
3540 437
3540 829
3540 853
3540 1161
3540 1805
3540 1826
3540 2635
3540 2794
3540 2959
3540 2966
3541 68
3541 1112
3541 1947
3541 2221
3542 68
3542 344
3542 1729
3542 1742
3542 2934
3542 2936
3542 2937
3543 68
3543 893
3543 1112
3543 1742
3543 2190
3543 2720
3544 68
3544 77
3544 738
3544 904
3544 1142
3544 1427
3544 1482
3544 1679
3544 1778
3544 2083
3544 2180
3544 2263
3544 2334
3544 2401
3544 2867
3544 2870
3544 12247
3545 68
3545 738
3545 1679
3545 1778
3545 2180
3545 2263
3545 2271
3545 2334
3545 2401
3545 2867
3545 2870
3545 2895
3546 68
3546 1550
3546 2961
3546 5041
3546 5045
3546 12515
3547 68
3547 1729
3547 2934
3548 68
3548 70
3548 395
3548 1243
3548 1506
3548 5538
3549 68
3549 2561
3550 2
3550 68
3550 621
3550 738
3551 54
3551 68
3551 344
3552 68
3552 1679
3552 1778
3552 2263
3552 2334
3552 2401
3552 2867
3553 68
3553 340
3553 344
3553 395
3553 893
3553 1243
3553 1742
3553 2934
3554 68
3554 12516
3555 54
3555 68
3555 2271
3555 2620
3555 2621
3555 2895
3556 68
3556 200
3556 587
3556 960
3556 2082
3556 2083
3556 2499
3556 2501
3556 6662
3557 68
3557 344
3557 893
3557 1243
3557 1729
3557 1742
3557 2221
3557 2720
3557 2934
3558 69
3558 103
3558 226
3558 1021
3558 4800
3558 7753
3558 9393
3558 12517
3559 69
3560 69
3560 104
3560 170
3560 830
3560 1147
3560 1863
3560 1980
3560 2435
3561 69
3561 613
3561 947
3561 1121
3561 2609
3561 3293
3561 12518
3562 69
3562 79
3562 1137
3562 1714
3562 3248
3562 3907
3562 5859
3562 11452
3562 12469
3562 12519
3563 69
3563 1086
3563 2277
3563 2609
3564 69
3564 1147
3564 1980
3565 69
3565 81
3565 12520
3565 12521
3566 69
3566 3667
3566 12522
3567 69
3567 229
3567 284
3567 326
3567 2609
3568 69
3568 2181
3568 2379
3568 11244
3568 11511
3568 12020
3568 12021
3568 12523
3569 69
3569 582
3569 12521
3569 12524
3570 69
3570 71
3570 1355
3570 2196
3570 9313
3571 70
3571 1729
3571 1742
3571 2367
3571 2741
3571 3399
3572 70
3572 1696
3572 2417
3572 2601
3572 4820
3572 10294
3572 11140
3572 12277
3573 71
3573 170
3573 284
3573 1147
3573 1173
3573 2749
3574 69
3574 71
3574 170
3574 284
3574 352
3574 1147
3574 2796
3574 3062
3575 71
3575 883
3575 1147
3575 6748
3576 71
3576 2291
3577 71
3577 1966
3577 2040
3578 69
3578 71
3578 284
3578 1147
3579 71
3579 205
3579 368
3579 558
3579 1011
3579 1103
3579 1314
3579 1544
3579 2291
3579 2292
3579 3010
3579 3248
3580 71
3580 1147
3580 11248
3580 12525
3581 71
3582 71
3582 429
3582 571
3582 1294
3582 2545
3583 71
3583 757
3583 977
3583 1192
3583 1643
3583 2471
3583 2802
3584 71
3584 170
3584 284
3584 744
3584 1147
3584 1284
3584 2213
3584 2284
3584 2749
3585 71
3585 1145
3585 1455
3585 12526
3586 72
3586 3465
3587 72
3587 423
3587 429
3587 3086
3588 72
3588 1014
3588 1498
3588 1937
3588 2110
3588 2517
3588 2926
3589 72
3589 1148
3589 1244
3589 1340
3589 2135
3590 72
3590 279
3590 305
3590 307
3590 429
3590 891
3590 1148
3590 1885
3590 2460
3590 3086
3591 72
3591 1572
3591 2059
3592 72
3592 195
3592 307
3592 339
3592 417
3592 423
3592 464
3592 557
3592 708
3592 755
3592 1007
3592 1121
3592 1568
3592 1727
3592 1885
3592 2113
3592 2693
3593 72
3594 72
3594 82
3594 219
3594 248
3594 282
3594 406
3594 422
3594 443
3594 450
3594 794
3594 804
3594 837
3594 1748
3594 2163
3595 72
3595 823
3595 884
3595 896
3595 988
3595 1409
3595 1693
3595 1921
3595 8939
3596 65
3596 72
3596 1336
3596 2135
3597 72
3597 307
3597 755
3597 1450
3597 1808
3597 2854
3598 72
3598 517
3598 552
3598 1074
3598 1397
3598 1712
3598 3013
3598 5229
3599 72
3599 179
3599 513
3599 667
3599 1148
3599 1244
3599 1336
3599 1339
3599 1340
3599 1727
3599 3024
3600 72
3600 103
3600 116
3600 219
3600 260
3600 334
3600 414
3600 417
3600 424
3600 428
3600 450
3600 558
3600 899
3600 971
3600 1102
3600 1126
3600 1147
3600 1645
3600 2442
3600 2782
3600 2897
3600 3330
3601 65
3601 72
3601 12527
3602 72
3602 396
3602 430
3602 449
3602 943
3602 1137
3602 1177
3602 1727
3602 1804
3602 1829
3602 2145
3602 2202
3602 2926
3602 2997
3602 3295
3603 73
3603 2189
3603 2190
3603 3255
3604 73
3604 3202
3605 74
3606 74
3606 2991
3607 74
3607 1856
3607 1857
3607 1883
3608 74
3608 358
3608 438
3608 989
3608 2236
3608 2317
3608 2991
3609 74
3609 1857
3609 1883
3610 74
3610 358
3610 438
3610 962
3610 1883
3611 74
3611 438
3611 838
3611 1155
3611 1732
3611 1883
3612 75
3613 75
3613 1183
3613 2268
3613 2969
3614 75
3614 497
3614 586
3614 875
3614 1353
3614 1533
3614 1677
3614 2127
3615 75
3615 248
3615 317
3615 335
3615 405
3615 467
3615 468
3615 586
3615 1556
3615 2057
3615 2402
3615 8674
3616 75
3616 586
3616 1353
3616 1738
3616 2045
3616 2490
3617 75
3617 2455
3618 75
3618 163
3618 185
3618 219
3618 248
3618 422
3618 497
3618 570
3618 973
3618 1533
3618 1926
3618 2550
3619 75
3619 1502
3619 1533
3619 2272
3619 2674
3620 75
3620 198
3620 468
3620 497
3620 629
3620 930
3620 1132
3620 1138
3620 1159
3620 1316
3620 1467
3620 1538
3620 1587
3620 1663
3620 1673
3620 1734
3620 1776
3620 1841
3620 2459
3621 75
3621 386
3621 497
3621 586
3621 1254
3621 1412
3621 1507
3622 75
3622 952
3622 1798
3623 75
3623 192
3623 198
3623 349
3623 350
3623 406
3623 629
3623 1032
3623 1138
3623 1507
3623 1607
3623 1841
3623 2101
3623 3253
3624 75
3624 92
3624 184
3624 191
3624 321
3624 343
3624 468
3624 474
3624 538
3624 586
3624 1013
3624 1119
3624 1146
3624 1159
3624 1162
3624 1183
3624 1316
3624 1549
3624 1641
3624 1674
3624 1700
3624 1854
3624 1858
3624 1894
3624 2057
3624 2204
3624 2459
3624 2951
3624 2969
3624 3211
3625 75
3625 102
3625 185
3625 475
3625 702
3625 1533
3625 1674
3625 1854
3625 1951
3625 1995
3625 2302
3625 2817
3625 2823
3626 75
3626 192
3626 207
3626 2106
3626 2127
3626 10804
3627 76
3627 366
3627 422
3627 575
3627 1319
3627 1827
3627 1874
3627 2143
3627 3084
3628 76
3629 76
3629 198
3629 309
3629 322
3629 570
3629 958
3629 1119
3629 2272
3629 2843
3629 8174
3630 76
3630 2425
3631 76
3631 248
3631 419
3631 452
3631 911
3631 963
3631 1364
3631 1393
3631 1500
3631 1761
3631 2622
3631 3245
3632 76
3632 335
3632 422
3632 467
3632 634
3632 649
3632 733
3632 789
3632 1738
3632 1748
3632 1792
3632 1981
3632 2350
3632 3272
3633 76
3633 2311
3633 2312
3633 2565
3634 76
3634 1488
3634 1505
3634 2359
3634 2437
3635 76
3635 1900
3635 3272
3636 76
3636 322
3636 1163
3636 1236
3636 1354
3636 1500
3636 1700
3636 1828
3636 3196
3636 3197
3637 76
3637 95
3637 410
3637 525
3637 607
3637 781
3637 891
3638 76
3638 877
3638 1508
3638 1561
3638 1771
3638 2331
3639 76
3639 471
3639 666
3639 1417
3639 1520
3639 1738
3639 2350
3639 3052
3640 76
3640 135
3640 142
3640 335
3640 456
3640 467
3640 471
3640 591
3640 666
3640 799
3640 839
3640 961
3640 1153
3640 1205
3640 1353
3640 1417
3640 1422
3640 1738
3640 1748
3640 1976
3640 1977
3640 2045
3640 2350
3640 3029
3640 3052
3640 3054
3640 3067
3640 3215
3640 3343
3640 3344
3641 77
3641 2894
3642 77
3643 77
3643 1114
3643 1278
3643 1773
3643 1996
3644 77
3644 731
3644 2094
3644 2699
3644 2959
3644 2960
3644 2961
3645 77
3645 353
3645 436
3645 960
3645 1161
3645 1482
3645 1483
3645 1587
3645 1601
3645 1762
3645 2193
3645 2420
3645 2834
3646 77
3646 1813
3646 1905
3647 77
3647 480
3647 1114
3647 1184
3647 1709
3647 1952
3647 2274
3647 2885
3648 77
3648 200
3648 246
3648 340
3648 587
3648 1709
3648 2745
3648 6665
3649 42
3649 77
3650 77
3650 87
3650 572
3650 2274
3650 2360
3650 2420
3650 2885
3650 2919
3650 3402
3651 77
3651 192
3651 522
3651 548
3651 858
3651 967
3651 1029
3651 1220
3651 1372
3651 1813
3651 2027
3651 2275
3651 2709
3651 2840
3652 77
3652 1231
3652 1252
3652 2642
3653 77
3653 181
3653 935
3653 1105
3653 1231
3653 1372
3653 1482
3653 2116
3653 2255
3653 2709
3653 3402
3654 62
3654 77
3654 1994
3654 1996
3655 45
3655 77
3655 1996
3655 2074
3656 76
3656 77
3656 1552
3656 2105
3657 77
3657 154
3657 160
3657 287
3657 375
3657 447
3657 459
3657 528
3657 907
3657 975
3657 1173
3657 1253
3657 1446
3657 1919
3657 2013
3657 2092
3657 2373
3657 2651
3657 2778
3657 2874
3657 11240
3658 77
3658 1358
3658 2279
3658 2678
3658 2872
3658 2873
3659 62
3659 77
3659 1278
3659 1773
3659 1994
3659 1996
3660 77
3660 548
3660 1200
3660 1552
3660 6401
3660 12528
3661 42
3661 77
3661 1773
3662 77
3662 198
3662 408
3662 471
3662 472
3662 1073
3662 1146
3662 1162
3662 1497
3662 2840
3663 77
3663 324
3663 333
3663 705
3663 1250
3663 1482
3663 1667
3663 1901
3663 2656
3664 77
3664 349
3664 467
3664 472
3664 752
3664 1114
3664 1132
3664 1184
3664 1191
3664 1316
3664 1346
3664 1734
3664 1854
3664 1979
3664 2143
3664 2490
3664 2912
3665 62
3665 77
3666 78
3666 434
3666 716
3666 814
3666 1699
3666 2199
3666 2641
3666 3131
3666 3132
3667 78
3667 3566
3668 65
3668 78
3669 78
3670 78
3670 273
3670 414
3670 443
3670 450
3670 473
3671 78
3671 1747
3671 2174
3671 3145
3672 78
3672 1627
3672 2174
3673 78
3673 555
3673 1660
3673 1755
3673 2538
3674 78
3674 116
3674 189
3674 196
3674 316
3674 428
3674 431
3674 1536
3674 1703
3674 1885
3674 1906
3674 2347
3674 2517
3674 2876
3674 3076
3675 78
3675 170
3675 202
3675 220
3675 273
3675 315
3675 423
3675 453
3675 539
3675 824
3675 905
3675 933
3675 1003
3675 1068
3675 1164
3675 1710
3675 2077
3675 2108
3675 3156
3675 3250
3675 3328
3676 78
3676 396
3676 533
3676 563
3676 901
3676 2477
3676 2693
3676 2851
3677 78
3677 116
3677 196
3677 230
3677 315
3677 424
3677 428
3677 431
3677 1160
3677 1703
3677 1885
3677 1906
3677 2347
3677 2517
3677 2876
3677 3076
3677 3087
3677 3110
3678 78
3678 533
3678 563
3678 2476
3678 2477
3678 2693
3678 2841
3679 78
3679 414
3679 425
3679 446
3679 450
3679 890
3679 2436
3679 2461
3679 2636
3679 3039
3680 76
3680 78
3680 89
3680 338
3680 1370
3681 78
3681 162
3681 555
3681 1012
3681 2476
3681 3080
3681 7561
3682 78
3682 116
3682 279
3682 390
3682 830
3682 1095
3682 1160
3682 1257
3682 1320
3682 1925
3682 2211
3682 2215
3682 2941
3682 3075
3683 65
3683 78
3683 165
3683 430
3684 79
3684 247
3684 414
3684 884
3684 971
3684 1019
3684 1075
3684 1102
3684 1182
3684 1818
3684 2113
3684 2438
3684 2442
3684 2844
3685 79
3685 2824
3685 6004
3685 7348
3685 8717
3685 12529
3686 79
3686 12461
3686 12530
3687 79
3687 95
3687 741
3687 1596
3687 2280
3687 9588
3688 79
3688 352
3688 687
3688 712
3688 741
3688 755
3688 815
3688 882
3688 1596
3688 1610
3688 1875
3688 2675
3688 3136
3689 79
3689 687
3689 1176
3689 1610
3689 3086
3689 12531
3690 79
3690 307
3690 1177
3690 4759
3690 4886
3691 79
3691 1060
3691 1137
3691 1750
3691 8615
3692 79
3692 856
3692 1121
3692 1234
3692 1727
3692 2145
3692 3017
3692 3697
3692 11028
3693 79
3693 1137
3693 1176
3693 3239
3694 79
3694 239
3694 307
3694 1137
3694 2202
3694 2844
3695 79
3695 1176
3695 12532
3696 79
3696 1121
3696 1234
3696 8619
3696 9846
3696 12533
3697 79
3697 1271
3697 3692
3698 80
3698 824
3698 12534
3699 80
3699 3156
3700 80
3700 1323
3700 3036
3701 80
3701 10378
3701 12535
3702 80
3702 5822
3702 8507
3702 12536
3703 80
3703 435
3703 3186
3703 3239
3703 4380
3703 12537
3704 80
3704 11881
3704 12538
3705 80
3705 1239
3705 1986
3705 2519
3705 4847
3705 6650
3705 12539
3706 80
3706 81
3706 6287
3706 12540
3707 81
3707 966
3707 5054
3707 8307
3707 8308
3707 12541
3708 81
3708 991
3708 12542
3709 81
3709 4235
3709 9281
3710 81
3710 2421
3710 2978
3710 12543
3711 81
3711 12544
3712 81
3712 1369
3712 4880
3713 82
3713 184
3713 406
3713 442
3713 454
3713 839
3713 1044
3713 1526
3713 2163
3713 2354
3714 82
3714 626
3714 1095
3714 2480
3714 2807
3715 82
3716 82
3716 118
3716 248
3716 283
3716 415
3716 711
3716 804
3716 1403
3716 1814
3716 1836
3716 2848
3717 82
3717 804
3717 890
3717 973
3717 1214
3717 2163
3718 82
3718 1386
3718 2461
3718 2641
3719 76
3719 82
3719 174
3719 635
3719 1461
3719 1569
3719 1663
3719 1901
3719 2230
3719 3108
3719 3253
3719 3254
3720 82
3720 163
3720 248
3720 347
3720 405
3720 406
3720 418
3720 422
3720 467
3720 601
3720 804
3720 903
3720 973
3720 1214
3720 1655
3720 1738
3720 2150
3720 2550
3720 2826
3721 82
3721 107
3721 118
3721 283
3721 366
3721 405
3721 668
3721 822
3721 903
3721 973
3721 1214
3721 1319
3721 1496
3721 1507
3721 1602
3721 2150
3721 2331
3721 2402
3721 2817
3721 3084
3722 83
3722 1858
3722 3255
3723 83
3723 343
3723 426
3723 1185
3723 2623
3724 83
3725 83
3725 426
3725 452
3725 940
3726 83
3726 92
3726 102
3726 155
3726 292
3726 366
3726 415
3726 441
3726 475
3726 570
3726 665
3726 740
3726 942
3726 1032
3726 1108
3726 1120
3726 1167
3726 1174
3726 1186
3726 1472
3726 1520
3726 1641
3726 1874
3726 1901
3726 2349
3726 2358
3726 2816
3726 2927
3726 3261
3727 84
3727 228
3727 745
3727 2240
3727 2381
3727 2444
3727 2677
3727 2731
3727 3014
3727 3181
3727 4492
3727 11454
3728 84
3728 1861
3728 2308
3728 2677
3728 2730
3729 84
3729 194
3729 287
3729 330
3729 384
3729 421
3729 1173
3729 1617
3729 1767
3729 2018
3729 2060
3729 2308
3729 2348
3729 2384
3729 2480
3729 2700
3729 2730
3729 3019
3729 3318
3730 84
3730 398
3730 491
3730 499
3730 754
3730 931
3730 1034
3730 1097
3730 1852
3730 2549
3730 2596
3730 2628
3730 2700
3730 2942
3730 3289
3731 84
3731 239
3731 281
3731 1097
3731 1137
3731 1177
3731 1453
3731 1804
3731 1861
3731 2013
3731 2053
3731 2770
3731 12545
3732 84
3732 240
3732 384
3732 526
3732 876
3732 1173
3732 1617
3732 1698
3732 2651
3732 2988
3732 3019
3733 84
3733 2058
3733 2240
3733 2319
3734 84
3735 84
3735 745
3735 1134
3735 2240
3735 2381
3735 2444
3735 2610
3735 2683
3735 2731
3736 85
3736 265
3736 2040
3736 2917
3736 3740
3737 85
3738 85
3738 3740
3739 85
3739 2079
3739 2080
3739 3740
3740 85
3740 1234
3740 3736
3740 3738
3740 3739
3740 6341
3740 7952
3740 7962
3741 85
3741 202
3741 302
3741 744
3741 991
3741 1036
3741 1265
3741 1309
3741 1428
3741 1604
3741 1817
3741 2079
3741 2228
3741 2854
3741 2998
3741 3310
3741 3311
3741 3312
3742 72
3742 85
3742 120
3742 170
3742 1048
3742 1060
3742 1409
3742 1514
3742 1892
3742 2202
3742 3241
3743 85
3743 899
3743 1825
3744 86
3745 76
3745 86
3745 2331
3746 86
3746 185
3746 248
3746 405
3746 668
3746 721
3746 903
3746 1319
3746 3084
3747 86
3747 1508
3747 1771
3748 86
3748 1496
3749 86
3749 386
3749 825
3749 929
3749 1223
3749 1508
3749 1550
3749 1561
3749 1615
3749 2029
3749 2911
3750 86
3750 461
3750 2029
3750 2331
3751 86
3751 325
3751 461
3751 1223
3751 1496
3751 1508
3751 1615
3751 1849
3751 2125
3751 2969
3752 62
3752 87
3752 119
3752 467
3753 87
3753 119
3753 304
3753 1485
3753 1834
3753 2591
3754 87
3754 304
3755 87
3756 62
3756 87
3756 119
3757 87
3757 119
3757 467
3757 1762
3757 1786
3758 42
3758 87
3758 467
3758 960
3759 88
3759 576
3759 1592
3759 2028
3760 88
3760 576
3760 1592
3761 88
3762 88
3762 234
3762 1151
3762 1757
3762 2547
3763 88
3763 247
3763 280
3763 1807
3763 1892
3763 2829
3764 88
3764 1153
3765 88
3765 539
3765 576
3765 896
3765 1592
3765 2835
3765 2857
3765 3175
3765 3176
3766 89
3766 881
3766 1404
3766 1974
3767 89
3768 55
3768 89
3768 135
3768 174
3768 1041
3768 1258
3768 1907
3768 2786
3769 78
3769 89
3769 338
3769 884
3769 2314
3769 2480
3769 2921
3770 89
3770 262
3770 307
3770 414
3770 417
3770 521
3770 867
3770 985
3770 1182
3770 1611
3770 2405
3770 3279
3770 3280
3770 3281
3771 89
3771 1249
3771 1461
3771 1505
3771 1900
3771 2337
3771 3029
3772 90
3773 90
3773 2320
3774 90
3774 401
3774 892
3775 90
3775 892
3775 1458
3775 2229
3776 91
3777 91
3777 388
3777 1552
3778 91
3778 1090
3779 77
3779 91
3780 91
3780 329
3780 847
3780 1368
3780 2586
3780 2815
3781 91
3781 329
3781 700
3781 1550
3782 92
3782 1108
3782 1562
3782 2204
3783 92
3784 92
3784 184
3784 198
3784 349
3784 426
3784 452
3784 586
3784 1032
3784 1159
3784 1162
3784 1316
3784 1345
3784 1641
3784 2021
3784 2204
3784 2883
3784 2969
3785 92
3785 248
3785 422
3785 452
3785 1191
3785 1364
3785 1761
3785 1979
3785 2272
3786 83
3786 92
3786 337
3786 442
3786 1079
3787 92
3787 538
3787 683
3787 1108
3787 2204
3787 2358
3788 92
3788 538
3788 1354
3788 2428
3788 2698
3789 92
3789 197
3789 538
3789 853
3789 1079
3789 1191
3789 1500
3789 1609
3789 1854
3789 2021
3789 2272
3790 93
3790 2752
3791 93
3791 309
3791 337
3791 340
3791 436
3791 441
3791 987
3791 1619
3791 3184
3791 3185
3792 93
3792 363
3792 565
3792 848
3792 1317
3792 1460
3792 1706
3792 1877
3792 2312
3792 2330
3792 2556
3792 2785
3792 3002
3792 3003
3792 3004
3792 3059
3792 3060
3793 93
3793 102
3793 191
3793 314
3793 2459
3793 2951
3793 2952
3794 93
3794 1317
3794 2132
3795 93
3795 186
3795 237
3795 474
3795 1163
3795 1183
3795 1229
3795 1476
3795 1707
3795 1741
3795 1758
3795 1894
3795 2883
3795 3037
3795 3089
3795 3211
3796 93
3796 263
3796 299
3796 1139
3796 1495
3796 1651
3796 2132
3796 2469
3796 2579
3797 93
3797 2021
3797 2377
3797 3287
3798 93
3798 174
3798 186
3798 653
3798 1140
3798 1251
3798 2393
3798 3113
3799 60
3799 93
3799 309
3799 350
3799 461
3799 924
3799 1305
3799 1354
3799 2112
3799 2125
3799 2339
3799 2911
3800 93
3801 94
3801 1285
3801 1358
3801 2121
3802 94
3802 418
3802 468
3803 94
3804 94
3804 547
3804 702
3804 853
3804 1138
3804 1185
3804 1656
3804 3079
3805 94
3805 240
3805 386
3805 406
3805 418
3805 442
3805 537
3805 681
3805 702
3805 705
3805 803
3805 877
3805 1159
3805 1304
3805 1390
3805 1995
3805 2105
3805 2345
3805 2405
3805 2523
3805 2817
3805 2970
3805 3210
3806 91
3806 94
3806 363
3807 94
3807 1674
3808 94
3808 185
3808 325
3808 467
3808 608
3808 858
3808 1172
3808 1285
3808 2105
3808 2121
3808 2948
3808 3251
3809 75
3809 94
3809 161
3809 366
3809 1533
3809 2057
3810 94
3810 442
3810 477
3810 681
3810 702
3810 803
3810 1159
3810 1285
3810 3020
3810 3210
3811 94
3811 186
3811 376
3811 469
3811 547
3811 568
3811 776
3811 853
3811 1185
3811 1656
3811 1743
3811 1959
3811 2733
3811 2952
3811 3021
3811 3079
3811 3297
3812 94
3812 324
3812 681
3812 702
3812 2523
3812 2808
3812 3022
3813 95
3814 95
3814 445
3814 446
3814 1062
3814 2580
3814 2581
3814 3029
3814 3038
3815 95
3815 465
3815 951
3815 1847
3815 2460
3816 95
3816 709
3816 1204
3816 1809
3816 1862
3816 2284
3817 95
3817 325
3817 420
3817 985
3818 95
3818 1736
3818 2431
3819 77
3819 95
3819 472
3819 548
3819 817
3819 952
3819 1114
3819 2948
3820 95
3820 726
3821 95
3821 340
3821 344
3821 452
3821 472
3821 1497
3821 2235
3821 2699
3821 2720
3821 2745
3821 3255
3821 3256
3822 96
3822 1359
3822 1361
3823 96
3823 2773
3824 96
3825 96
3825 1256
3825 1480
3825 1657
3825 2450
3826 96
3826 167
3826 844
3826 932
3826 1103
3826 1657
3826 2304
3826 2846
3826 3138
3827 96
3827 193
3827 844
3827 1103
3828 96
3828 1256
3828 1359
3828 1361
3828 1480
3828 2773
3829 96
3829 932
3829 1657
3829 1684
3829 2304
3829 2305
3829 2450
3829 2775
3830 96
3830 193
3830 240
3830 382
3830 627
3830 699
3830 844
3830 932
3830 1066
3830 1103
3830 1256
3830 1544
3830 1650
3830 1731
3830 3302
3830 3303
3830 11896
3831 432
3831 3833
3831 4826
3831 7173
3831 8120
3831 9565
3831 12230
3831 12546
3832 4826
3832 10963
3832 12547
3832 12548
3833 432
3833 3831
3833 4826
3833 4828
3833 12549
3834 7258
3835 941
3835 3104
3835 7258
3835 12550
3836 98
3837 99
3838 99
3838 422
3838 914
3838 1151
3838 2291
3838 2826
3839 100
3839 580
3839 912
3839 1563
3839 1788
3839 2660
3839 2712
3839 2777
3839 6987
3839 12070
3840 100
3841 101
3842 102
3842 171
3842 190
3842 1135
3842 1183
3842 1186
3842 1505
3842 1550
3842 1663
3842 1741
3842 1758
3842 1791
3842 1961
3842 2252
3842 2302
3842 2645
3842 2939
3842 2993
3842 3211
3842 3219
3842 3321
3843 102
3844 103
3845 104
3845 189
3845 451
3845 610
3845 1815
3845 2146
3845 2916
3846 69
3846 104
3846 450
3846 883
3846 1147
3846 2149
3846 2721
3847 104
3847 284
3847 1147
3848 104
3849 104
3849 368
3849 451
3849 2587
3850 104
3850 189
3850 341
3850 451
3850 1571
3850 1592
3850 1685
3850 2124
3850 2146
3850 2365
3850 3205
3851 71
3851 104
3851 429
3851 891
3851 1126
3851 1147
3851 2270
3852 104
3852 189
3852 229
3852 341
3852 431
3852 879
3852 1366
3852 1530
3852 1592
3852 1685
3852 1910
3852 2124
3852 2146
3852 3283
3852 3305
3852 3306
3852 3307
3853 105
3853 2128
3853 2129
3853 2463
3854 76
3854 105
3854 135
3854 335
3854 446
3854 733
3854 799
3854 890
3854 1015
3854 1748
3854 2350
3854 2816
3854 3272
3854 3275
3855 105
3856 105
3856 217
3856 295
3856 310
3856 364
3856 449
3856 455
3856 902
3856 1541
3856 1759
3856 2069
3856 2128
3856 2483
3856 2799
3856 2800
3857 105
3857 338
3857 857
3857 1041
3857 1896
3857 2671
3857 2755
3857 3254
3858 105
3858 339
3858 1041
3858 1399
3858 2567
3859 42
3859 105
3859 345
3859 2885
3860 106
3860 12551
3861 106
3861 657
3861 3863
3862 106
3862 162
3862 430
3862 636
3862 1591
3862 1963
3862 2603
3863 106
3863 939
3863 3861
3863 12552
3864 106
3865 106
3865 574
3865 1963
3865 2297
3865 2594
3866 106
3866 179
3866 667
3866 1148
3866 1304
3866 1334
3866 1997
3866 2038
3866 2270
3866 2447
3866 3024
3867 107
3868 107
3868 118
3868 411
3868 661
3868 903
3868 1561
3868 1642
3868 2150
3868 2151
3868 2540
3868 3236
3869 76
3869 107
3869 1652
3869 2125
3870 107
3870 804
3870 1246
3870 1674
3870 2150
3870 3005
3870 3294
3871 108
3872 108
3872 529
3873 108
3873 201
3873 354
3873 554
3873 1468
3873 2131
3873 3013
3874 109
3875 109
3875 312
3875 326
3875 732
3875 1491
3875 1766
3875 1800
3875 11146
3876 109
3876 542
3876 1080
3877 109
3877 1082
3878 110
3879 110
3879 1051
3880 110
3880 390
3880 1059
3880 1835
3881 111
3882 111
3882 12553
3883 111
3883 401
3883 1623
3884 111
3884 308
3884 981
3884 1632
3884 2711
3885 112
3886 112
3886 2164
3887 112
3887 12554
3888 113
3889 113
3889 694
3890 114
3891 114
3891 487
3892 115
3892 190
3892 1505
3892 2050
3892 2336
3892 2884
3892 2939
3893 115
3893 1293
3893 1628
3894 115
3895 115
3895 337
3895 469
3895 718
3895 1619
3895 2147
3895 2637
3895 2805
3895 2849
3895 2925
3895 3237
3896 115
3896 586
3896 771
3896 2095
3896 3072
3896 7663
3896 9121
3896 11368
3896 12555
3897 115
3897 474
3897 1186
3897 1837
3897 1874
3897 2424
3897 2837
3897 3342
3898 116
3898 882
3899 116
3899 272
3899 286
3899 1960
3899 2630
3899 2657
3899 2723
3899 2796
3899 2856
3899 2933
3900 78
3900 116
3900 316
3900 2347
3900 3076
3901 116
3901 919
3901 1279
3901 1369
3901 2766
3901 2796
3901 2953
3902 116
3902 385
3902 1610
3902 1703
3902 2657
3902 2796
3903 116
3904 116
3904 431
3904 1920
3904 3076
3905 116
3905 272
3905 2630
3905 2657
3905 2723
3906 116
3906 281
3906 592
3906 736
3906 741
3906 910
3906 1963
3906 2183
3906 2833
3906 3062
3906 3239
3907 116
3907 352
3907 741
3907 755
3907 882
3907 947
3907 1121
3907 1703
3907 2474
3907 2749
3907 2796
3907 2856
3907 3169
3907 3293
3907 3562
3908 116
3908 1596
3908 2796
3909 117
3909 336
3909 407
3909 444
3909 594
3909 945
3909 980
3909 1212
3909 1240
3909 1337
3909 1534
3909 2009
3910 117
3910 212
3910 259
3910 336
3910 346
3910 407
3910 444
3910 662
3910 682
3910 753
3910 801
3910 945
3910 950
3910 1130
3910 1248
3910 1373
3910 1466
3910 1469
3910 1535
3910 1675
3910 2539
3910 2643
3910 3333
3911 117
3912 117
3912 1690
3913 117
3913 336
3913 444
3913 479
3913 753
3913 950
3913 1130
3913 1248
3913 1466
3913 1534
3913 1661
3913 1675
3913 2009
3913 2539
3914 117
3914 1297
3914 1690
3914 1847
3914 1985
3914 2897
3914 12556
3915 117
3915 259
3915 407
3915 444
3915 801
3915 1130
3915 1373
3915 1535
3915 1705
3915 2643
3916 117
3916 1104
3916 1594
3916 2539
3916 2643
3917 34
3917 118
3917 172
3917 347
3917 405
3917 1043
3917 1108
3917 1136
3917 1333
3917 1357
3917 1445
3917 1447
3917 1874
3917 2358
3917 2525
3917 2951
3917 3069
3917 3173
3917 3244
3918 118
3919 118
3919 1445
3919 1447
3920 118
3920 172
3920 817
3920 1167
3920 1447
3920 1570
3920 1785
3920 1798
3921 118
3921 661
3921 1246
3921 1254
3921 1489
3921 2151
3922 119
3922 2940
3923 119
3924 77
3924 119
3924 333
3924 655
3924 1161
3925 119
3925 161
3925 227
3925 1552
3925 1631
3926 119
3926 1631
3926 1994
3927 87
3927 119
3928 119
3928 304
3928 1834
3928 2591
3929 120
3930 120
3930 2877
3930 3241
3931 120
3931 2300
3932 120
3932 1896
3932 2282
3932 2472
3932 2593
3932 2644
3932 2714
3932 3115
3933 120
3933 170
3933 193
3933 226
3933 297
3933 462
3933 465
3933 1121
3933 1401
3933 3224
3933 3225
3934 120
3934 720
3934 1137
3934 1808
3934 12557
3935 120
3935 974
3935 1514
3935 2877
3936 120
3936 167
3936 975
3936 2679
3936 3033
3937 120
3937 699
3937 896
3937 1480
3937 1657
3937 1684
3937 2304
3937 3153
3937 11896
3938 121
3939 121
3939 12558
3940 121
3940 174
3940 665
3940 1090
3940 1205
3940 1520
3940 1573
3940 1901
3940 2008
3940 2360
3940 2361
3940 2792
3940 3061
3940 3277
3941 121
3941 2246
3942 121
3942 267
3942 351
3942 514
3942 1074
3942 2989
3942 2990
3943 44
3943 121
3943 875
3943 1836
3943 2102
3944 121
3944 958
3944 2454
3944 2691
3944 2692
3945 121
3945 1649
3945 3083
3945 4939
3945 6984
3945 12559
3946 122
3947 122
3947 806
3947 979
3947 2239
3947 11209
3948 122
3948 2239
3949 122
3949 682
3949 979
3949 2140
3949 2141
3949 2660
3949 2666
3949 2713
3949 3044
3949 3231
3949 3232
3950 122
3950 842
3950 888
3951 123
3952 123
3952 2515
3953 123
3953 2040
3953 3955
3953 4693
3953 7131
3954 123
3954 136
3954 476
3954 1101
3954 1431
3954 2515
3954 2574
3954 3090
3955 123
3955 2040
3955 2053
3955 3953
3956 123
3956 1653
3956 3090
3957 123
3957 159
3957 374
3957 482
3957 1157
3957 1830
3957 2014
3958 123
3958 2040
3958 12560
3959 124
3960 124
3960 2776
3961 124
3961 312
3961 435
3961 663
3961 1051
3961 1141
3961 1649
3961 2569
3961 3149
3962 124
3962 1283
3962 1806
3963 124
3963 697
3963 820
3963 1043
3963 1127
3963 1484
3963 1649
3963 2422
3963 3083
3963 6645
3963 12561
3964 124
3964 419
3964 430
3964 435
3964 465
3964 726
3964 951
3964 1028
3964 1051
3964 1164
3964 1315
3964 1432
3964 1735
3964 1766
3964 1806
3964 2298
3964 2655
3964 2941
3964 3324
3965 125
3966 126
3967 126
3967 385
3967 880
3967 894
3967 1030
3967 1465
3967 1699
3967 1873
3967 1957
3967 2173
3967 2281
3967 2483
3967 2735
3967 3000
3967 3252
3968 127
3969 127
3969 979
3969 2660
3969 2712
3969 2713
3970 128
3971 128
3971 185
3971 198
3971 248
3971 366
3971 478
3971 497
3971 874
3971 1013
3971 1083
3971 1172
3971 1422
3971 1496
3971 1531
3971 1533
3971 1570
3971 1615
3971 1677
3971 1798
3971 1900
3971 2948
3971 3233
3972 75
3972 128
3972 536
3972 1159
3972 1858
3973 129
3973 157
3973 551
3973 1059
3973 1516
3973 2647
3973 3035
3973 3036
3974 129
3974 419
3974 780
3974 979
3974 2756
3974 2922
3974 2923
3975 129
3976 10829
3977 1665
3977 4436
3977 10829
3978 1245
3978 1852
3978 2705
3978 2706
3978 10829
3979 130
3979 3102
3979 12562
3979 12563
3979 12564
3980 130
3980 8066
3980 12565
3981 131
3982 131
3982 846
3982 2595
3983 132
3984 132
3984 1584
3984 10209
3985 132
3985 2084
3986 133
3986 565
3986 848
3986 955
3986 1343
3986 1478
3986 1706
3986 1744
3986 1877
3986 1962
3986 2330
3986 2553
3986 2556
3986 2785
3986 3002
3986 3003
3986 3060
3986 3165
3986 3317
3987 133
3988 133
3988 1251
3988 1317
3988 1418
3988 1460
3988 1938
3988 2132
3988 2190
3988 2330
3988 2393
3988 3058
3988 3059
3988 3262
3989 133
3989 263
3989 1251
3989 1877
3989 2330
3989 3164
3989 3165
3989 3166
3989 3262
3990 5
3990 133
3990 1317
3990 1460
3990 1877
3990 2312
3990 3002
3990 3003
3991 133
3991 299
3991 1324
3991 1706
3991 1877
3991 1923
3991 2311
3991 2785
3991 3002
3991 3004
3992 133
3992 187
3992 1251
3992 1317
3992 1706
3992 1877
3992 2556
3992 2783
3992 2785
3992 3002
3992 3057
3992 3165
3992 3166
3993 78
3993 134
3993 162
3993 307
3993 387
3993 687
3993 1957
3993 3118
3993 3465
3994 134
3995 134
3995 566
3995 988
3995 2071
3995 2526
3995 2836
3996 135
3997 135
3997 591
3997 634
3997 1968
3997 2715
3998 135
3998 591
3998 1738
3999 135
3999 666
3999 1792
3999 2816
4000 136
4001 136
4001 2097
4001 2721
4001 2722
4001 3068
4002 136
4002 307
4002 316
4002 970
4002 1012
4002 1912
4002 1925
4002 2215
4002 2243
4002 2814
4002 3076
4002 3282
4002 3283
4002 3284
4003 137
4004 137
4004 625
4004 2609
4004 2657
4004 2855
4004 2856
4005 137
4005 4747
4005 4886
4005 12566
4006 137
4006 966
4006 3258
4007 138
4008 138
4008 691
4009 65
4009 138
4009 396
4009 1330
4009 2850
4009 2851
4010 139
4011 139
4011 409
4011 427
4011 1041
4011 1173
4011 2337
4011 2988
4012 139
4012 1742
4012 1743
4013 139
4013 591
4014 140
4014 221
4014 999
4014 1564
4014 2592
4014 2603
4014 11020
4015 140
4016 140
4016 221
4016 1564
4016 1974
4016 2603
4017 140
4017 787
4017 1897
4017 10976
4018 140
4018 818
4018 1676
4019 141
4020 141
4020 300
4020 407
4020 675
4020 950
4020 1130
4020 2109
4021 141
4021 1218
4021 1407
4021 1574
4021 1835
4021 2172
4021 2245
4021 2509
4022 141
4022 1059
4022 1969
4023 141
4023 1780
4024 142
4024 335
4025 142
4026 143
4027 143
4027 1370
4027 2093
4027 2289
4028 143
4028 2063
4029 144
4030 144
4030 693
4030 948
4030 1249
4030 1387
4030 2769
4030 3042
4030 3148
4030 3170
4031 144
4031 644
4031 1022
4031 1630
4031 2508
4031 2963
4031 4032
4031 11714
4032 144
4032 153
4032 792
4032 1982
4032 2508
4032 3190
4032 4031
4032 12567
4033 145
4033 1039
4033 1126
4033 1991
4034 145
4035 145
4035 230
4035 483
4035 609
4035 2280
4035 2466
4035 2795
4035 3068
4036 146
4036 758
4036 1493
4036 2677
4036 2730
4036 2731
4037 146
4038 146
4038 1299
4038 1493
4038 2240
4038 2258
4038 2381
4038 2677
4038 2730
4038 2731
4038 3181
4039 146
4039 281
4039 533
4039 631
4039 796
4039 931
4039 1034
4039 1097
4039 1122
4039 1134
4039 1330
4039 1617
4039 1751
4039 1998
4039 2030
4039 2089
4039 2254
4039 2258
4039 2296
4039 2599
4039 2601
4039 2719
4039 3331
4040 146
4040 792
4040 871
4040 948
4040 1041
4040 2537
4040 3082
4040 3190
4040 3191
4040 3192
4041 146
4041 491
4041 499
4041 1097
4041 2596
4042 146
4042 491
4042 931
4042 1034
4043 147
4044 147
4044 195
4044 377
4044 1875
4044 2515
4045 147
4045 421
4045 674
4045 716
4045 962
4045 1128
4045 1157
4045 2442
4046 147
4046 195
4046 377
4046 2515
4046 2967
4046 2981
4046 2982
4047 78
4047 147
4047 377
4047 505
4047 626
4047 1626
4047 2338
4047 2755
4047 3172
4047 3209
4048 78
4048 147
4048 505
4048 626
4048 1622
4048 1626
4048 2220
4048 2338
4048 3172
4049 148
4050 76
4050 148
4050 1767
4051 148
4051 691
4051 996
4052 148
4052 1411
4052 1844
4052 2217
4052 2660
4053 149
4054 149
4054 1361
4054 1946
4054 7754
4054 12568
4055 149
4055 193
4055 540
4055 1003
4055 1011
4055 1544
4055 2291
4055 2574
4055 2655
4055 3214
4056 149
4056 516
4056 1361
4057 150
4058 72
4058 150
4058 679
4059 150
4059 466
4059 957
4059 2120
4060 151
4061 151
4061 506
4061 509
4061 1283
4061 1391
4061 2310
4061 2613
4061 3139
4061 3143
4062 152
4063 152
4063 962
4064 5903
4065 153
4065 398
4065 1399
4065 3100
4065 6191
4065 11846
4066 2616
4066 3333
4066 5903
4066 12497
4066 12569
4067 346
4067 2306
4067 5903
4067 12570
4068 154
4069 154
4069 221
4069 853
4069 925
4069 2822
4069 2908
4069 2909
4069 3213
4069 8044
4070 155
4070 185
4070 463
4070 1167
4070 1570
4070 1827
4070 2351
4071 155
4072 76
4072 155
4072 553
4072 570
4072 2455
4073 156
4073 612
4073 1509
4073 1917
4073 2511
4074 156
4075 156
4075 177
4075 1065
4075 1363
4075 1597
4075 1599
4075 1848
4075 2356
4075 2482
4075 2689
4075 3158
4076 157
4077 157
4077 233
4077 5823
4078 158
4078 1218
4078 1244
4078 1689
4078 1983
4078 2172
4078 2825
4078 2831
4079 158
4080 159
4081 160
4081 1255
4081 1272
4081 1426
4081 2874
4081 2875
4082 160
4082 1919
4082 2373
4083 160
4083 331
4083 374
4083 381
4083 459
4083 466
4083 685
4083 1230
4083 1459
4083 1487
4083 1575
4083 1830
4083 1831
4083 2013
4083 2014
4084 160
4084 381
4084 466
4084 685
4084 1157
4084 1230
4084 1367
4084 1459
4084 1575
4084 1830
4084 1831
4084 2014
4085 160
4085 331
4085 381
4085 685
4085 1157
4085 1459
4085 1487
4085 1575
4085 1830
4085 1831
4085 2014
4086 160
4087 160
4087 528
4087 701
4087 975
4087 1227
4087 2053
4087 2373
4087 2651
4087 2999
4087 3216
4088 161
4088 1030
4088 1510
4088 2281
4088 3000
4089 161
4090 161
4090 188
4090 437
4090 442
4090 705
4090 1114
4090 1304
4090 2255
4091 162
4092 162
4092 1428
4092 1747
4093 78
4093 162
4093 555
4094 162
4094 555
4094 901
4094 9649
4095 78
4095 162
4095 533
4095 555
4095 831
4096 78
4096 162
4096 555
4096 1747
4097 163
4098 163
4098 1836
4098 1859
4098 2230
4099 44
4099 163
4099 463
4099 1472
4099 1488
4099 1836
4099 2230
4099 3098
4100 163
4100 1119
4100 1472
4100 1562
4100 1834
4100 2008
4101 164
4101 289
4101 336
4101 662
4101 682
4101 753
4101 950
4101 1130
4101 1469
4101 1535
4101 1675
4101 1803
4101 2777
4102 164
4102 753
4102 950
4102 980
4102 2539
4103 164
4104 164
4104 1006
4105 164
4105 400
4105 734
4105 980
4106 164
4106 336
4106 662
4106 753
4106 1469
4106 1803
4106 2539
4107 165
4107 330
4107 2202
4107 2290
4108 165
4108 384
4108 1072
4108 1617
4108 2375
4108 3134
4109 165
4109 211
4109 293
4109 303
4109 390
4109 1803
4109 1811
4109 2109
4109 2452
4109 3228
4109 3229
4110 165
4111 165
4111 636
4111 637
4111 1515
4111 2115
4111 2533
4111 2986
4112 78
4112 165
4112 396
4112 430
4112 2850
4113 165
4113 170
4114 166
4115 166
4115 1617
4115 2502
4115 2503
4115 2505
4116 166
4116 2503
4117 166
4117 2502
4117 4492
4118 166
4118 1567
4118 2348
4118 2892
4118 2893
4118 3226
4119 167
4120 167
4120 353
4120 2193
4121 167
4121 1103
4122 167
4122 733
4122 932
4122 1657
4122 2304
4123 168
4123 1081
4123 3265
4124 168
4124 976
4124 1035
4124 1548
4124 1810
4124 2563
4124 2564
4124 2707
4124 3188
4124 3189
4125 168
4126 168
4126 1081
4127 169
4128 169
4128 4130
4129 169
4129 4130
4129 12571
4130 169
4130 4128
4130 4129
4130 12572
4131 170
4132 170
4132 4133
4133 170
4133 4132
4133 8050
4134 170
4134 1592
4134 3205
4135 104
4135 170
4135 341
4135 365
4135 451
4135 2061
4135 2124
4136 170
4136 280
4136 423
4136 425
4136 571
4136 800
4136 1038
4136 1137
4136 1277
4136 2914
4136 3226
4137 170
4137 367
4137 622
4137 1202
4137 2857
4137 2917
4137 3091
4137 3092
4138 170
4138 280
4138 430
4138 609
4138 800
4138 1126
4138 1182
4138 1518
4138 1733
4138 2018
4138 3249
4138 3250
4139 170
4139 905
4139 2835
4139 12573
4140 170
4140 510
4140 856
4140 1048
4140 2181
4141 170
4141 288
4141 451
4141 610
4141 735
4141 936
4141 956
4141 959
4141 965
4141 1491
4141 1766
4141 2061
4141 2217
4141 2298
4141 2409
4141 3149
4141 3205
4141 3206
4141 3323
4142 60
4142 171
4142 190
4142 321
4142 1140
4142 2754
4143 171
4143 190
4143 192
4143 475
4143 929
4143 1132
4143 1183
4143 1476
4143 1556
4143 1566
4143 1849
4143 2127
4143 2302
4143 2883
4143 3211
4143 3261
4144 171
4144 343
4144 1312
4144 1879
4144 2671
4144 2837
4144 2838
4144 3173
4144 3319
4144 3320
4144 7954
4145 171
4146 171
4146 731
4146 1183
4146 2358
4146 2883
4146 2884
4147 172
4148 172
4148 647
4148 2072
4148 2106
4149 172
4149 1445
4149 1485
4149 1836
4149 1874
4149 2853
4150 172
4150 197
4150 469
4150 731
4150 1140
4150 1511
4150 1739
4150 1837
4150 1840
4150 2072
4150 2094
4150 2189
4150 2622
4150 3160
4150 3261
4150 3297
4151 172
4151 314
4151 324
4151 343
4151 556
4151 833
4151 858
4151 952
4151 1550
4151 1749
4151 1822
4151 2808
4152 172
4152 283
4152 386
4152 471
4152 711
4152 804
4152 1032
4152 1146
4152 1169
4152 1655
4152 1674
4152 2150
4152 2351
4152 3236
4153 172
4153 650
4153 1822
4153 1839
4153 1886
4154 172
4154 1167
4155 173
4155 411
4155 530
4155 661
4155 1013
4155 1054
4155 1214
4155 1254
4155 1422
4155 1489
4155 1642
4155 2150
4155 2151
4155 2540
4156 173
4157 173
4157 1083
4157 1452
4158 173
4158 1235
4158 4673
4159 173
4159 1236
4159 3072
4159 12574
4160 173
4160 463
4160 1377
4160 2692
4161 173
4161 411
4161 1422
4161 1642
4161 2151
4161 2540
4162 121
4162 173
4162 463
4162 1377
4162 2454
4162 2692
4162 3007
4163 173
4163 1452
4164 173
4164 227
4164 411
4164 497
4164 530
4164 661
4164 1254
4164 1422
4164 1489
4164 1533
4164 1642
4164 1798
4164 2125
4164 2150
4164 2151
4164 2540
4165 174
4165 925
4165 2736
4165 2738
4165 2739
4165 4461
4166 174
4166 756
4166 1569
4167 174
4167 3277
4168 174
4168 697
4168 1901
4168 2645
4168 3108
4169 174
4170 174
4170 282
4170 406
4170 653
4170 1425
4170 1569
4170 1761
4170 2671
4170 3163
4171 95
4171 174
4171 1862
4171 2348
4172 174
4172 1140
4172 1941
4172 2008
4172 2658
4172 2696
4172 2842
4172 3109
4173 174
4173 7217
4173 12575
4174 175
4174 424
4174 483
4174 1906
4174 2236
4174 2598
4175 175
4176 175
4176 546
4176 703
4176 713
4176 1160
4176 2236
4176 2598
4176 3112
4177 175
4177 883
4177 2598
4178 175
4178 195
4178 281
4178 424
4178 2211
4178 2231
4178 2975
4179 55
4179 175
4179 182
4180 175
4180 424
4180 703
4180 713
4180 1102
4180 1160
4180 1906
4180 2236
4180 2390
4180 2532
4180 2598
4180 2900
4180 3112
4181 175
4181 356
4181 464
4181 1074
4182 175
4182 498
4183 175
4183 431
4183 703
4183 1906
4183 2236
4184 176
4184 1823
4185 176
4186 176
4186 919
4186 1279
4186 2766
4186 2768
4186 2769
4187 176
4187 895
4187 1784
4188 176
4188 466
4188 660
4188 685
4188 716
4188 1487
4188 1519
4188 1812
4188 3171
4189 176
4189 434
4189 660
4189 685
4189 716
4189 1487
4189 1519
4189 1784
4189 1812
4189 2206
4189 2879
4189 3171
4190 177
4191 177
4191 704
4191 978
4191 980
4191 1065
4191 2356
4191 2411
4191 2482
4191 2673
4191 3220
4191 3221
4192 177
4192 1212
4192 1595
4193 177
4193 1942
4194 177
4194 2229
4194 2356
4194 2633
4194 2634
4195 156
4195 177
4195 1540
4195 2482
4195 2689
4196 177
4196 12576
4197 178
4197 1313
4197 1328
4197 1620
4197 2718
4198 178
4199 178
4199 2293
4200 178
4200 532
4200 1451
4200 1558
4200 1801
4200 2090
4201 178
4201 532
4201 1582
4201 2090
4202 178
4202 369
4202 742
4202 881
4202 1082
4202 1328
4202 1442
4202 1629
4202 2182
4202 10320
4203 178
4203 1801
4203 2090
4204 179
4204 1048
4205 179
4206 72
4206 179
4206 391
4206 574
4206 687
4206 823
4206 856
4206 902
4206 1148
4206 1689
4206 1727
4206 2267
4206 2825
4206 2844
4206 3299
4206 3300
4206 3301
4207 179
4207 513
4207 1339
4207 1727
4207 2133
4208 179
4208 667
4208 1148
4208 1334
4208 1727
4208 1997
4208 3024
4209 65
4209 179
4209 2607
4210 179
4210 1689
4210 2607
4210 3300
4211 180
4212 180
4212 1430
4212 1933
4212 1934
4213 78
4213 180
4213 831
4214 78
4214 162
4214 180
4215 180
4215 181
4215 208
4215 533
4215 994
4215 1428
4215 1660
4216 180
4216 2123
4216 2576
4216 2577
4216 3291
4217 178
4217 180
4217 2226
4217 2249
4218 78
4218 180
4218 430
4218 533
4219 180
4219 831
4220 78
4220 180
4221 181
4222 181
4222 2320
4223 120
4223 181
4223 481
4223 529
4223 1727
4223 1967
4223 3017
4223 3034
4224 181
4224 422
4224 556
4224 835
4224 935
4224 1031
4224 1054
4224 1168
4224 1231
4224 1631
4224 1798
4224 2057
4225 181
4225 1591
4225 2300
4225 3017
4226 181
4226 439
4226 1727
4226 1820
4226 2448
4227 182
4227 526
4227 1982
4227 2548
4228 182
4229 182
4229 194
4229 870
4229 873
4229 2395
4229 2985
4230 182
4230 1698
4230 2384
4231 182
4231 1143
4232 182
4232 1215
4232 1545
4232 1897
4232 1982
4232 2901
4232 7117
4232 9192
4232 11266
4233 182
4233 351
4233 792
4233 1061
4233 1611
4233 1857
4233 1982
4233 11177
4234 12586
4235 371
4235 2154
4235 2968
4235 3709
4235 5384
4235 12577
4235 12578
4236 231
4236 3199
4236 12494
4236 12579
4236 12580
4237 1722
4237 7111
4237 12581
4237 12582
4238 9159
4238 10954
4238 12583
4238 12584
4239 358
4239 438
4239 962
4239 1155
4239 12585
4239 12586
4240 183
4240 12587
4240 12588
4241 184
4241 343
4241 349
4241 1013
4241 1132
4241 1159
4241 1346
4241 1700
4241 1734
4241 1841
4241 1979
4241 2490
4241 2969
4242 184
4242 198
4242 347
4242 1886
4243 184
4243 468
4243 1841
4243 1858
4243 2057
4244 75
4244 184
4244 2057
4245 184
4246 184
4246 779
4246 948
4246 1316
4246 2374
4246 2446
4246 2651
4247 184
4247 929
4247 1120
4247 1135
4247 1183
4247 1566
4247 1855
4247 2883
4247 2973
4247 3211
4248 184
4248 380
4248 603
4249 185
4249 536
4249 1771
4249 2057
4250 185
4250 656
4251 94
4251 185
4251 468
4251 497
4252 185
4253 75
4253 185
4253 1700
4253 1761
4253 1858
4253 2550
4254 185
4254 952
4254 1073
4255 75
4255 128
4255 185
4255 1761
4255 2550
4256 185
4256 248
4256 366
4256 418
4256 422
4256 467
4256 1191
4256 1979
4256 2489
4256 2550
4256 3210
4257 186
4257 462
4257 474
4257 776
4257 1171
4257 1743
4257 2327
4257 2823
4258 186
4258 474
4258 475
4258 527
4258 776
4258 1146
4258 1169
4258 1171
4258 1566
4258 2021
4258 2327
4258 2674
4258 2823
4258 3079
4258 3287
4259 186
4260 186
4260 2067
4261 186
4261 343
4261 467
4261 1185
4261 1332
4261 1656
4261 2067
4261 2068
4261 2468
4262 186
4262 238
4262 1035
4262 1251
4262 1317
4262 1410
4262 1877
4262 2050
4262 2470
4262 2556
4262 2724
4262 3002
4262 3257
4263 186
4263 474
4263 1741
4264 93
4264 186
4264 323
4265 76
4265 186
4265 343
4265 930
4265 2565
4266 93
4266 186
4267 186
4267 1418
4267 1460
4267 2050
4267 2686
4268 186
4268 263
4268 299
4268 1317
4268 2330
4268 2364
4268 2554
4268 2783
4268 2785
4268 3165
4268 3166
4269 77
4269 186
4269 191
4269 192
4269 323
4269 478
4269 1761
4269 2127
4269 2191
4269 2459
4270 187
4270 2454
4270 2456
4270 3259
4270 3338
4271 187
4271 12589
4272 187
4273 187
4273 1989
4273 1991
4273 2744
4274 187
4274 422
4274 536
4274 1112
4274 1289
4274 1405
4274 1500
4274 1776
4274 2044
4274 2046
4274 2383
4274 2495
4274 2710
4275 187
4275 725
4275 1877
4275 6058
4275 12315
4276 187
4276 296
4276 1667
4276 1877
4276 2364
4276 2955
4276 3007
4276 3140
4276 4280
4277 187
4277 472
4277 725
4277 2551
4277 2553
4277 2604
4278 76
4278 187
4278 471
4278 1706
4278 2556
4278 2783
4278 3002
4278 3003
4279 187
4279 392
4279 418
4279 452
4279 829
4279 1112
4279 1350
4279 1619
4279 1826
4279 2053
4279 2340
4279 2635
4280 187
4280 296
4280 1224
4280 1667
4280 4276
4280 4971
4281 187
4281 1877
4281 2785
4282 188
4282 2709
4283 188
4284 188
4284 935
4284 2709
4285 188
4285 436
4285 452
4285 1018
4285 2720
4286 188
4286 1252
4286 2274
4286 2275
4287 77
4287 188
4287 1482
4287 2193
4287 2845
4287 3234
4288 68
4288 188
4288 1221
4288 1289
4288 2345
4288 2456
4288 2961
4289 189
4289 247
4289 390
4289 883
4289 1075
4289 1127
4289 1192
4289 1257
4289 1715
4289 2529
4289 2534
4289 2903
4289 2982
4289 3068
4289 3225
4289 3228
4289 12590
4290 189
4291 189
4291 669
4291 1286
4291 2064
4292 189
4292 3306
4293 78
4293 189
4293 431
4293 1912
4293 2587
4293 2876
4293 3075
4293 3076
4294 189
4294 669
4294 1046
4294 1059
4294 1516
4294 2464
4294 2716
4295 189
4295 626
4295 870
4295 873
4295 1128
4295 1157
4295 1287
4295 1351
4295 1453
4295 2661
4295 3135
4295 3490
4295 12591
4296 170
4296 189
4297 190
4298 190
4298 323
4298 1111
4298 1607
4298 1837
4298 1855
4298 1959
4298 2264
4299 190
4299 1183
4299 1356
4299 3211
4300 190
4300 323
4300 413
4300 463
4300 1186
4300 1403
4300 1855
4300 1859
4300 1961
4300 2351
4300 2358
4300 3211
4301 190
4301 1739
4301 3419
4302 75
4302 191
4302 468
4302 1761
4303 75
4303 191
4303 468
4303 1353
4303 1700
4303 1734
4303 1858
4303 2459
4304 191
4304 1159
4304 1172
4304 1316
4304 2459
4305 191
4305 1667
4305 2459
4306 191
4306 388
4306 853
4306 1079
4306 1854
4306 1879
4306 2327
4306 2459
4306 3079
4307 75
4307 191
4307 388
4307 586
4307 1172
4307 2459
4308 186
4308 191
4308 388
4308 426
4308 463
4308 467
4308 731
4308 1634
4308 2094
4308 2096
4308 2272
4308 2285
4308 2459
4309 191
4310 191
4310 192
4311 191
4311 388
4311 586
4311 1159
4311 1634
4311 1854
4311 2459
4312 191
4312 343
4312 472
4312 2459
4312 2694
4312 2823
4313 53
4313 191
4313 426
4313 456
4313 731
4313 829
4313 1132
4313 1353
4313 1405
4313 2094
4313 2383
4313 2459
4313 2556
4313 2951
4313 3079
4314 191
4314 192
4314 468
4314 686
4314 1761
4314 1785
4314 2045
4314 2127
4314 10804
4315 191
4315 325
4315 418
4315 467
4315 472
4315 935
4315 940
4315 1172
4315 1285
4315 1316
4315 1749
4315 1841
4315 2459
4315 3285
4316 75
4316 191
4316 2459
4317 192
4317 472
4317 2248
4317 2302
4318 75
4318 191
4318 192
4318 586
4318 1761
4318 2459
4319 192
4319 458
4319 586
4319 1032
4319 1132
4319 2248
4319 2268
4319 2302
4319 2794
4320 191
4320 192
4320 1761
4321 192
4322 75
4322 192
4322 2045
4322 2127
4323 192
4323 480
4323 1032
4323 1114
4323 1952
4323 2268
4323 2274
4323 2275
4323 2359
4323 2642
4323 2885
4324 192
4324 2127
4325 193
4326 193
4326 240
4326 558
4326 605
4326 845
4326 1011
4326 2291
4326 2460
4326 2655
4327 193
4327 1480
4327 1731
4328 193
4328 540
4328 1011
4328 1042
4328 1544
4328 2291
4328 2347
4329 193
4329 516
4329 2544
4329 2546
4329 2547
4330 193
4330 368
4330 1003
4330 1153
4331 193
4331 2813
4332 193
4332 226
4332 297
4332 813
4332 1401
4332 2574
4332 2575
4332 2844
4333 193
4333 984
4333 1103
4333 1309
4333 2597
4333 2813
4334 194
4334 549
4334 873
4334 2505
4334 2684
4335 194
4335 199
4335 222
4335 384
4335 403
4335 701
4335 974
4335 1617
4335 1868
4335 1991
4335 2284
4335 2319
4335 6678
4336 194
4336 1708
4336 1751
4337 194
4338 194
4338 2372
4339 194
4339 492
4339 754
4339 2257
4340 194
4340 491
4340 931
4340 1034
4340 1097
4340 2596
4341 194
4341 1134
4341 1751
4341 2058
4341 2257
4341 2478
4341 2938
4342 195
4343 195
4343 1365
4343 1819
4343 1875
4343 2695
4343 2990
4343 10296
4344 195
4344 943
4344 1554
4345 195
4345 1005
4346 195
4346 884
4346 926
4346 1019
4347 195
4347 282
4347 403
4347 890
4347 1748
4348 196
4349 65
4349 196
4349 1336
4349 1988
4350 196
4350 1340
4351 196
4351 1931
4351 12592
4352 196
4352 1336
4352 11077
4353 197
4353 335
4353 337
4353 718
4353 1619
4353 2821
4353 5860
4353 9114
4354 197
4355 197
4355 422
4355 452
4355 853
4355 2272
4355 2312
4356 198
4356 462
4356 553
4356 683
4356 1488
4356 1673
4356 1894
4356 2823
4356 3005
4357 198
4357 2096
4358 198
4359 76
4359 198
4359 930
4359 1538
4359 1570
4359 2248
4359 2302
4359 2591
4359 2674
4359 2754
4359 3196
4359 3219
4360 199
4361 199
4361 731
4362 199
4362 428
4362 1173
4362 1990
4362 2442
4363 199
4363 337
4363 343
4363 404
4363 538
4363 848
4363 1959
4363 2112
4363 2495
4363 3200
4364 187
4364 199
4364 238
4364 376
4364 404
4364 565
4364 848
4364 955
4364 1317
4364 2428
4364 2495
4364 3003
4364 3200
4365 199
4365 816
4365 1185
4365 1805
4365 2067
4365 2068
4366 199
4366 547
4366 1743
4366 2327
4367 200
4367 1593
4368 200
4368 1495
4368 2469
4368 2470
4368 2783
4369 200
4369 1142
4369 1601
4370 54
4370 200
4370 246
4370 457
4370 587
4370 1142
4370 3077
4370 3078
4371 200
4371 1142
4371 2621
4371 2699
4371 2965
4371 2966
4371 3078
4372 200
4373 54
4373 200
4373 353
4373 1236
4373 2420
4374 200
4374 587
4374 2082
4374 3078
4375 201
4376 201
4376 2237
4377 201
4377 1596
4377 2237
4377 2431
4378 201
4378 1046
4378 1099
4378 1902
4378 2433
4379 201
4379 1329
4379 1486
4380 201
4380 3239
4380 3703
4380 9203
4380 12593
4381 201
4381 2010
4381 2011
4381 2237
4381 2369
4381 2687
4381 3110
4381 3111
4382 201
4382 354
4382 1468
4382 2131
4382 5252
4383 202
4384 202
4384 1036
4384 2410
4384 2774
4385 202
4385 1727
4385 2775
4386 202
4386 234
4386 402
4386 529
4386 781
4386 891
4386 951
4386 1314
4386 1539
4386 1818
4386 2216
4386 2270
4386 2291
4386 2292
4386 2355
4386 3296
4387 202
4387 2410
4388 202
4388 302
4388 896
4388 1036
4388 1265
4388 1266
4388 1486
4388 1625
4388 1817
4388 2079
4388 2410
4388 3175
4388 3290
4388 3291
4388 3292
4389 202
4389 410
4389 451
4389 1645
4389 2545
4390 202
4390 235
4390 1256
4390 1270
4390 1480
4390 2857
4390 2950
4391 203
4391 867
4391 986
4391 1038
4391 2438
4391 2508
4391 2913
4392 203
4392 1939
4392 2615
4392 2617
4393 203
4394 66
4394 203
4394 703
4394 1126
4395 66
4395 203
4395 204
4395 279
4395 334
4395 424
4395 464
4396 203
4396 1126
4397 203
4397 1298
4397 1397
4398 124
4398 203
4398 1283
4399 203
4399 260
4399 1126
4399 2434
4399 2598
4400 204
4401 66
4401 204
4401 279
4401 281
4401 356
4401 424
4401 464
4402 204
4402 414
4402 571
4402 1102
4402 2231
4403 204
4403 1851
4403 8937
4404 204
4404 429
4404 453
4404 2231
4405 204
4405 2532
4406 66
4406 204
4406 356
4406 1038
4406 2898
4406 2899
4407 205
4408 205
4408 994
4408 1190
4408 3302
4409 205
4409 1918
4410 205
4410 1122
4410 1381
4411 206
4412 207
4412 461
4412 475
4412 929
4412 1132
4412 1183
4412 1476
4412 1507
4412 1761
4412 1776
4412 1855
4412 2248
4412 2302
4412 2883
4412 3261
4413 207
4413 323
4413 929
4413 1132
4413 1135
4413 1183
4413 1476
4413 1849
4413 2459
4413 2883
4413 2993
4413 3211
4413 3261
4414 207
4415 208
4415 1625
4415 2572
4416 208
4417 208
4417 302
4417 720
4417 1428
4417 1660
4417 2079
4417 4419
4418 208
4418 555
4418 831
4418 856
4418 1012
4418 1048
4418 1755
4418 2787
4418 9649
4419 208
4419 1271
4419 4417
4419 10519
4419 12594
4420 209
4421 209
4421 2188
4421 2521
4421 2522
4421 3208
4422 209
4422 1545
4422 1781
4423 209
4423 211
4423 698
4423 1432
4423 1721
4423 3207
4423 3208
4423 11147
4424 210
4425 210
4425 298
4425 481
4425 659
4425 751
4425 819
4425 1774
4425 2618
4425 2619
4425 3201
4426 210
4426 1774
4426 1965
4426 2114
4427 210
4427 630
4427 2516
4427 2618
4427 2980
4428 211
4429 211
4429 814
4429 843
4429 1819
4429 2522
4429 2932
4429 2976
4430 211
4430 698
4430 814
4430 843
4430 1819
4430 2422
4430 2522
4430 2976
4430 3207
4430 3208
4431 211
4431 303
4431 390
4431 588
4431 600
4431 675
4431 945
4431 950
4431 1130
4431 1721
4431 1811
4431 2109
4431 2902
4431 3085
4431 3142
4432 211
4432 303
4432 2245
4433 212
4434 212
4434 1661
4435 212
4435 346
4435 407
4435 945
4435 1248
4436 212
4436 1091
4436 3977
4436 8739
4437 212
4437 399
4437 569
4437 658
4437 1373
4437 2616
4437 2962
4438 213
4439 213
4439 428
4439 445
4439 453
4439 859
4439 2782
4440 213
4440 327
4440 378
4440 428
4440 445
4440 453
4440 571
4440 859
4440 966
4440 1282
4440 1477
4440 1589
4440 2782
4441 213
4441 539
4441 947
4442 213
4442 428
4442 445
4442 453
4442 859
4442 966
4442 2782
4443 214
4444 214
4444 319
4444 325
4444 332
4444 481
4444 835
4445 214
4445 1390
4446 214
4446 331
4446 376
4446 681
4446 833
4446 940
4446 1108
4446 1161
4446 1470
4446 1951
4446 2327
4446 2345
4446 2808
4447 214
4447 240
4447 325
4447 331
4447 477
4447 985
4447 1329
4447 1390
4447 3033
4448 215
4449 215
4449 715
4449 734
4449 967
4449 979
4449 1917
4449 1997
4449 2039
4449 2336
4450 215
4450 479
4450 1199
4451 215
4451 1189
4452 216
4452 988
4452 1177
4452 1493
4452 2526
4453 72
4453 216
4453 988
4453 2071
4453 2242
4453 2814
4454 216
4455 217
4455 455
4455 1956
4455 1957
4456 217
4456 295
4456 310
4456 364
4456 455
4456 743
4456 902
4456 1306
4456 1541
4456 1759
4456 2128
4456 2463
4457 217
4458 217
4458 608
4458 935
4458 985
4458 1900
4458 2709
4458 3008
4459 217
4459 295
4459 310
4459 362
4459 364
4459 449
4459 455
4459 743
4459 902
4459 1541
4459 1759
4459 2069
4459 2128
4459 2129
4459 2799
4460 217
4460 295
4460 310
4460 362
4460 364
4460 449
4460 455
4460 880
4460 902
4460 1759
4460 2069
4460 2128
4460 2799
4460 2800
4461 218
4461 338
4461 339
4461 2423
4461 2781
4461 4165
4462 218
4463 218
4463 953
4463 1120
4463 1186
4463 1901
4463 2162
4463 3277
4464 219
4465 219
4465 729
4465 794
4466 219
4466 1167
4466 1674
4466 2324
4467 220
4468 220
4468 378
4468 428
4468 511
4468 2725
4469 220
4469 327
4469 410
4469 445
4469 453
4469 511
4469 558
4469 966
4469 1457
4469 1645
4469 2194
4469 2725
4469 2914
4470 220
4470 951
4470 1028
4470 1164
4471 221
4472 221
4472 788
4472 7470
4472 12595
4473 221
4473 1459
4474 222
4475 222
4475 421
4475 783
4475 1522
4475 2896
4475 2897
4476 223
4477 223
4477 414
4477 3010
4478 224
4478 947
4479 224
4480 224
4480 4584
4480 4920
4481 225
4482 225
4482 541
4482 1658
4482 1659
4482 2243
4483 226
4484 226
4484 297
4484 1401
4484 2574
4484 2575
4485 226
4485 12597
4486 227
4487 227
4487 1827
4487 2008
4487 2565
4487 2622
4488 227
4488 804
4488 2760
4489 228
4490 228
4490 758
4490 2296
4490 2381
4490 2444
4491 228
4491 2444
4491 2557
4491 4492
4491 12598
4492 228
4492 304
4492 2240
4492 2296
4492 2381
4492 2444
4492 3094
4492 3727
4492 4117
4492 4491
4493 228
4493 631
4493 1122
4493 2697
4493 2938
4493 3014
4493 3015
4494 229
4494 400
4494 1551
4494 1685
4494 1775
4494 3048
4494 3049
4494 3050
4495 229
4496 229
4496 1613
4496 1869
4497 229
4497 365
4497 1002
4497 1869
4497 2809
4497 2881
4497 2901
4498 145
4498 230
4498 1277
4498 1925
4499 230
4500 204
4500 230
4500 483
4500 1906
4500 1925
4501 230
4501 1147
4502 230
4502 539
4502 2436
4502 2636
4502 3076
4503 230
4503 387
4503 424
4503 431
4503 476
4503 498
4503 703
4503 713
4503 879
4503 1160
4503 2598
4503 3112
4504 231
4504 832
4504 1411
4505 231
4506 231
4506 928
4506 1765
4506 1944
4506 9161
4507 231
4507 244
4508 231
4508 1124
4508 2041
4508 3329
4509 232
4510 232
4510 976
4510 2212
4510 2564
4511 232
4511 382
4511 747
4511 976
4511 1035
4511 1152
4511 2251
4512 232
4512 2137
4513 232
4513 382
4513 419
4513 976
4513 1035
4513 1081
4513 1694
4513 2137
4513 2251
4513 2715
4513 3189
4513 3265
4513 3266
4514 233
4515 170
4515 233
4515 762
4516 233
4516 5823
4517 234
4518 234
4518 1309
4518 2764
4519 234
4519 1048
4520 234
4520 1148
4520 1539
4520 1929
4520 2270
4520 3116
4520 3117
4520 3118
4521 235
4522 235
4522 1270
4522 1359
4523 235
4523 12599
4524 235
4524 1439
4524 2357
4524 7413
4524 10988
4524 12343
4524 12600
4525 1623
4525 12553
4526 12553
4527 237
4528 237
4528 426
4528 1879
4529 237
4529 322
4529 323
4529 834
4529 958
4529 1031
4529 1119
4529 1133
4529 1403
4529 1472
4529 1562
4529 1855
4529 1859
4529 1894
4529 1961
4529 2752
4529 3061
4529 3261
4529 3273
4530 187
4530 238
4530 718
4530 2497
4530 2909
4531 238
4531 1131
4531 1432
4531 2066
4532 187
4532 238
4532 452
4532 467
4532 601
4532 834
4532 1112
4532 1171
4532 1707
4532 2383
4532 2540
4532 2710
4532 3263
4533 238
4534 239
4534 755
4534 2042
4535 239
4535 2447
4536 239
4536 265
4536 529
4536 544
4536 1825
4536 12601
4537 239
4538 239
4538 1284
4538 1804
4538 2040
4539 239
4539 708
4539 1875
4539 2372
4539 2442
4540 239
4540 4914
4540 12015
4540 12602
4541 239
4541 265
4541 574
4541 988
4541 1173
4541 1177
4541 1693
4541 1804
4541 1861
4541 1997
4541 2369
4541 2687
4541 2836
4542 194
4542 240
4542 1989
4543 240
4543 1263
4543 3301
4544 240
4544 1109
4544 2121
4544 2948
4545 240
4546 194
4546 240
4546 384
4546 1173
4547 240
4547 465
4547 845
4547 1028
4547 1315
4547 1501
4547 1546
4547 2074
4547 2262
4547 2291
4547 2654
4547 2655
4547 3186
4548 240
4548 540
4548 628
4548 994
4548 1081
4548 1314
4548 1415
4548 2291
4549 240
4549 325
4549 331
4549 420
4549 477
4549 1137
4550 193
4550 240
4550 845
4550 2655
4551 240
4551 435
4551 451
4551 1302
4551 1746
4551 1972
4551 2647
4551 2789
4551 3152
4552 240
4552 726
4552 1315
4552 2654
4552 2655
4553 194
4553 240
4553 384
4553 421
4553 1097
4553 1173
4553 2700
4554 241
4555 241
4555 930
4555 1111
4555 1171
4555 2752
4555 3287
4556 241
4556 924
4556 1119
4556 2943
4556 2944
4556 4559
4556 6055
4557 241
4557 1637
4557 1652
4557 1836
4558 241
4558 1316
4558 1602
4559 241
4559 463
4559 924
4559 1119
4559 1214
4559 1602
4559 1634
4559 2943
4559 3089
4559 3273
4559 4556
4559 6055
4560 76
4560 241
4560 668
4560 822
4560 930
4560 1054
4560 1602
4560 1797
4560 2927
4561 241
4561 350
4561 651
4561 668
4561 1319
4561 1827
4561 2927
4561 3084
4561 3089
4562 241
4562 248
4562 411
4562 463
4562 822
4562 872
4562 924
4562 1602
4562 1814
4562 1836
4562 2853
4562 2944
4563 241
4563 248
4563 463
4563 822
4563 872
4563 924
4563 1168
4563 1602
4563 1814
4563 1836
4563 2151
4563 2853
4563 2944
4564 241
4564 248
4564 461
4564 1602
4564 1814
4565 242
4566 242
4566 1702
4566 2128
4566 2267
4566 2644
4566 2945
4566 2977
4567 242
4567 2641
4568 242
4568 364
4568 455
4568 466
4568 880
4568 1541
4568 2128
4568 2663
4569 242
4569 434
4569 894
4569 895
4569 1653
4569 1760
4569 1784
4569 1957
4569 3008
4570 242
4570 434
4570 466
4570 1820
4570 1935
4571 242
4571 434
4571 1737
4571 1935
4572 243
4572 980
4572 1096
4573 243
4573 412
4573 541
4573 2238
4573 2889
4574 243
4575 243
4575 500
4575 665
4575 1211
4576 243
4576 2439
4577 243
4577 541
4577 840
4577 861
4577 2238
4577 2353
4577 2889
4578 243
4578 318
4578 412
4578 541
4578 756
4578 887
4578 1096
4578 1211
4578 2238
4579 243
4579 412
4579 541
4579 887
4579 1211
4579 1379
4579 2238
4579 2889
4580 244
4581 244
4581 2062
4582 244
4582 308
4582 719
4582 2062
4583 99
4583 244
4583 308
4583 686
4583 2062
4583 2847
4584 244
4584 393
4584 2847
4584 4480
4585 244
4585 569
4585 2496
4586 245
4587 245
4587 1040
4588 245
4588 517
4588 12603
4589 245
4589 517
4589 1040
4590 246
4590 1867
4590 2626
4590 2834
4591 246
4592 246
4592 337
4592 457
4592 472
4592 775
4592 1593
4592 1619
4592 1867
4592 1994
4592 2082
4592 3077
4592 3227
4593 246
4593 967
4594 246
4594 803
4594 1656
4595 54
4595 246
4596 246
4596 418
4596 975
4596 2635
4596 2794
4596 3020
4597 246
4597 333
4597 457
4597 472
4597 760
4597 775
4597 1139
4597 1184
4597 1316
4597 1593
4597 3227
4598 54
4598 246
4598 2420
4599 246
4599 457
4599 1132
4599 1184
4599 12604
4600 246
4600 475
4600 1865
4600 1867
4600 2894
4600 2948
4600 11616
4601 246
4601 292
4601 404
4601 469
4601 470
4601 565
4601 777
4601 960
4601 1133
4601 1345
4601 1628
4601 1900
4601 2621
4601 2955
4601 3106
4602 246
4602 858
4602 1161
4602 1608
4602 1615
4602 2487
4602 2561
4602 2870
4603 246
4603 418
4603 467
4603 816
4603 2345
4604 54
4604 60
4604 246
4604 292
4604 457
4604 775
4604 1184
4604 2205
4604 2797
4604 3121
4605 247
4606 247
4606 554
4606 714
4606 824
4606 899
4606 2080
4606 2857
4606 3176
4606 3194
4606 3195
4607 247
4607 2857
4608 247
4608 767
4608 1660
4608 2538
4608 2572
4609 247
4609 280
4609 361
4609 428
4609 445
4609 453
4609 576
4609 795
4609 813
4609 2097
4609 3230
4610 247
4610 265
4610 539
4610 824
4610 899
4610 966
4610 1568
4610 1625
4610 1807
4610 2048
4610 2079
4610 2097
4610 2333
4610 2857
4610 3195
4610 3230
4610 8470
4611 204
4611 247
4611 356
4611 464
4611 2015
4612 247
4612 1853
4612 2835
4612 2857
4613 247
4613 1807
4613 3230
4614 248
4615 185
4615 248
4615 467
4615 1067
4616 248
4616 1416
4616 2848
4617 248
4617 530
4617 872
4617 1677
4617 2125
4618 248
4618 1607
4619 248
4619 422
4619 452
4619 1079
4619 1083
4619 1533
4619 2550
4619 3084
4620 248
4620 452
4620 2193
4620 2272
4621 241
4621 248
4621 461
4621 2580
4622 248
4622 347
4622 405
4622 467
4622 711
4622 841
4622 903
4622 973
4622 1013
4622 1083
4622 1214
4622 2150
4623 227
4623 248
4623 422
4623 973
4623 2550
4624 4644
4624 6998
4624 10524
4624 11069
4625 4779
4626 250
4626 1960
4626 2933
4626 2953
4627 250
4628 250
4628 417
4628 637
4628 856
4628 3088
4629 251
4630 252
4631 252
4631 2516
4631 2750
4631 2812
4631 2979
4631 2980
4632 210
4632 252
4632 630
4632 659
4632 1774
4632 2516
4632 2618
4632 2619
4632 2980
4632 3201
4633 253
4634 253
4634 616
4634 1440
4634 9818
4635 254
4636 8439
4637 255
4637 1145
4637 1740
4637 1804
4637 2664
4637 10556
4638 1015
4638 1077
4638 2524
4638 7188
4638 8439
4639 501
4639 5705
4639 5834
4639 9262
4639 12516
4639 12605
4640 10659
4641 256
4641 257
4641 9227
4641 12606
4642 1264
4642 2122
4642 9339
4642 10659
4642 11030
4642 12607
4643 8553
4644 258
4644 454
4644 1044
4644 1715
4644 1903
4644 4624
4644 12609
4645 258
4646 259
4646 1373
4646 1705
4646 2486
4646 2488
4647 259
4648 259
4648 399
4648 1535
4648 12610
4649 259
4649 336
4649 407
4649 444
4649 594
4649 692
4649 801
4649 1104
4649 1130
4649 1534
4649 1535
4649 1661
4649 1675
4649 1772
4649 2488
4650 259
4650 336
4650 444
4650 801
4650 1705
4650 2616
4651 203
4651 260
4651 986
4651 1038
4651 2015
4651 2060
4651 2899
4652 260
4652 424
4652 445
4652 968
4652 1113
4652 2107
4653 260
4654 260
4654 2098
4654 2226
4654 2227
4655 260
4655 879
4655 1557
4656 260
4656 410
4656 554
4656 1821
4656 1925
4656 2538
4656 2857
4656 3136
4656 3169
4657 261
4657 328
4657 362
4657 957
4657 1022
4657 12611
4658 261
4658 364
4658 455
4658 2799
4659 261
4659 486
4659 526
4659 8100
4660 261
4661 261
4661 328
4661 957
4662 217
4662 261
4662 364
4662 455
4663 261
4663 1157
4663 12611
4664 105
4664 217
4664 261
4664 295
4664 310
4664 364
4664 449
4664 455
4664 902
4664 1541
4664 1759
4664 1784
4664 2069
4664 2799
4664 2800
4665 261
4665 880
4665 1030
4665 1306
4665 1465
4665 1873
4665 2173
4665 2281
4665 2589
4666 262
4667 262
4667 470
4667 647
4667 756
4667 787
4667 914
4667 1827
4667 1941
4667 2008
4667 2349
4668 262
4668 961
4669 262
4669 338
4669 417
4669 914
4669 1154
4669 1249
4669 1838
4669 2337
4670 262
4670 282
4670 403
4670 473
4670 729
4670 794
4670 1075
4670 2142
4670 2461
4670 2967
4670 3039
4671 262
4671 676
4671 1386
4671 1522
4671 2344
4671 2485
4671 3006
4672 262
4672 414
4672 1477
4673 263
4673 3058
4673 4158
4674 263
4674 299
4674 955
4674 1251
4674 1317
4674 1460
4674 1877
4674 1938
4674 2393
4674 2692
4674 3003
4674 3165
4674 3166
4674 3262
4675 263
4676 263
4676 299
4676 1324
4677 263
4677 353
4677 467
4677 478
4677 518
4677 652
4677 875
4677 935
4677 1304
4677 1369
4677 1372
4677 1786
4677 1867
4677 2255
4677 3152
4677 3233
4677 3304
4678 263
4678 325
4678 477
4678 1390
4678 1531
4679 264
4679 333
4679 457
4679 472
4679 739
4679 802
4679 1495
4679 1813
4679 1995
4679 2797
4680 264
4681 264
4681 1231
4682 188
4682 264
4682 467
4682 1231
4682 1252
4683 264
4683 472
4683 802
4684 264
4684 472
4684 1951
4684 2253
4685 264
4685 319
4685 934
4685 1231
4685 1252
4686 75
4686 264
4686 408
4686 689
4686 934
4686 1231
4686 1771
4686 1951
4687 54
4687 264
4687 344
4687 2235
4688 265
4689 265
4689 1921
4689 2071
4689 2836
4690 265
4690 983
4690 1982
4691 265
4691 2071
4691 2315
4691 2836
4692 265
4692 1825
4693 265
4693 529
4693 1128
4693 1173
4693 1453
4693 1515
4693 1989
4693 3953
4693 12591
4694 266
4694 431
4694 1313
4694 1338
4694 1451
4694 2728
4695 266
4696 266
4696 2314
4697 266
4697 1338
4697 2002
4697 2568
4698 266
4698 793
4698 881
4698 885
4698 4699
4698 7490
4699 266
4699 793
4699 1158
4699 1338
4699 2182
4699 2210
4699 2314
4699 4698
4700 266
4700 1542
4700 2182
4701 267
4701 985
4701 1074
4701 1244
4701 1574
4701 2509
4701 2602
4701 2990
4702 267
4703 267
4703 1389
4703 1915
4704 77
4704 267
4705 267
4705 517
4706 267
4706 351
4706 391
4706 517
4706 843
4706 883
4706 1074
4706 1574
4706 1689
4706 1954
4706 2172
4706 2590
4706 2891
4706 2989
4706 3040
4706 3314
4706 3315
4706 3316
4707 267
4707 351
4707 517
4707 1074
4707 2133
4707 2833
4708 268
4709 268
4709 1542
4709 1669
4710 268
4710 2440
4711 268
4711 1158
4711 1338
4711 2314
4712 268
4712 1259
4712 1597
4712 1670
4712 2486
4713 269
4714 47
4714 269
4714 398
4714 986
4714 2640
4714 2947
4714 2956
4715 269
4715 2375
4716 270
4716 2538
4717 270
4717 648
4717 881
4717 1430
4718 270
4719 270
4719 983
4719 1872
4720 271
4721 272
4722 273
4723 274
4724 274
4724 990
4724 1228
4724 2411
4724 2481
4725 274
4725 675
4725 1228
4725 6876
4726 275
4726 279
4726 424
4726 557
4726 879
4727 275
4728 276
4729 276
4729 870
4729 1344
4729 1831
4729 2013
4729 2789
4730 276
4730 341
4730 680
4730 1217
4730 1302
4730 2418
4730 2996
4731 277
4732 278
4732 5612
4732 11656
4732 12612
4733 278
4734 279
4735 66
4735 279
4735 424
4735 2280
4735 2434
4736 66
4736 279
4736 1072
4737 279
4737 2975
4738 204
4738 279
4738 424
4739 260
4739 279
4739 879
4740 66
4740 279
4740 1906
4740 2598
4741 66
4741 279
4742 279
4742 766
4742 1151
4742 1835
4742 2510
4743 279
4743 2032
4743 2215
4743 2371
4744 175
4744 279
4744 1851
4744 2326
4744 2573
4744 2876
4745 66
4745 279
4745 424
4745 464
4745 703
4745 879
4745 1906
4745 3114
4746 279
4746 431
4746 498
4746 879
4746 1518
4746 2900
4747 280
4747 4005
4748 280
4748 2333
4748 2399
4749 280
4749 365
4749 473
4749 886
4749 1037
4749 1585
4749 2461
4749 3108
4750 280
4750 425
4750 443
4750 450
4750 473
4750 1585
4750 2636
4751 280
4751 425
4751 886
4751 1585
4752 280
4753 280
4753 450
4753 886
4753 1585
4753 2436
4753 2636
4754 280
4754 450
4754 473
4754 1585
4754 2636
4755 281
4755 3025
4756 281
4756 867
4756 1038
4756 1126
4756 2438
4756 2913
4756 2914
4757 281
4758 281
4758 1210
4758 1431
4759 281
4759 305
4759 423
4759 1038
4759 3690
4760 281
4760 334
4760 424
4760 557
4760 1126
4760 1160
4760 1518
4760 2280
4760 2434
4761 281
4761 1861
4761 1919
4761 1982
4762 66
4762 281
4762 424
4762 464
4763 66
4763 279
4763 281
4764 204
4764 281
4764 356
4765 281
4765 384
4765 421
4765 1177
4765 1453
4765 1515
4765 1617
4765 1989
4765 2060
4765 2549
4765 2700
4765 2770
4765 2942
4765 3016
4765 3226
4765 3298
4766 281
4766 425
4766 1061
4766 1420
4766 1896
4766 2338
4766 2638
4766 2897
4767 282
4767 1249
4767 1809
4767 3268
4768 282
4769 282
4769 1258
4770 282
4770 443
4770 729
4770 794
4770 2461
4771 282
4771 409
4771 467
4771 2163
4771 2354
4771 2550
4771 3054
4771 3055
4772 282
4772 365
4772 620
4772 804
4772 1039
4772 1722
4772 2309
4773 282
4773 1490
4773 1722
4774 195
4774 282
4774 1809
4775 282
4775 338
4775 464
4775 926
4775 1061
4775 2400
4776 135
4776 282
4776 403
4776 473
4776 1075
4777 77
4777 283
4777 345
4777 967
4778 283
4778 411
4778 711
4778 804
4778 973
4778 1496
4778 1648
4778 1761
4778 1799
4778 2331
4779 283
4779 463
4779 564
4779 1183
4779 2645
4779 3321
4779 4625
4780 283
4781 283
4781 1507
4782 284
4782 1177
4782 2145
4782 10736
4783 284
4784 284
4784 402
4784 1102
4784 1257
4784 2835
4784 3360
4785 284
4785 812
4785 5290
4785 5804
4785 12588
4785 12613
4786 285
4787 76
4787 285
4787 1054
4787 1587
4787 1993
4788 285
4788 575
4788 731
4788 2285
4789 285
4789 463
4789 575
4789 1677
4789 2008
4789 2285
4790 285
4790 650
4790 914
4790 1169
4790 1370
4790 1507
4790 1508
4790 1569
4790 1900
4790 1901
4790 2437
4790 3129
4790 3254
4790 3271
4791 285
4791 1677
4791 12614
4792 285
4792 1607
4793 285
4793 322
4793 575
4793 1120
4793 1135
4793 1628
4793 1822
4793 2336
4793 2837
4794 286
4794 1468
4795 286
4795 307
4795 882
4795 1420
4795 1431
4795 1727
4795 1821
4795 1960
4795 2267
4796 286
4796 1420
4796 1821
4797 286
4798 134
4798 286
4798 947
4798 1420
4798 2841
4798 2953
4799 286
4799 307
4799 352
4799 1689
4799 2672
4800 286
4800 1745
4800 2722
4800 3558
4801 287
4801 526
4801 730
4801 870
4801 1253
4801 1255
4801 2924
4802 287
4802 415
4802 477
4802 568
4802 858
4802 1105
4802 1495
4802 2044
4802 2046
4802 2121
4802 2811
4803 287
4804 287
4804 751
4804 1253
4804 1426
4804 2484
4804 2747
4805 288
4805 451
4805 1592
4805 2079
4805 2343
4805 2602
4805 2801
4806 288
4806 1825
4807 288
4807 312
4807 888
4807 1058
4807 1571
4807 2239
4807 2418
4807 2802
4807 3028
4808 288
4809 288
4809 312
4809 1491
4809 2061
4809 2217
4809 2298
4809 2409
4809 3149
4809 3205
4809 3206
4810 288
4810 2217
4810 2343
4810 2801
4811 288
4811 1221
4811 1224
4812 289
4813 289
4813 1518
4813 1710
4813 2298
4813 2325
4813 2756
4813 2802
4813 3156
4813 3186
4813 3187
4814 289
4814 1050
4815 289
4815 747
4815 1330
4815 2130
4816 289
4816 300
4816 1050
4817 194
4817 290
4817 384
4817 1173
4817 1866
4818 290
4819 290
4819 1736
4820 290
4820 676
4820 1318
4820 1696
4820 2485
4820 2601
4820 3572
4820 10480
4821 290
4821 330
4821 365
4821 473
4821 867
4821 2881
4822 290
4822 424
4822 1075
4823 291
4824 291
4824 1471
4824 2690
4825 291
4825 1471
4825 2262
4825 3186
4825 12616
4826 291
4826 3246
4826 3831
4826 3832
4826 3833
4826 12618
4827 291
4827 2690
4828 291
4828 3833
4828 12549
4829 292
4830 292
4830 1651
4830 1905
4830 2185
4830 2626
4830 2751
4831 60
4831 292
4831 353
4831 1952
4832 292
4832 760
4833 292
4833 960
4833 1372
4833 1994
4833 2027
4834 292
4834 332
4834 361
4834 381
4834 751
4834 878
4834 1831
4834 2014
4835 293
4836 293
4836 303
4836 1972
4836 12619
4837 293
4837 1351
4837 2975
4838 293
4838 2245
4839 195
4839 293
4839 1969
4839 12620
4840 293
4840 359
4840 1944
4840 2452
4840 12621
4841 294
4841 597
4842 294
4843 193
4843 294
4843 984
4843 1066
4843 2546
4844 193
4844 294
4845 193
4845 294
4845 1066
4846 294
4846 1657
4846 1684
4846 2764
4847 193
4847 294
4847 1066
4847 2450
4847 2813
4847 3705
4848 295
4848 310
4848 364
4848 455
4848 902
4848 1541
4848 1759
4848 2069
4848 2128
4848 2129
4848 2799
4849 295
4849 310
4849 364
4849 449
4849 743
4849 902
4849 1541
4849 1759
4849 1956
4849 2069
4849 2128
4849 2129
4849 2799
4850 295
4850 310
4850 364
4850 449
4850 455
4850 902
4850 1541
4850 1699
4850 1759
4850 1956
4850 2128
4850 2463
4850 2624
4850 2799
4850 2800
4851 295
4852 187
4852 238
4852 296
4852 478
4852 2405
4853 296
4854 296
4854 376
4854 547
4854 681
4854 1805
4854 2468
4855 199
4855 296
4855 681
4855 1805
4855 2635
4856 296
4856 688
4856 829
4857 296
4857 460
4857 470
4857 568
4857 1185
4857 2067
4857 2345
4857 2955
4857 3020
4857 3021
4857 3022
4858 296
4858 497
4858 848
4858 1408
4859 297
4859 578
4859 830
4859 956
4859 970
4859 1121
4859 2215
4860 297
4861 297
4861 813
4861 2517
4861 2518
4861 2978
4862 297
4862 2123
4862 2575
4862 12545
4863 298
4863 3174
4864 298
4864 630
4864 1774
4864 2619
4865 298
4866 298
4866 466
4866 630
4866 659
4866 660
4866 751
4866 819
4866 1774
4866 2299
4866 2619
4866 3201
4866 3468
4867 298
4867 630
4867 659
4867 660
4867 751
4867 1774
4867 2299
4867 2619
4867 3174
4868 298
4868 1774
4868 2299
4869 299
4869 1495
4869 2469
4870 299
4871 299
4871 746
4872 300
4873 300
4873 336
4874 300
4874 662
4874 753
4874 950
4874 1534
4874 1803
4874 2539
4874 3158
4874 3159
4875 300
4875 1469
4875 2294
4876 301
4877 301
4877 357
4877 439
4877 795
4877 966
4877 1011
4877 1352
4878 301
4878 1294
4878 1589
4879 301
4879 841
4880 301
4880 360
4880 859
4880 1517
4880 1730
4880 1745
4880 2725
4880 3258
4880 3712
4881 301
4881 334
4881 378
4881 453
4881 968
4881 1832
4882 301
4882 327
4882 357
4882 379
4882 410
4882 439
4882 453
4882 795
4882 966
4882 1011
4883 302
4883 3424
4884 302
4885 208
4885 302
4885 1660
4886 302
4886 707
4886 1102
4886 2333
4886 2399
4886 3292
4886 3690
4886 4005
4887 303
4888 303
4888 577
4888 2023
4889 303
4889 6218
4890 304
4891 119
4891 304
4891 391
4892 304
4892 807
4892 2557
4892 2697
4892 12622
4893 304
4893 12623
4894 305
4895 305
4895 342
4895 1878
4896 305
4896 348
4897 305
4897 390
4897 1564
4897 1818
4897 2695
4898 306
4899 306
4899 3360
4899 12624
4900 305
4900 306
4901 72
4901 307
4901 352
4901 1937
4902 123
4902 307
4903 307
4904 307
4904 1177
4905 72
4905 307
4906 307
4906 446
4906 1134
4906 2036
4906 2610
4906 2683
4906 2928
4907 307
4907 1490
4907 1722
4908 78
4908 307
4909 72
4909 307
4909 1409
4910 307
4910 1622
4910 1885
4910 2382
4911 286
4911 307
4911 2267
4911 2714
4912 308
4913 308
4913 768
4913 1096
4914 308
4914 4540
4915 308
4915 980
4915 1065
4915 1096
4916 308
4916 788
4916 981
4916 993
4916 2595
4916 2743
4917 243
4917 308
4917 686
4917 2062
4918 308
4918 981
4918 2416
4918 2595
4918 2617
4919 244
4919 308
4920 308
4920 2062
4920 4480
4921 88
4921 308
4921 1540
4922 60
4922 309
4922 337
4922 344
4922 777
4922 1139
4922 1879
4922 2805
4922 2958
4923 309
4924 44
4924 309
4924 436
4924 2248
4924 2327
4925 309
4925 337
4925 469
4925 547
4925 759
4925 938
4925 1354
4925 1609
4925 1619
4925 1641
4925 2147
4925 2248
4925 2302
4925 2637
4925 2849
4925 3196
4926 310
4926 455
4926 2129
4926 2209
4926 2799
4926 2800
4927 310
4928 310
4928 449
4928 455
4928 674
4928 716
4928 1541
4928 1759
4928 1956
4928 1957
4928 2128
4928 2388
4928 2463
4928 2799
4929 307
4929 310
4929 455
4929 466
4929 1541
4929 2173
4929 3000
4930 310
4930 455
4930 2128
4931 165
4931 311
4931 1708
4931 2030
4932 311
4932 1751
4932 2257
4932 2309
4932 2478
4933 311
4933 2018
4933 2133
4934 311
4934 1479
4935 311
4936 194
4936 311
4936 384
4936 492
4936 754
4936 2542
4937 311
4937 2309
4937 2478
4937 2852
4938 312
4939 312
4939 2865
4939 3945
4940 312
4940 1766
4940 2239
4940 2569
4941 312
4941 663
4941 732
4941 1058
4941 1288
4941 1491
4941 1766
4941 1800
4941 2418
4941 3028
4942 312
4942 680
4942 849
4942 2923
4942 3028
4943 312
4943 849
4943 888
4943 1217
4943 1315
4943 1649
4943 2298
4943 2772
4943 3028
4944 313
4945 313
4945 491
4945 2536
4945 2537
4945 2549
4945 3081
4945 3082
4945 6204
4946 47
4946 313
4946 398
4946 764
4946 1041
4946 2766
4946 2963
4947 313
4947 1564
4947 2638
4948 78
4948 313
4949 313
4949 1387
4950 314
4951 314
4951 1562
4951 1834
4952 314
4952 322
4952 337
4952 570
4952 683
4952 834
4952 1163
4952 1171
4952 1319
4952 1503
4952 1707
4952 1797
4952 1834
4952 1855
4952 1961
4952 2622
4952 2804
4952 2849
4952 2957
4953 314
4953 817
4953 1167
4953 1570
4953 1798
4954 314
4954 475
4955 75
4955 314
4955 324
4955 460
4955 689
4955 1667
4955 1951
4956 314
4956 323
4956 463
4956 1855
4956 1894
4956 2102
4956 2349
4957 76
4957 314
4957 363
4957 1615
4957 1786
4957 1839
4957 1865
4957 2087
4957 2808
4958 314
4958 474
4958 527
4958 987
4958 1119
4958 1171
4958 1356
4958 1562
4958 1741
4958 1855
4958 1894
4958 2272
4958 2349
4958 2358
4958 2377
4958 3106
4959 315
4959 466
4959 894
4960 315
4960 1944
4960 2242
4960 2243
4961 315
4961 1339
4961 1699
4961 2199
4961 2242
4962 315
4963 315
4963 578
4963 1699
4963 2215
4963 2517
4963 2824
4964 315
4964 2521
4965 315
4965 327
4965 378
4965 416
4965 443
4965 453
4965 473
4965 891
4965 1075
4965 1477
4966 316
4966 654
4966 1915
4966 2465
4966 2466
4967 316
4968 316
4968 378
4968 2078
4969 316
4969 2078
4970 317
4971 317
4971 1667
4971 3141
4971 4280
4972 317
4972 1358
4973 318
4974 318
4974 672
4974 1199
4974 1636
4975 318
4975 8937
4976 243
4976 318
4977 318
4977 1158
4977 1563
4977 2440
4977 2568
4978 318
4978 431
4978 1715
4979 318
4979 672
4979 1636
4979 2531
4979 2810
4979 2901
4980 319
4981 319
4981 3234
4982 319
4982 2088
4982 2206
4982 2987
4983 319
4983 2987
4983 3234
4984 320
4985 320
4985 1856
4986 320
4986 1856
4986 1857
4986 2362
4987 320
4987 1856
4987 1883
4988 321
4988 774
4988 929
4988 2189
4988 2804
4988 2805
4989 321
4990 60
4990 321
4990 564
4990 603
4990 1139
4990 1562
4990 2143
4990 2469
4990 3005
4991 322
4992 322
4992 343
4992 383
4992 474
4992 684
4992 908
4992 1119
4992 1120
4992 1174
4993 322
4993 471
4993 1700
4993 2147
4994 322
4994 1251
4994 2939
4995 323
4995 731
4996 323
4997 323
4997 474
4997 2358
4997 2951
4997 3067
4997 3069
4997 3070
4997 3173
4998 323
4998 1488
4998 1569
4998 1901
4998 2645
4998 2939
4999 323
4999 1403
4999 1472
5000 94
5000 324
5000 1508
5001 324
5001 3022
5002 324
5002 363
5002 388
5002 1241
5002 1550
5002 2811
5003 324
5004 324
5004 363
5004 380
5004 1550
5004 1566
5004 10218
5005 324
5005 452
5005 652
5005 817
5005 2273
5006 324
5006 388
5006 1159
5006 1346
5006 1634
5006 1854
5006 1951
5006 2191
5006 2523
5006 2823
5007 325
5008 325
5008 418
5008 467
5008 497
5008 1172
5008 2550
5009 325
5009 415
5009 477
5009 803
5009 1105
5009 1285
5009 1390
5009 2970
5010 92
5010 325
5010 1172
5010 1285
5011 325
5011 2345
5011 2456
5011 2457
5011 3388
5012 325
5012 1172
5012 1841
5013 325
5013 415
5013 803
5013 985
5013 1771
5013 2969
5013 2970
5014 325
5014 858
5015 288
5015 326
5015 663
5015 936
5015 977
5015 2217
5015 2910
5016 326
5016 1335
5016 1913
5017 326
5017 1062
5017 1981
5017 2587
5018 326
5018 849
5018 888
5018 1058
5018 1288
5018 1290
5018 1331
5018 1491
5019 326
5019 2910
5020 326
5020 936
5020 977
5020 2061
5020 2217
5021 326
5022 326
5022 341
5022 435
5022 1290
5022 1424
5022 1927
5022 2818
5023 327
5023 379
5023 428
5023 453
5023 464
5023 611
5023 795
5023 1710
5023 1832
5023 2782
5024 327
5024 424
5024 947
5024 1745
5024 2429
5025 327
5025 1807
5025 2222
5025 2379
5026 327
5027 327
5027 1536
5028 247
5028 327
5029 247
5029 327
5029 1807
5029 2048
5029 2379
5030 327
5030 410
5030 2196
5030 2222
5030 2814
5030 2829
5030 7246
5030 9358
5030 11167
5031 247
5031 327
5031 714
5031 3362
5032 247
5032 327
5032 420
5033 327
5033 1730
5033 2097
5033 2725
5033 2857
5033 3091
5034 327
5034 357
5034 379
5034 410
5034 439
5034 453
5034 795
5034 966
5034 1352
5035 328
5036 328
5036 1701
5036 1935
5036 2173
5037 328
5037 1378
5037 1662
5038 328
5038 957
5039 150
5039 328
5039 361
5039 957
5040 329
5041 329
5041 847
5041 2961
5041 3546
5042 329
5042 1368
5043 74
5043 329
5043 358
5043 438
5043 838
5043 1883
5043 2940
5044 329
5044 700
5044 847
5044 1368
5044 1550
5045 329
5045 1550
5045 2961
5045 3546
5045 12625
5046 329
5046 568
5046 816
5047 91
5047 329
5047 816
5048 74
5048 329
5049 330
5050 330
5050 1287
5050 2332
5051 330
5051 1039
5051 1287
5051 1806
5051 2013
5051 2154
5051 3332
5051 12627
5052 330
5052 3224
5053 330
5053 783
5053 837
5053 1866
5053 1868
5053 2987
5053 2988
5054 330
5054 638
5054 1931
5054 2332
5054 3707
5054 8194
5055 331
5055 846
5055 909
5055 1725
5055 2378
5056 331
5056 846
5056 909
5056 2378
5056 2771
5056 3111
5057 331
5057 1519
5057 1579
5058 331
5058 386
5058 442
5058 467
5058 472
5058 497
5058 877
5058 942
5058 1067
5058 1390
5058 1408
5058 1653
5058 2105
5058 2970
5058 3210
5058 3251
5059 60
5059 331
5059 639
5059 846
5059 909
5059 1522
5059 1725
5059 1812
5059 2372
5060 331
5060 738
5060 1142
5060 1575
5060 1601
5060 1831
5060 2083
5060 3051
5061 55
5061 331
5061 374
5061 459
5061 2013
5061 2859
5062 331
5063 332
5063 375
5063 870
5063 1423
5063 1698
5064 332
5064 1725
5064 1909
5064 2069
5065 332
5065 3017
5066 55
5066 332
5066 374
5066 466
5066 1157
5066 2013
5067 332
5068 332
5068 876
5068 1454
5069 287
5069 332
5069 526
5069 528
5069 730
5069 870
5069 1157
5069 2388
5069 2806
5069 2999
5069 3235
5070 331
5070 332
5070 381
5070 548
5070 3008
5071 267
5071 332
5071 1220
5072 332
5072 339
5072 439
5072 1568
5072 1759
5072 1829
5072 2661
5072 2735
5072 2834
5072 3016
5072 3268
5072 3269
5072 3270
5073 332
5073 374
5073 1157
5073 2013
5073 2209
5073 3122
5074 333
5075 68
5075 333
5075 452
5075 751
5075 858
5075 1161
5076 333
5076 457
5076 481
5076 975
5076 1161
5076 2797
5077 333
5077 2275
5077 2283
5078 333
5078 2866
5079 60
5079 333
5079 1184
5079 1813
5079 2283
5080 333
5080 1184
5080 2205
5080 2352
5081 333
5081 623
5081 655
5081 681
5081 949
5081 1161
5081 1224
5081 1742
5081 2168
5081 2678
5082 333
5082 2208
5082 2487
5082 2635
5082 2834
5083 334
5083 1260
5083 1588
5083 2410
5083 3176
5084 334
5085 327
5085 334
5086 334
5086 1260
5086 1588
5086 3175
5087 334
5087 1203
5087 1718
5087 2107
5087 2108
5087 2410
5087 2992
5088 334
5088 2347
5089 334
5089 1260
5089 1718
5090 334
5090 410
5090 1718
5090 2107
5090 2108
5090 2803
5091 334
5091 900
5091 1260
5091 1588
5091 2107
5091 2410
5091 2609
5091 2835
5091 2992
5091 3175
5092 66
5092 279
5092 334
5092 424
5093 334
5093 429
5093 12628
5094 334
5094 900
5094 1203
5094 1718
5094 2107
5094 2108
5094 2410
5094 2992
5095 170
5095 334
5095 379
5095 2545
5095 2574
5096 335
5096 3029
5097 335
5097 1976
5097 2376
5097 3029
5098 335
5098 2507
5098 2647
5099 335
5099 591
5099 872
5099 1214
5099 1496
5099 2163
5099 3041
5099 3042
5100 335
5101 76
5101 335
5101 591
5101 961
5101 2759
5102 282
5102 335
5102 456
5102 779
5102 1976
5102 1979
5102 3029
5102 3054
5103 76
5103 335
5103 591
5103 2350
5104 335
5104 756
5104 1131
5104 1569
5104 2658
5105 336
5105 407
5105 801
5105 1534
5105 1675
5105 2643
5106 336
5106 346
5106 444
5106 479
5106 658
5106 753
5106 1130
5106 1248
5106 1373
5106 1534
5106 1535
5106 1661
5106 1675
5106 2488
5106 2616
5107 336
5107 1535
5107 1675
5108 336
5108 444
5108 588
5108 950
5108 1534
5108 2109
5108 2245
5108 2583
5108 3142
5109 336
5109 444
5109 753
5109 1535
5109 1675
5110 289
5110 336
5110 444
5110 950
5110 1050
5110 1141
5110 1248
5110 1675
5110 2009
5110 2306
5111 336
5111 1675
5112 336
5112 407
5112 444
5112 1373
5113 336
5113 801
5113 945
5113 1248
5113 1535
5113 1675
5113 2616
5114 336
5115 336
5115 710
5115 745
5115 927
5115 965
5115 1100
5115 1471
5115 3094
5115 8412
5116 337
5116 462
5116 469
5116 1879
5116 2637
5116 2849
5116 2925
5117 337
5118 337
5118 441
5118 1879
5118 2147
5119 337
5119 363
5119 1503
5120 337
5120 1233
5120 1251
5120 1476
5120 2190
5120 2428
5120 2554
5120 3197
5120 3202
5120 3203
5121 337
5121 1503
5122 337
5122 874
5122 1031
5122 1167
5122 2112
5122 2843
5123 338
5123 2963
5124 139
5124 338
5124 403
5124 1809
5124 1838
5124 1862
5124 2344
5125 338
5126 338
5126 1522
5126 1838
5127 338
5127 423
5127 427
5127 464
5127 592
5128 76
5128 338
5128 448
5129 76
5129 338
5129 339
5129 1123
5129 1838
5129 2638
5130 338
5130 1838
5130 12556
5131 338
5131 379
5131 1072
5131 2850
5131 2864
5131 2880
5132 290
5132 339
5133 339
5133 1041
5133 1756
5133 2220
5134 339
5134 1041
5135 339
5136 338
5136 339
5136 3163
5137 139
5137 339
5137 403
5137 409
5137 1214
5137 1386
5137 2897
5138 338
5138 339
5138 1461
5138 2671
5138 3163
5139 339
5139 1419
5139 1591
5140 340
5141 340
5141 2720
5142 340
5142 408
5142 436
5142 472
5142 1506
5142 2745
5143 188
5143 340
5144 340
5144 2171
5144 2192
5145 340
5145 737
5145 1142
5145 1656
5145 2082
5146 54
5146 340
5147 246
5147 340
5147 467
5147 2839
5147 2930
5147 6878
5148 340
5148 452
5148 737
5148 2621
5149 341
5150 326
5150 341
5150 368
5150 591
5150 1129
5150 1314
5150 1571
5150 2570
5151 341
5151 741
5151 1121
5151 1335
5151 1978
5151 2243
5151 2789
5152 326
5152 341
5152 1571
5152 2164
5153 341
5153 451
5153 757
5153 842
5153 1086
5153 1571
5153 1581
5153 1643
5153 3010
5153 3193
5154 341
5154 3306
5155 341
5155 697
5155 2077
5155 2570
5155 2801
5155 2802
5156 341
5156 1344
5156 2164
5157 341
5157 1288
5157 1765
5157 2055
5157 2298
5157 2802
5157 3065
5157 3107
5158 341
5158 1411
5158 2365
5158 2863
5159 342
5159 1182
5159 1280
5160 342
5161 342
5161 384
5161 1866
5161 2442
5161 2451
5162 342
5162 1182
5163 334
5163 342
5163 1182
5164 342
5164 12629
5165 78
5165 342
5165 558
5165 1075
5165 1710
5165 2480
5165 3085
5165 3086
5166 71
5166 342
5166 1147
5167 343
5168 343
5168 1470
5169 343
5169 586
5169 821
5169 1013
5169 1673
5169 2253
5169 2685
5169 2759
5169 2973
5170 343
5170 1805
5170 2970
5170 3505
5171 343
5171 1607
5171 1673
5171 2685
5172 344
5172 1364
5172 1393
5173 344
5173 408
5173 737
5173 1506
5173 2745
5174 325
5174 344
5174 477
5174 963
5174 1112
5175 344
5175 834
5175 2046
5175 2383
5176 340
5176 344
5176 737
5176 2620
5176 2621
5177 344
5177 963
5178 344
5179 68
5179 344
5179 2934
5180 345
5181 345
5181 1291
5181 2341
5182 77
5182 345
5182 1773
5182 1996
5182 2420
5183 345
5183 522
5184 77
5184 345
5184 1996
5185 62
5185 345
5185 522
5186 345
5186 353
5186 681
5186 1109
5186 1161
5186 1393
5186 1550
5186 2192
5186 2345
5186 2797
5186 3234
5187 345
5187 655
5187 2185
5187 2813
5188 346
5188 1130
5188 1248
5189 346
5190 346
5190 397
5190 594
5190 602
5190 1087
5190 1248
5190 1331
5190 2126
5190 2757
5190 2918
5190 3246
5190 3247
5191 346
5191 2306
5192 346
5192 397
5192 1724
5192 2126
5192 2918
5193 346
5193 1597
5193 1670
5193 2218
5194 346
5194 535
5195 268
5195 346
5195 640
5196 312
5196 346
5196 1141
5196 2569
5197 346
5197 493
5197 542
5197 550
5197 648
5197 778
5197 1542
5197 1583
5197 1669
5197 2634
5197 3240
5198 347
5199 347
5199 538
5199 2955
5200 347
5200 406
5200 468
5200 2105
5201 347
5201 2550
5202 76
5202 347
5202 406
5203 347
5203 738
5203 1427
5203 2088
5203 2867
5203 2871
5203 2930
5204 347
5204 405
5204 1136
5204 1357
5204 1445
5204 2402
5204 2455
5204 2853
5205 347
5205 1357
5205 1445
5205 1447
5205 1785
5205 1874
5206 348
5206 1039
5207 348
5208 348
5208 558
5208 2241
5208 3492
5209 65
5209 348
5209 558
5210 65
5210 348
5211 348
5211 365
5211 2881
5212 282
5212 348
5212 378
5212 416
5212 443
5213 349
5213 890
5214 349
5214 411
5214 472
5214 1316
5214 1858
5214 1979
5215 44
5215 349
5215 1488
5215 2579
5215 3425
5216 349
5216 603
5216 1651
5217 349
5217 586
5217 2057
5217 2248
5218 314
5218 349
5218 475
5218 1136
5218 1886
5219 192
5219 349
5219 411
5219 1146
5219 1372
5219 1496
5219 1497
5219 1905
5219 2143
5219 2248
5219 2352
5220 349
5221 350
5221 804
5221 822
5221 1054
5221 1674
5221 1799
5221 2927
5222 350
5223 76
5223 350
5223 530
5223 2402
5223 2424
5223 2560
5223 2760
5223 2798
5224 350
5224 411
5224 564
5224 668
5224 804
5224 1642
5224 1674
5224 2150
5224 2151
5224 2540
5224 2817
5224 3005
5224 3236
5225 350
5225 740
5225 872
5225 1146
5225 1162
5225 1169
5225 1191
5225 1790
5225 1858
5225 2143
5225 2151
5225 2685
5225 2911
5225 3236
5225 3294
5226 281
5226 351
5227 351
5227 354
5227 391
5227 1074
5227 1181
5227 1934
5227 2515
5227 3040
5228 95
5228 351
5228 857
5228 871
5228 1362
5228 2755
5229 351
5229 465
5229 3598
5229 10346
5230 351
5231 351
5231 1181
5231 1676
5232 351
5232 517
5232 1074
5232 1397
5232 3172
5233 55
5233 351
5233 985
5233 1461
5233 1870
5233 2831
5234 267
5234 351
5234 1007
5235 351
5235 1564
5235 1574
5235 1649
5235 1818
5235 1870
5235 2188
5236 352
5236 1147
5236 1727
5236 1804
5237 352
5238 78
5238 352
5239 352
5239 947
5240 297
5240 352
5240 378
5240 3075
5241 352
5241 2472
5241 3136
5242 116
5242 272
5242 352
5242 2657
5242 2796
5243 352
5243 566
5243 1875
5243 2675
5243 2693
5244 353
5245 77
5245 353
5246 353
5246 949
5246 2168
5246 2207
5247 353
5247 10232
5248 353
5248 1109
5248 3234
5249 353
5249 2420
5250 354
5250 494
5250 1912
5251 354
5252 354
5252 2131
5252 4382
5252 5254
5253 354
5253 2131
5254 354
5254 2701
5254 5252
5254 9991
5255 201
5255 354
5255 1468
5256 201
5256 354
5256 1468
5256 2131
5257 354
5257 494
5257 529
5257 1329
5257 1468
5257 1486
5257 1728
5257 2019
5257 2131
5257 3119
5258 355
5258 978
5258 998
5258 1543
5259 355
5260 355
5260 2398
5261 355
5261 2398
5261 2427
5262 355
5262 868
5262 869
5262 1435
5262 2398
5263 356
5264 356
5264 1126
5265 175
5265 356
5265 464
5265 557
5265 879
5265 883
5265 1074
5265 2990
5266 356
5266 1126
5266 1518
5266 1853
5267 334
5267 356
5267 424
5268 281
5268 356
5268 464
5269 356
5269 424
5269 425
5270 281
5270 356
5270 879
5270 1969
5271 260
5271 356
5271 424
5272 357
5273 357
5273 1126
5274 357
5274 1011
5274 1352
5274 1738
5275 357
5275 1011
5275 1352
5276 357
5276 387
5276 453
5276 795
5276 966
5276 1012
5276 2078
5277 357
5277 387
5277 1011
5277 1352
5277 1738
5278 358
5279 74
5279 358
5280 74
5280 358
5280 1732
5281 358
5281 9113
5281 10358
5281 10911
5281 11252
5281 11325
5281 12630
5282 358
5282 989
5283 74
5283 358
5283 989
5283 1732
5283 1883
5283 2236
5284 359
5284 1769
5284 1944
5284 2452
5284 2982
5285 359
5286 359
5286 2382
5287 359
5287 390
5287 1955
5287 2165
5287 12631
5288 293
5288 359
5289 220
5289 359
5289 1164
5289 2165
5290 78
5290 359
5290 3358
5290 4785
5291 78
5291 359
5291 1192
5291 2382
5291 2667
5292 359
5292 487
5292 786
5292 2032
5293 282
5293 360
5293 414
5293 473
5293 729
5293 794
5293 1075
5293 3039
5294 360
5294 2890
5295 280
5295 360
5295 425
5295 443
5295 450
5295 473
5295 1585
5295 2436
5296 280
5296 360
5296 443
5296 450
5296 473
5296 1585
5296 2436
5297 360
5298 360
5298 1052
5298 2762
5298 2763
5298 2764
5298 2765
5299 330
5299 360
5299 2332
5300 170
5300 360
5300 1479
5301 360
5301 439
5301 1477
5302 360
5302 378
5302 520
5302 654
5302 707
5302 1401
5302 1424
5302 2435
5302 2575
5302 3080
5303 334
5303 360
5303 453
5303 511
5303 795
5303 995
5303 1589
5304 360
5304 1052
5304 2078
5304 2429
5305 297
5305 360
5305 1517
5305 2347
5306 360
5306 12628
5307 301
5307 360
5307 2347
5308 360
5308 414
5308 425
5308 443
5308 450
5308 1876
5308 2436
5308 2636
5309 360
5309 403
5309 414
5309 425
5309 443
5309 450
5309 473
5310 334
5310 342
5310 360
5311 361
5312 361
5312 1820
5312 2120
5312 2624
5313 361
5313 3334
5314 361
5314 1612
5314 1689
5315 47
5315 361
5315 381
5315 2012
5315 2220
5316 361
5316 362
5316 1030
5316 1784
5316 1900
5316 2994
5316 3418
5317 246
5317 361
5317 457
5317 2205
5318 361
5318 1244
5318 1808
5318 3168
5318 6925
5319 362
5320 363
5320 2437
5320 2449
5321 363
5321 2591
5322 363
5322 452
5322 547
5322 2168
5323 363
5324 329
5324 363
5324 700
5324 847
5324 2586
5325 329
5325 363
5325 1368
5326 363
5326 874
5326 1241
5326 1566
5326 9115
5327 364
5328 310
5328 364
5328 455
5328 902
5328 1541
5328 2128
5329 364
5329 455
5329 880
5329 2128
5329 2463
5330 364
5330 481
5331 364
5331 455
5331 1873
5332 364
5332 455
5332 674
5332 880
5332 2128
5332 2463
5333 282
5333 365
5333 403
5333 891
5334 65
5334 195
5334 282
5334 360
5334 365
5334 378
5334 416
5334 443
5334 729
5334 1075
5334 1477
5334 1748
5334 1978
5335 365
5336 280
5336 365
5336 425
5336 473
5336 886
5336 1585
5336 2461
5337 365
5337 425
5337 443
5337 473
5337 729
5337 1876
5338 78
5338 365
5338 974
5338 2142
5339 365
5339 2662
5339 2881
5340 365
5340 2146
5340 2246
5341 365
5341 3193
5342 365
5342 1553
5342 1789
5342 2124
5342 3048
5343 366
5344 366
5344 1526
5344 2405
5345 366
5345 1681
5346 366
5346 461
5346 822
5346 1146
5346 1319
5346 1681
5346 2351
5346 2760
5346 2817
5347 366
5347 591
5347 686
5347 1353
5347 2489
5347 2826
5348 192
5348 366
5348 536
5348 1353
5349 75
5349 366
5349 1561
5350 76
5350 366
5350 471
5350 1169
5350 1476
5350 1674
5351 367
5351 427
5351 902
5351 12632
5352 367
5352 636
5352 1334
5352 1572
5352 2891
5352 2917
5352 3137
5353 367
5354 367
5354 1462
5355 367
5355 554
5355 882
5355 1365
5355 2093
5355 2289
5355 2963
5355 3136
5355 3137
5356 367
5356 1279
5356 1301
5357 108
5357 367
5358 367
5358 554
5358 870
5358 882
5358 1437
5359 367
5359 2917
5359 12557
5360 286
5360 367
5360 2131
5361 354
5361 367
5361 1605
5362 368
5363 368
5363 947
5363 1129
5364 368
5364 624
5364 1277
5364 1516
5364 2588
5365 368
5365 1816
5365 6407
5365 12633
5366 368
5366 3293
5367 225
5367 368
5367 2492
5367 2587
5367 2649
5368 368
5368 516
5368 591
5368 842
5368 1129
5368 2587
5369 231
5369 369
5369 2041
5370 369
5370 1692
5370 1895
5371 369
5372 369
5372 2366
5373 369
5373 915
5373 1969
5373 2133
5374 369
5374 431
5374 541
5374 881
5374 1211
5374 1328
5374 1442
5374 1513
5374 1801
5374 1974
5374 2210
5375 369
5375 431
5375 532
5375 1158
5375 1438
5375 1672
5375 2090
5376 369
5376 532
5376 1451
5376 1582
5376 1620
5376 2090
5377 369
5377 1338
5377 12634
5378 370
5379 370
5379 964
5379 1711
5380 370
5380 1711
5381 8938
5382 373
5382 748
5382 7322
5382 7413
5382 10657
5383 7399
5383 8938
5383 12635
5384 371
5384 508
5384 744
5384 2968
5384 4235
5384 9722
5385 371
5385 582
5385 12578
5386 372
5386 11389
5386 11777
5386 12636
5387 11344
5388 12156
5389 374
5389 894
5389 1362
5389 1812
5389 2206
5389 2224
5389 2624
5389 2831
5389 3162
5390 332
5390 374
5390 2013
5390 2014
5391 374
5391 1760
5391 2831
5392 374
5392 1301
5393 374
5393 1487
5393 1760
5393 1784
5393 2644
5394 374
5394 466
5394 1487
5394 1760
5394 1784
5394 2388
5394 2644
5395 374
5396 332
5396 374
5396 895
5397 375
5397 495
5397 526
5397 730
5397 870
5397 873
5397 1831
5397 3051
5398 375
5398 1070
5399 375
5400 376
5401 376
5401 702
5402 376
5402 848
5402 975
5402 1161
5402 1531
5402 1805
5402 2635
5403 188
5403 376
5404 376
5404 452
5404 681
5404 1656
5404 2175
5404 2635
5405 376
5405 1345
5405 1346
5405 2235
5406 199
5406 376
5406 985
5406 1900
5406 3234
5407 333
5407 376
5407 452
5407 949
5407 2168
5407 2834
5408 296
5408 376
5408 528
5409 377
5410 377
5410 5413
5411 377
5411 2897
5411 10296
5412 377
5412 1279
5412 1882
5413 377
5413 5410
5413 6948
5413 12637
5414 377
5414 1279
5414 2670
5414 3341
5415 377
5415 434
5415 633
5415 1279
5415 1365
5415 2670
5416 377
5416 2015
5416 2670
5416 2981
5416 8678
5417 195
5417 377
5417 1218
5417 2515
5418 378
5419 378
5419 2097
5420 360
5420 378
5420 2347
5421 378
5421 410
5421 795
5422 357
5422 378
5422 416
5423 378
5423 416
5423 638
5423 933
5423 1730
5424 378
5424 379
5424 382
5424 439
5424 611
5424 966
5424 1832
5425 378
5425 654
5425 956
5425 2326
5426 65
5426 378
5426 403
5427 334
5427 379
5427 968
5427 1113
5427 1477
5428 247
5428 379
5428 410
5428 439
5428 611
5428 966
5428 1477
5428 1589
5428 1832
5428 2214
5429 379
5430 379
5430 611
5430 966
5430 1126
5430 1352
5430 1477
5430 1832
5430 2156
5430 2214
5431 379
5431 1352
5431 1738
5432 379
5432 1352
5433 379
5433 428
5433 453
5433 571
5433 611
5433 995
5433 1113
5433 1282
5433 1477
5433 1589
5434 334
5434 379
5435 66
5435 379
5435 557
5435 1102
5436 65
5436 379
5437 379
5437 424
5437 571
5437 1160
5437 1518
5438 281
5438 379
5438 423
5438 554
5438 1518
5438 1853
5438 2282
5438 2913
5439 363
5439 380
5439 1607
5440 380
5440 2710
5441 380
5442 248
5442 380
5442 1114
5443 380
5443 556
5443 1839
5443 2808
5444 380
5444 467
5444 833
5444 835
5444 874
5444 875
5444 1136
5444 1447
5444 1667
5444 1785
5444 3233
5445 363
5445 380
5445 388
5445 645
5446 380
5446 953
5446 1938
5446 2132
5446 2330
5447 381
5447 2308
5448 381
5449 55
5449 381
5449 1459
5450 160
5450 381
5450 1575
5451 331
5451 381
5451 466
5451 1258
5451 1701
5452 381
5452 619
5452 1258
5452 1907
5452 2028
5452 2786
5453 381
5453 1258
5453 1701
5454 381
5454 701
5454 2308
5454 3289
5455 332
5455 381
5455 876
5455 2033
5456 381
5456 528
5456 870
5456 1157
5456 1402
5456 1575
5456 1831
5456 2144
5456 2308
5456 2373
5456 2838
5456 2999
5456 3264
5457 381
5457 434
5457 1022
5457 1279
5457 1510
5457 2463
5457 12638
5458 352
5458 381
5458 919
5458 2600
5458 2769
5459 361
5459 381
5459 427
5459 1985
5460 382
5460 3153
5461 382
5462 382
5462 1239
5462 1694
5462 6650
5462 8562
5462 9255
5463 382
5463 2571
5463 2597
5463 6650
5464 382
5464 976
5464 1035
5464 2707
5464 2708
5465 382
5465 1757
5465 2547
5466 205
5466 382
5467 96
5467 382
5468 382
5468 3105
5468 10424
5469 383
5470 383
5470 1840
5470 2189
5471 34
5471 383
5471 1171
5471 1233
5471 1962
5471 2189
5472 383
5472 537
5473 194
5473 240
5473 384
5474 384
5474 1617
5474 1861
5475 384
5476 194
5476 384
5476 1617
5477 194
5477 384
5477 1617
5477 1756
5477 1989
5477 2770
5478 374
5478 385
5478 427
5478 466
5478 1301
5478 2338
5478 3111
5478 3122
5478 3123
5479 385
5479 455
5479 2796
5479 2924
5480 385
5480 712
5480 2589
5480 2590
5480 2977
5481 385
5482 55
5482 385
5482 2567
5483 55
5483 385
5483 1699
5483 2224
5484 385
5484 3123
5485 386
5486 44
5486 386
5486 462
5486 740
5486 1159
5486 1859
5486 2324
5487 386
5487 903
5488 386
5488 1254
5488 1412
5489 357
5489 387
5490 365
5490 387
5490 403
5490 443
5490 473
5490 729
5491 387
5492 387
5492 410
5492 859
5493 387
5493 2476
5494 387
5494 403
5494 443
5494 473
5494 2662
5495 388
5495 1762
5496 388
5496 942
5496 1987
5496 2102
5497 388
5498 185
5498 388
5498 1533
5498 2540
5499 121
5499 388
5499 2044
5500 380
5500 388
5500 645
5500 2087
5501 389
5501 3296
5501 6419
5502 389
5502 2386
5503 78
5503 389
5503 2386
5504 389
5505 389
5505 465
5505 951
5505 1314
5505 2216
5505 2291
5505 2292
5505 3083
5506 390
5507 379
5507 390
5507 429
5508 336
5508 390
5508 1553
5509 390
5509 830
5509 1257
5509 1851
5509 2573
5510 390
5510 1818
5510 2387
5511 390
5511 428
5511 891
5511 12631
5512 390
5512 1622
5513 391
5513 1340
5513 3131
5514 391
5514 2135
5514 9160
5514 9200
5515 391
5515 865
5516 391
5517 179
5517 391
5517 667
5517 1148
5517 1339
5517 1997
5517 2297
5518 391
5518 517
5518 1244
5518 2172
5518 2825
5518 2891
5519 392
5519 1161
5520 246
5520 392
5520 953
5520 1926
5521 392
5522 392
5522 426
5522 853
5522 2285
5523 325
5523 344
5523 392
5523 1161
5523 2499
5524 193
5524 392
5524 1103
5524 1152
5524 1986
5524 2774
5524 12639
5525 392
5525 404
5525 1079
5526 393
5527 393
5527 1686
5527 6631
5527 12640
5528 393
5528 1686
5529 244
5529 308
5529 393
5529 2062
5530 393
5530 686
5530 965
5531 244
5531 393
5532 393
5532 444
5532 2009
5532 2109
5533 394
5534 167
5534 394
5535 394
5535 1639
5536 394
5536 1639
5536 10990
5537 394
5537 949
5537 1639
5537 1752
5537 12641
5538 395
5538 737
5538 1593
5538 3548
5539 395
5540 396
5541 47
5541 396
5542 396
5542 3470
5543 397
5543 3158
5544 397
5544 1942
5544 2225
5544 2411
5545 397
5545 2225
5545 7774
5545 10085
5545 10086
5545 12642
5546 397
5547 397
5547 2918
5547 3199
5548 398
5548 2718
5548 5553
5549 398
5550 398
5550 1857
5551 313
5551 398
5551 1567
5552 398
5552 551
5552 1644
5552 2353
5553 398
5553 1296
5553 1823
5553 2582
5553 5548
5553 8443
5554 398
5554 1158
5554 1438
5554 2462
5554 2506
5555 399
5556 399
5556 1373
5557 399
5557 569
5557 594
5557 753
5557 1259
5557 1535
5557 2643
5558 399
5558 531
5558 692
5558 1107
5559 399
5559 1661
5559 1705
5560 400
5561 400
5561 2869
5562 400
5562 402
5562 916
5562 1940
5562 2117
5562 2126
5562 2918
5562 3026
5562 3027
5562 3199
5563 400
5563 664
5563 979
5563 1563
5563 2712
5563 2713
5564 400
5564 1130
5564 1434
5564 2370
5565 401
5565 1542
5565 2325
5566 401
5566 1871
5567 401
5568 402
5569 402
5569 745
5570 402
5570 1917
5570 2244
5570 3220
5571 402
5571 2852
5571 6552
5572 402
5572 1248
5572 1940
5572 2117
5572 2287
5572 3026
5572 3027
5573 403
5574 282
5574 403
5574 443
5574 729
5574 794
5575 403
5575 2485
5576 72
5576 403
5576 473
5576 3039
5577 403
5577 890
5577 2163
5578 403
5578 425
5578 443
5578 450
5578 473
5578 2436
5578 2461
5579 282
5579 403
5579 1748
5579 2163
5580 403
5580 2315
5580 2354
5580 2816
5581 338
5581 403
5582 403
5582 414
5582 449
5582 620
5582 974
5582 1075
5582 1385
5582 1514
5582 3039
5583 280
5583 403
5583 886
5583 2436
5583 2461
5583 2828
5584 403
5584 443
5584 450
5584 473
5584 974
5584 1037
5584 1075
5584 1514
5585 365
5585 403
5585 620
5585 837
5585 2881
5585 2882
5586 403
5586 473
5586 886
5586 1037
5586 2461
5587 403
5587 443
5587 450
5587 473
5587 1585
5587 2904
5588 404
5588 470
5588 2860
5588 8916
5589 404
5589 1502
5589 6417
5590 404
5590 2065
5590 2067
5590 2068
5591 39
5591 404
5591 556
5591 2456
5592 404
5593 404
5593 1500
5593 1826
5593 2635
5593 2694
5594 405
5595 75
5595 405
5595 1841
5596 248
5596 405
5596 422
5596 467
5596 1191
5596 2118
5596 2489
5596 2550
5597 405
5597 2026
5598 248
5598 405
5598 973
5598 2057
5599 94
5599 406
5599 1246
5600 406
5600 653
5600 1631
5601 406
5601 3055
5602 406
5602 478
5602 1191
5602 2489
5603 406
5603 1452
5603 1508
5603 2163
5603 2354
5603 2816
5604 406
5604 890
5604 1508
5604 2163
5604 2331
5605 406
5606 219
5606 406
5606 1246
5607 174
5607 406
5607 1505
5607 1758
5607 3253
5608 366
5608 406
5609 407
5610 393
5610 407
5610 1130
5611 336
5611 407
5611 444
5611 569
5611 1373
5611 1534
5611 1535
5611 1675
5611 2488
5612 407
5612 4732
5613 336
5613 407
5613 444
5613 1373
5613 1675
5614 407
5614 444
5614 777
5614 1130
5614 1141
5614 2109
5614 2780
5615 289
5615 336
5615 407
5615 444
5615 860
5615 1050
5615 1130
5615 1675
5615 2009
5615 3158
5616 355
5616 407
5616 1057
5616 2099
5616 2398
5617 407
5617 1240
5617 3158
5618 407
5618 569
5618 658
5618 1373
5618 2488
5619 408
5619 441
5619 537
5619 1032
5619 1073
5619 1146
5619 1162
5619 1345
5619 1549
5619 1673
5619 1858
5619 2761
5619 3005
5619 3184
5620 54
5620 408
5620 436
5620 1346
5620 2253
5620 2919
5621 408
5621 1073
5621 1159
5621 1162
5622 408
5623 408
5623 2745
5624 408
5624 1090
5624 1408
5625 408
5625 1032
5625 1073
5625 1132
5625 1146
5625 1162
5625 1497
5625 1673
5625 1734
5625 1858
5626 248
5626 408
5626 446
5626 478
5626 1214
5627 408
5627 952
5627 1105
5627 1146
5627 1162
5628 408
5628 471
5628 1073
5628 1132
5628 1146
5628 1162
5628 1673
5628 1734
5628 3129
5629 409
5629 1318
5629 1386
5629 2485
5629 2905
5629 2906
5629 2907
5630 409
5630 1386
5630 1696
5631 409
5632 409
5632 2010
5632 2011
5632 8028
5633 339
5633 409
5633 650
5633 2337
5634 409
5634 1318
5634 1389
5634 2485
5634 3006
5635 403
5635 409
5635 1389
5636 409
5636 2907
5637 339
5637 409
5638 410
5638 859
5639 410
5640 410
5640 1430
5640 1933
5641 382
5641 410
5642 410
5642 453
5642 1360
5642 1818
5643 248
5643 411
5643 496
5643 651
5643 2163
5644 411
5645 343
5645 411
5645 1110
5645 2205
5646 314
5646 411
5646 1741
5647 405
5647 411
5648 412
5649 412
5649 612
5649 2353
5649 2668
5649 2669
5650 412
5650 840
5650 2238
5651 412
5651 573
5651 887
5651 1211
5651 1379
5651 2238
5651 2416
5652 412
5652 2238
5653 243
5653 412
5653 541
5653 840
5654 412
5654 1096
5654 2009
5654 2301
5655 413
5655 1403
5655 2351
5656 413
5657 413
5657 1674
5658 413
5658 924
5658 1770
5658 1836
5658 2490
5659 413
5659 752
5659 1634
5659 2351
5660 363
5660 413
5660 1674
5661 413
5661 463
5661 530
5661 942
5661 2322
5661 2490
5661 2958
5662 76
5662 413
5662 1770
5663 76
5663 413
5663 1770
5663 2911
5663 2958
5663 3196
5664 414
5664 443
5664 450
5664 473
5664 2436
5665 414
5665 1075
5666 414
5667 414
5667 425
5667 443
5667 450
5667 473
5667 1876
5667 2436
5668 414
5668 539
5668 966
5669 95
5669 414
5669 706
5670 414
5670 425
5670 443
5670 450
5670 473
5670 2436
5671 414
5671 857
5671 1876
5671 2461
5672 280
5672 414
5673 415
5673 629
5673 1700
5673 2029
5673 2685
5674 415
5675 415
5675 2970
5676 415
5676 553
5676 821
5676 1790
5676 2685
5676 2759
5677 347
5677 415
5677 553
5678 415
5678 1467
5678 1488
5679 415
5679 477
5679 1105
5679 2970
5680 415
5680 460
5680 477
5680 690
5680 803
5680 1105
5680 1771
5680 2970
5681 386
5681 415
5681 1894
5682 416
5682 1730
5683 416
5683 891
5683 1075
5684 416
5685 316
5685 416
5685 654
5685 956
5685 2326
5686 72
5686 416
5687 416
5687 654
5687 755
5687 1424
5687 2652
5688 416
5688 995
5688 2156
5688 2410
5688 2968
5688 2997
5688 2998
5689 416
5689 520
5689 654
5689 707
5689 859
5689 1424
5689 1915
5689 2465
5689 2466
5689 2575
5689 3242
5690 417
5691 417
5691 3516
5692 417
5692 2438
5692 2641
5692 12644
5693 417
5693 2851
5693 3226
5694 78
5694 417
5694 2012
5694 3170
5695 260
5695 417
5695 9162
5696 418
5696 556
5696 1370
5696 1813
5696 1900
5697 418
5697 2285
5698 418
5699 248
5699 418
5699 422
5699 467
5699 973
5700 418
5700 420
5700 467
5700 816
5700 1390
5700 2970
5701 418
5701 452
5701 681
5701 1079
5701 1805
5701 1854
5701 2623
5701 2635
5701 2702
5701 3020
5701 3022
5702 419
5702 2456
5703 419
5704 232
5704 419
5704 2137
5704 12645
5705 419
5705 1777
5705 4639
5705 12647
5706 419
5706 1546
5706 2564
5707 167
5707 419
5707 1047
5707 1544
5707 1546
5708 248
5708 419
5708 452
5708 961
5709 420
5709 460
5709 477
5709 1826
5709 2468
5709 2908
5709 2909
5710 420
5711 344
5711 420
5711 975
5711 1884
5712 420
5712 906
5712 1370
5713 420
5713 2400
5714 420
5714 1390
5714 2427
5714 2626
5714 2970
5715 421
5716 421
5716 2309
5717 78
5717 421
5717 2059
5717 2060
5718 421
5718 427
5718 1173
5718 1875
5719 421
5719 2284
5719 2806
5720 239
5720 421
5720 2013
5720 2369
5720 2687
5721 194
5721 421
5721 923
5721 1300
5721 1696
5721 1868
5721 1875
5722 421
5722 574
5722 1137
5722 2261
5722 2396
5723 422
5724 422
5724 1174
5724 1191
5725 187
5725 422
5725 2044
5725 2046
5726 248
5726 422
5726 1533
5727 422
5727 3215
5728 135
5728 422
5728 591
5728 686
5728 3097
5729 422
5729 452
5729 1079
5729 1533
5730 77
5730 422
5730 935
5730 1994
5731 422
5731 478
5731 591
5731 686
5731 1191
5731 1241
5731 2489
5731 3097
5732 188
5732 422
5732 437
5732 802
5732 2642
5733 161
5733 422
5733 1191
5733 1496
5733 1886
5734 423
5735 423
5735 796
5735 1173
5735 1866
5736 342
5736 423
5737 423
5737 1687
5738 423
5738 615
5738 928
5738 2280
5738 2434
5739 423
5739 1126
5739 1991
5740 423
5740 424
5740 498
5740 554
5740 557
5740 1518
5740 2280
5741 66
5741 423
5741 424
5741 2434
5741 2532
5742 72
5742 423
5742 1060
5743 342
5743 423
5743 1182
5744 66
5744 423
5744 1853
5745 360
5745 423
5746 424
5747 424
5747 2670
5748 424
5748 1095
5748 1102
5748 1160
5748 1906
5749 65
5749 424
5749 2015
5750 66
5750 424
5750 464
5750 1664
5751 66
5751 279
5751 424
5752 424
5752 1123
5752 2159
5752 12648
5753 66
5753 424
5753 1277
5754 66
5754 424
5755 281
5755 424
5755 928
5756 279
5756 424
5757 425
5757 473
5757 1876
5757 2461
5758 280
5758 425
5758 1514
5759 425
5759 2461
5760 224
5760 425
5761 425
5762 425
5762 450
5762 886
5762 2436
5762 2461
5762 2636
5763 425
5763 450
5763 2636
5764 280
5764 425
5764 473
5764 1585
5764 2436
5765 195
5765 425
5765 1876
5766 280
5766 425
5766 443
5766 450
5766 473
5766 1585
5767 360
5767 425
5767 464
5768 168
5768 425
5768 1761
5769 281
5769 425
5770 426
5770 2285
5771 186
5771 426
5771 2285
5772 426
5773 246
5773 426
5773 821
5773 1549
5774 426
5774 470
5774 472
5774 689
5774 1502
5774 1533
5774 1951
5774 2191
5774 2253
5775 426
5775 1172
5775 1316
5776 426
5776 853
5776 1854
5776 2702
5776 3079
5777 427
5777 1423
5777 1725
5778 427
5778 828
5778 878
5778 1653
5779 427
5780 427
5780 489
5780 958
5780 1354
5780 2336
5780 2596
5780 2698
5781 385
5781 427
5781 2209
5781 2388
5781 2567
5782 427
5782 3233
5783 298
5783 427
5783 1774
5783 2299
5784 332
5784 427
5784 1157
5784 1725
5785 427
5785 2069
5785 2113
5785 2472
5785 2714
5786 428
5787 428
5787 1102
5788 280
5788 425
5788 428
5789 213
5789 428
5789 445
5790 423
5790 428
5790 571
5790 1126
5790 1687
5791 260
5791 428
5791 439
5791 453
5792 334
5792 428
5793 429
5794 429
5794 1851
5795 429
5795 1727
5795 1804
5796 72
5796 429
5797 247
5797 429
5798 360
5798 429
5799 307
5799 429
5800 429
5800 1011
5800 2251
5800 2347
5800 2564
5800 2890
5801 72
5801 429
5801 1851
5802 430
5803 430
5803 636
5803 856
5803 1572
5803 1963
5803 2059
5804 430
5804 1076
5804 2996
5804 4785
5805 78
5805 430
5805 1567
5806 78
5806 430
5807 430
5807 994
5807 1239
5808 430
5808 1012
5809 431
5809 2314
5810 431
5810 1569
5810 3274
5811 431
5812 431
5812 855
5812 881
5812 1082
5812 2462
5813 431
5813 493
5813 542
5813 1080
5813 1471
5813 2218
5813 2954
5814 178
5814 431
5815 369
5815 431
5816 318
5816 431
5817 109
5817 431
5817 3324
5818 412
5818 431
5818 541
5818 2238
5819 266
5819 431
5819 2568
5820 12536
5821 2479
5821 10968
5821 11738
5821 11739
5821 11762
5821 12303
5821 12649
5821 12650
5822 1688
5822 3206
5822 3702
5822 8507
5822 12536
5823 4077
5823 4516
5823 6688
5823 12651
5824 604
5824 1922
5824 1924
5824 6737
5824 11268
5824 12652
5825 12606
5826 433
5826 3215
5826 12653
5827 434
5827 1701
5828 176
5828 434
5828 685
5828 1258
5828 1378
5828 1662
5829 434
5829 1192
5829 1737
5830 434
5831 434
5831 466
5831 1935
5831 2194
5832 176
5832 434
5833 434
5833 528
5833 975
5833 1157
5833 1868
5833 2373
5834 2
5834 435
5834 519
5834 4639
5835 359
5835 435
5836 435
5836 977
5836 1581
5836 2569
5836 2570
5837 435
5837 542
5837 3324
5838 435
5838 1267
5839 435
5839 570
5839 1028
5839 1164
5840 368
5840 435
5840 663
5840 849
5841 435
5842 436
5842 1146
5842 12604
5843 436
5844 436
5844 2745
5845 264
5845 436
5846 436
5846 2327
5846 2823
5847 54
5847 436
5848 436
5848 437
5848 458
5848 480
5848 1018
5848 1709
5848 2359
5848 2437
5848 2642
5848 3133
5849 437
5849 2948
5850 437
5851 437
5851 935
5851 1304
5851 2255
5852 437
5852 752
5852 3041
5853 437
5853 1813
5853 2437
5853 2449
5853 2642
5853 2840
5854 94
5854 437
5854 1231
5854 1252
5855 437
5855 480
5855 1114
5855 2268
5855 2274
5855 2359
5855 2420
5855 2642
5855 2885
5855 3031
5856 438
5857 74
5857 438
5858 74
5858 438
5858 1883
5859 438
5859 3562
5860 438
5860 4353
5860 6476
5860 12654
5861 438
5861 962
5861 1155
5862 438
5862 665
5862 1107
5862 1569
5862 2394
5863 74
5863 358
5863 438
5864 439
5864 481
5864 1419
5864 1591
5864 1967
5864 2679
5864 3033
5864 3034
5865 439
5865 1645
5865 1710
5866 439
5867 439
5867 2546
5868 382
5868 439
5869 96
5869 439
5869 1256
5869 1361
5869 1480
5870 72
5870 440
5870 1244
5870 2133
5870 2134
5871 440
5872 440
5872 1244
5873 440
5873 1244
5873 1298
5873 2607
5873 2608
5874 440
5874 1005
5874 2278
5874 12655
5875 440
5875 1244
5875 1334
5875 1808
5875 2134
5875 2135
5875 2768
5876 440
5876 1334
5876 2135
5877 391
5877 440
5877 2135
5878 441
5878 1549
5878 1673
5879 44
5879 441
5879 2248
5879 2685
5879 2761
5879 2790
5880 441
5880 1139
5881 441
5881 717
5881 987
5881 2147
5881 2674
5882 441
5883 442
5883 3210
5884 442
5885 442
5885 536
5885 1332
5885 1495
5885 1826
5885 2235
5885 2635
5885 2702
5886 442
5886 1045
5886 1109
5886 1172
5886 2121
5887 442
5887 839
5887 1476
5888 325
5888 442
5888 1172
5889 415
5889 442
5890 443
5891 443
5891 1075
5892 280
5892 443
5893 443
5893 473
5893 729
5893 2461
5894 403
5894 443
5894 473
5894 1037
5895 378
5895 443
5896 280
5896 443
5896 450
5896 473
5896 886
5896 1585
5897 403
5897 443
5897 473
5898 336
5898 444
5898 1675
5899 444
5899 1800
5899 1806
5899 2871
5899 12610
5900 444
5901 444
5901 1373
5901 1661
5902 444
5902 1654
5903 444
5903 692
5903 1705
5903 2616
5903 3333
5903 4064
5903 4066
5903 4067
5904 336
5904 444
5905 410
5905 445
5905 966
5906 445
5907 367
5907 445
5908 445
5908 966
5908 1514
5909 445
5909 1102
5910 213
5910 445
5910 1457
5911 443
5911 445
5911 473
5911 2461
5912 428
5912 445
5913 360
5913 445
5913 2078
5913 2347
5914 446
5914 1381
5914 1384
5915 446
5916 77
5916 446
5916 480
5916 572
5916 1191
5916 1994
5916 2642
5916 3053
5917 403
5917 446
5917 1037
5918 446
5918 1037
5919 446
5919 2202
5919 2240
5919 2683
5920 422
5920 446
5921 65
5921 446
5921 857
5921 2261
5922 447
5922 1157
5922 1446
5922 1809
5922 2014
5922 2806
5922 3177
5922 3178
5922 3179
5922 3180
5923 447
5923 2747
5924 447
5924 948
5924 2373
5924 2374
5924 3235
5924 11240
5925 447
5925 1258
5925 7335
5925 12656
5926 447
5927 447
5927 2373
5927 2374
5927 2651
5927 3235
5928 290
5928 447
5929 447
5929 2372
5929 2373
5929 2374
5930 447
5930 1258
5930 1901
5931 409
5931 448
5931 1318
5932 448
5933 448
5933 881
5933 996
5933 1818
5933 12657
5934 448
5934 1385
5934 1862
5935 448
5935 1522
5936 448
5936 910
5936 1434
5936 2136
5936 2530
5937 448
5937 1385
5937 1389
5937 1862
5938 243
5938 448
5938 2023
5938 2353
5939 448
5939 727
5939 1037
5939 1300
5939 1862
5939 2820
5939 3025
5940 449
5940 1454
5940 1809
5940 1862
5940 2378
5941 449
5941 909
5942 449
5943 449
5943 608
5943 985
5944 287
5944 449
5944 679
5944 706
5944 1420
5944 2013
5944 2638
5945 449
5945 679
5945 1875
5945 2159
5945 2638
5945 3281
5946 450
5947 450
5947 6218
5948 425
5948 450
5949 280
5949 450
5949 1585
5950 450
5950 947
5950 1610
5950 1703
5950 2796
5950 2933
5950 2953
5951 69
5951 450
5951 558
5951 830
5951 1147
5951 1284
5951 1649
5952 365
5952 450
5952 729
5952 1075
5953 451
5954 451
5954 1571
5954 2239
5955 451
5955 3093
5956 451
5956 637
5956 1703
5956 2181
5956 2435
5957 326
5957 451
5957 2061
5957 2217
5958 451
5958 624
5958 1726
5958 1764
5959 284
5959 451
5959 956
5959 2298
5960 341
5960 451
5961 451
5961 680
5961 1302
5961 1344
5961 1671
5961 1746
5961 2789
5961 2863
5961 3011
5961 3152
5962 451
5962 757
5962 1407
5962 1765
5962 2789
5962 3010
5962 3011
5963 315
5963 451
5964 326
5964 451
5965 452
5965 656
5965 872
5965 1587
5965 2732
5965 2733
5966 452
5967 452
5967 547
5967 848
5967 1470
5967 2345
5967 2468
5967 3506
5968 353
5968 452
5968 2192
5968 2193
5969 452
5969 623
5969 949
5969 1224
5969 1506
5969 2208
5969 2678
5970 452
5970 3210
5971 452
5971 1608
5971 1749
5972 452
5972 718
5972 961
5972 2336
5973 340
5973 452
5973 1018
5973 2620
5973 2621
5974 199
5974 452
5974 547
5974 853
5974 1826
5974 2235
5975 410
5975 453
5976 453
5977 453
5977 1728
5978 334
5978 453
5978 1360
5978 2477
5978 2701
5978 2949
5978 3296
5979 445
5979 453
5979 1589
5980 445
5980 453
5981 453
5981 539
5981 1036
5981 1202
5981 12658
5982 453
5982 968
5982 2333
5982 2399
5983 369
5983 454
5983 857
5984 454
5985 355
5985 454
5985 1044
5985 2099
5986 454
5986 1661
5986 1670
5986 2578
5986 2680
5987 454
5987 1597
5987 1654
5988 454
5988 2680
5989 401
5989 454
5989 1670
5990 454
5990 648
5990 1080
5990 1573
5990 1630
5990 1661
5991 427
5991 454
5991 1982
5991 2485
5991 2983
5991 2984
5991 2985
5992 355
5992 454
5992 1044
5992 1053
5992 2653
5993 454
5993 648
5993 1156
5993 1582
5993 1630
5993 1661
5993 3023
5994 455
5995 434
5995 455
5996 455
5996 3406
5997 455
5997 1465
5997 1702
5998 455
5998 622
5998 1302
5998 2093
5998 2388
5998 2753
5999 428
5999 455
6000 456
6000 1680
6000 2070
6001 456
6002 456
6002 1417
6002 1471
6002 1943
6002 1968
6002 2070
6002 2715
6002 3052
6003 456
6003 678
6003 843
6003 1086
6003 1417
6003 1571
6003 1775
6003 2077
6003 2243
6003 3052
6003 3222
6004 456
6004 3685
6005 456
6005 2005
6005 2070
6005 2715
6006 456
6006 12659
6007 456
6007 1010
6007 1417
6007 1471
6007 1680
6007 1968
6007 2715
6007 3052
6007 3161
6008 291
6008 456
6008 2511
6009 456
6009 10122
6009 12660
6010 456
6010 634
6010 678
6010 1353
6010 1417
6011 457
6011 771
6011 775
6011 1994
6011 1995
6012 246
6012 457
6012 1994
6013 333
6013 457
6013 967
6013 1926
6014 246
6014 457
6015 457
6016 458
6016 1926
6017 458
6018 60
6018 458
6018 802
6018 2548
6018 2797
6019 437
6019 458
6019 938
6019 2794
6020 188
6020 458
6020 2794
6021 437
6021 458
6021 2642
6022 60
6022 458
6023 60
6023 458
6023 472
6023 1110
6023 2205
6023 2797
6024 458
6024 1114
6024 1813
6025 458
6025 472
6025 1346
6025 1951
6025 1994
6025 2253
6026 459
6027 361
6027 459
6027 524
6027 526
6028 459
6028 1579
6028 2209
6029 381
6029 459
6030 460
6030 1802
6030 2523
6031 460
6031 848
6031 1470
6031 2811
6032 460
6032 2175
6033 460
6034 75
6034 460
6034 2253
6035 460
6035 803
6035 1109
6035 1470
6035 2523
6036 461
6036 1467
6036 2455
6037 461
6038 192
6038 461
6038 496
6038 2127
6039 461
6039 650
6039 1169
6039 1229
6040 461
6040 1467
6041 413
6041 461
6041 1700
6041 2125
6042 461
6042 1673
6042 2143
6042 8942
6043 184
6043 461
6043 1138
6043 1467
6043 2591
6044 86
6044 461
6045 76
6045 86
6045 461
6046 461
6046 469
6046 717
6046 1163
6046 1354
6046 1538
6046 2147
6046 3184
6046 3185
6046 3196
6047 461
6047 1467
6047 1507
6047 1538
6047 1587
6047 2324
6047 2591
6048 462
6048 2848
6049 462
6050 462
6050 475
6050 689
6050 1673
6050 1951
6051 415
6051 462
6051 553
6051 1013
6052 462
6052 1797
6052 2127
6052 2302
6053 463
6054 463
6054 1987
6054 2102
6054 2138
6055 463
6055 924
6055 1119
6055 1168
6055 2143
6055 2944
6055 3089
6055 4556
6055 4559
6056 463
6056 1229
6057 463
6057 1377
6057 1974
6058 463
6058 4275
6058 7517
6058 12661
6059 464
6059 3249
6060 66
6060 464
6061 66
6061 279
6061 464
6062 339
6062 409
6062 464
6062 1389
6063 464
6064 279
6064 464
6065 424
6065 464
6066 464
6066 2485
6066 2671
6067 357
6067 464
6067 1745
6068 66
6068 464
6068 1160
6068 2434
6069 379
6069 464
6069 2518
6070 281
6070 464
6071 417
6071 464
6072 356
6072 464
6073 465
6073 2570
6074 465
6074 596
6074 1059
6074 1325
6074 2570
6074 2877
6075 465
6076 341
6076 465
6077 465
6077 596
6077 951
6077 1028
6077 1164
6077 1816
6077 1826
6077 2407
6077 2408
6077 2655
6077 3243
6078 176
6078 466
6079 466
6079 2223
6079 2977
6080 466
6081 455
6081 466
6081 1541
6082 434
6082 466
6082 895
6083 466
6083 1454
6083 1697
6083 2463
6083 2624
6084 418
6084 467
6084 681
6084 816
6084 2345
6085 467
6085 1285
6085 1304
6086 391
6086 467
6086 2591
6087 467
6087 816
6088 467
6088 875
6088 1822
6088 2087
6089 467
6090 418
6090 467
6091 347
6091 467
6091 1628
6092 345
6092 467
6092 1291
6092 2341
6093 467
6093 478
6093 1114
6093 1786
6093 1865
6093 1867
6093 1994
6094 467
6094 835
6094 875
6094 985
6094 2709
6095 468
6095 1496
6095 1508
6096 468
6097 468
6097 2034
6098 191
6098 468
6098 1761
6099 468
6099 1508
6099 1615
6099 2029
6099 2331
6100 75
6100 468
6101 469
6101 903
6101 930
6101 1319
6101 1797
6101 1837
6101 1894
6102 34
6102 469
6102 1319
6102 1962
6102 2622
6102 2821
6103 469
6104 53
6104 470
6104 1120
6104 1135
6104 1183
6104 1345
6104 1416
6104 1476
6104 2883
6104 2973
6104 3219
6105 470
6105 1607
6105 1673
6105 2349
6105 2674
6105 2734
6106 172
6106 470
6106 1628
6106 8123
6107 470
6108 285
6108 470
6108 647
6108 779
6109 470
6109 779
6109 1131
6109 1628
6109 1744
6109 2066
6109 2698
6109 3074
6110 470
6110 3109
6111 470
6111 568
6111 681
6111 1358
6112 44
6112 470
6113 471
6113 1836
6114 118
6114 471
6114 553
6115 471
6116 471
6116 1214
6116 1700
6117 188
6117 471
6117 472
6117 1146
6118 408
6118 471
6118 1497
6119 471
6119 1073
6119 1146
6119 1162
6119 2685
6120 77
6120 471
6120 548
6121 472
6121 1608
6121 2051
6121 2562
6122 472
6122 556
6122 944
6122 1865
6122 1867
6123 472
6123 1162
6123 1549
6124 472
6125 472
6125 3251
6126 452
6126 472
6126 1995
6127 470
6127 472
6127 1073
6127 1105
6128 408
6128 472
6128 1073
6129 75
6129 472
6129 1798
6129 2648
6129 2823
6130 264
6130 472
6131 340
6131 472
6132 473
6132 3279
6133 282
6133 473
6134 280
6134 473
6135 280
6135 425
6135 473
6136 473
6136 1277
6136 1518
6136 1880
6137 473
6138 282
6138 403
6138 473
6138 974
6139 403
6139 473
6139 891
6139 1978
6140 403
6140 473
6141 425
6141 473
6142 473
6142 886
6142 1585
6143 280
6143 473
6143 1585
6144 282
6144 473
6144 729
6145 474
6145 1408
6145 1566
6145 1797
6145 2791
6145 2792
6146 474
6146 3070
6147 474
6147 1961
6147 2143
6147 2252
6148 474
6149 475
6149 1169
6149 1860
6149 2792
6150 475
6151 475
6151 1135
6151 2951
6152 475
6152 651
6152 822
6152 1655
6152 1776
6152 1849
6152 2504
6152 2560
6152 3215
6152 3425
6153 476
6153 1689
6154 476
6155 339
6155 476
6155 2344
6156 476
6156 1838
6156 2015
6157 477
6158 477
6158 803
6158 1105
6158 1771
6158 1951
6159 477
6159 1390
6160 477
6160 608
6160 1173
6161 478
6161 2826
6162 478
6163 478
6163 653
6163 731
6163 1132
6163 1308
6163 1475
6163 1743
6163 2190
6163 2268
6163 3197
6163 3259
6163 3260
6163 3338
6164 478
6164 653
6164 686
6164 2354
6164 2489
6165 478
6165 1393
6165 1452
6166 452
6166 478
6167 479
6167 1783
6167 3040
6168 479
6168 1845
6169 479
6169 753
6169 843
6169 860
6169 950
6169 1130
6169 1240
6169 1675
6169 2009
6170 479
6171 480
6172 480
6172 1114
6173 481
6173 524
6173 751
6173 878
6174 481
6175 481
6175 751
6176 120
6176 482
6177 482
6178 482
6178 3081
6179 361
6179 482
6179 633
6179 1399
6179 2670
6180 483
6181 483
6181 6263
6182 484
6183 484
6183 2462
6184 484
6184 1896
6184 2462
6184 2807
6185 130
6185 484
6185 1899
6185 2022
6185 2582
6186 484
6186 2344
6186 2858
6186 12662
6187 74
6187 484
6187 2576
6187 2940
6188 485
6188 8211
6189 486
6189 1437
6190 487
6190 1577
6191 182
6191 487
6191 4065
6192 488
6192 2262
6193 488
6193 1846
6193 1848
6193 2633
6194 177
6194 488
6195 488
6195 1594
6195 1704
6196 489
6196 2755
6197 489
6197 1405
6197 8031
6197 12663
6198 12883
6199 9156
6199 12664
6200 360
6200 12665
6201 391
6201 12666
6202 488
6202 12667
6203 11795
6203 12668
6204 491
6204 691
6204 764
6204 873
6204 4945
6204 6205
6205 491
6205 2030
6205 2203
6205 6204
6206 491
6206 499
6206 931
6206 1034
6206 1767
6206 1852
6206 1998
6206 2058
6206 2254
6206 3204
6207 491
6207 764
6208 491
6209 491
6209 492
6209 754
6209 1097
6209 1299
6209 2700
6210 194
6210 491
6210 492
6210 1097
6210 2596
6211 492
6212 492
6212 772
6213 492
6213 754
6213 873
6214 492
6214 691
6214 754
6214 931
6214 1034
6214 1627
6214 1852
6214 2549
6214 2700
6214 3218
6215 493
6215 2218
6216 454
6216 493
6216 1630
6216 1661
6216 1670
6217 493
6217 778
6217 1156
6217 1303
6217 1670
6217 2486
6217 2954
6218 493
6218 1928
6218 4889
6218 5947
6218 6463
6218 10156
6219 109
6219 493
6220 346
6220 493
6221 401
6221 493
6222 493
6222 542
6222 614
6222 778
6222 885
6222 1080
6222 1156
6222 1259
6222 1451
6222 1582
6222 1583
6222 2002
6222 2314
6222 2568
6223 493
6223 1542
6223 1654
6223 1670
6224 493
6225 494
6225 2701
6226 494
6226 544
6226 1912
6226 2657
6227 494
6227 1449
6227 3119
6228 494
6228 520
6228 2465
6228 2681
6228 2682
6229 494
6230 495
6230 644
6230 906
6230 1157
6230 1919
6231 495
6231 644
6232 495
6233 77
6233 496
6233 1114
6233 1773
6233 1996
6233 2911
6233 2912
6234 76
6234 496
6234 1146
6234 1214
6235 496
6235 1651
6235 1652
6235 2656
6236 496
6236 752
6236 2580
6236 2581
6236 3038
6237 496
6237 1652
6238 496
6238 1305
6238 1489
6239 496
6240 76
6240 496
6240 1305
6241 60
6241 496
6241 802
6241 1110
6241 1139
6241 2797
6242 497
6242 2044
6243 497
6244 497
6244 1776
6244 1849
6245 279
6245 498
6246 498
6246 557
6246 1039
6247 498
6248 281
6248 498
6249 498
6249 9158
6250 66
6250 279
6250 498
6251 498
6251 703
6251 1084
6251 2146
6252 499
6253 499
6253 2257
6253 2258
6253 2880
6254 492
6254 499
6255 499
6255 1565
6256 500
6257 500
6257 1484
6257 1513
6258 500
6258 2480
6259 500
6259 709
6259 769
6259 1082
6259 1204
6259 2012
6259 2964
6260 6277
6260 9369
6261 11227
6261 11736
6262 534
6262 10965
6262 12669
6262 12670
6263 6181
6263 7462
6263 8541
6263 12671
6264 10974
6264 12672
6265 489
6265 10927
6266 6577
6266 6578
6267 1009
6267 8406
6267 12673
6267 12674
6268 501
6268 12605
6269 502
6269 11294
6269 12675
6270 502
6270 12676
6271 236
6271 12677
6272 2758
6272 12677
6273 503
6273 12261
6274 244
6274 504
6275 504
6276 504
6276 532
6276 542
6276 778
6276 1080
6276 1303
6277 504
6277 6260
6277 8277
6277 10055
6277 12306
6278 505
6279 505
6279 1064
6280 506
6280 509
6281 506
6282 507
6282 560
6282 722
6282 7213
6282 12678
6283 507
6283 837
6283 2425
6283 2524
6283 3103
6283 7655
6283 12679
6284 507
6285 507
6285 1347
6286 508
6287 508
6287 3706
6288 508
6288 744
6288 856
6288 1863
6288 3154
6288 3155
6288 3156
6288 3157
6288 3424
6289 509
6290 510
6291 510
6291 3034
6292 510
6292 12680
6293 247
6293 510
6294 511
6295 511
6295 2725
6296 512
6296 2497
6296 2698
6296 2705
6296 2744
6296 12311
6297 512
6297 2047
6297 2744
6297 3103
6298 512
6299 512
6299 753
6299 1466
6299 2539
6299 2616
6300 512
6300 2318
6301 513
6302 513
6302 1244
6302 2133
6302 2134
6302 2135
6303 513
6303 3491
6304 72
6304 513
6304 1727
6304 2133
6304 2134
6304 2135
6304 2199
6305 78
6305 513
6305 12681
6306 514
6306 525
6307 514
6308 448
6308 514
6308 1434
6308 2370
6308 12682
6309 289
6309 514
6310 515
6310 2590
6311 515
6312 515
6312 751
6312 2778
6313 516
6314 516
6314 984
6314 1153
6315 516
6315 733
6315 932
6315 1657
6315 2304
6315 2813
6316 516
6316 984
6317 517
6318 517
6318 1870
6319 518
6319 2230
6320 518
6321 264
6321 518
6322 121
6322 518
6322 942
6323 518
6323 816
6323 1105
6323 2345
6324 519
6325 519
6325 1779
6326 368
6326 519
6326 1659
6327 519
6327 1595
6327 1772
6328 520
6328 1121
6328 1424
6328 1915
6328 2078
6328 2466
6328 2575
6329 494
6329 520
6329 638
6329 1068
6330 520
6330 3362
6331 520
6331 544
6331 733
6331 847
6331 1424
6331 2465
6331 2682
6331 3080
6332 520
6333 520
6333 2304
6333 2305
6333 2465
6334 521
6335 374
6335 521
6336 521
6336 2354
6337 521
6337 828
6337 1362
6337 1756
6337 1989
6337 2338
6337 2567
6338 521
6338 828
6338 870
6338 1989
6339 522
6340 523
6341 523
6341 3740
6342 523
6342 856
6342 905
6342 913
6342 2787
6342 2788
6343 523
6343 1275
6343 7246
6344 524
6344 1699
6345 524
6345 1697
6345 1701
6346 381
6346 524
6346 526
6347 381
6347 524
6348 524
6349 525
6349 2130
6349 2369
6349 2431
6349 2433
6350 289
6350 525
6351 525
6352 525
6352 2130
6353 524
6353 526
6354 526
6355 526
6355 1276
6356 526
6356 1830
6356 1831
6357 527
6357 683
6358 527
6358 872
6358 1031
6358 1511
6358 1587
6358 2272
6358 2732
6358 2842
6358 2843
6358 3196
6359 528
6359 907
6359 1868
6359 2308
6359 2806
6359 2838
6359 2999
6360 528
6360 3264
6361 529
6361 1059
6361 1147
6361 1455
6361 2213
6361 2447
6361 2917
6362 529
6362 11532
6363 529
6363 2201
6364 427
6364 529
6364 554
6365 368
6365 529
6365 571
6366 530
6366 2322
6367 530
6367 1377
6367 1974
6368 530
6368 897
6368 1787
6368 2958
6369 531
6369 1106
6369 1107
6370 531
6370 692
6370 1469
6370 9902
6371 531
6371 1469
6372 531
6372 692
6372 1469
6372 2500
6372 9902
6373 399
6373 531
6374 532
6374 2090
6375 532
6375 1582
6375 2090
6376 431
6376 532
6376 1438
6377 532
6377 793
6377 2090
6377 2646
6378 178
6378 532
6378 542
6378 1080
6378 2090
6379 178
6379 532
6380 431
6380 532
6381 532
6382 533
6382 1755
6382 2476
6383 533
6383 563
6383 901
6383 2476
6383 2477
6384 307
6384 533
6385 201
6385 533
6386 533
6387 396
6387 533
6388 533
6388 2181
6389 533
6389 555
6389 563
6389 901
6390 2232
6390 3450
6390 7014
6390 12683
6390 12684
6391 1363
6391 2380
6391 2578
6391 9608
6392 8688
6392 9524
6392 12964
6393 12701
6393 12987
6394 12331
6394 12965
6395 8749
6395 8777
6395 12690
6395 12691
6396 1329
6396 2131
6396 3119
6396 9990
6397 10109
6397 12692
6397 12693
6398 1093
6398 8743
6398 12694
6398 12695
6398 12721
6399 2679
6399 8886
6399 12696
6400 562
6400 6558
6401 1289
6401 1350
6401 1440
6401 3660
6401 9159
6401 9572
6402 8974
6402 10323
6402 12951
6403 2123
6403 8504
6403 12699
6403 12700
6404 2050
6404 10938
6404 11116
6404 12243
6404 12701
6404 12702
6405 10109
6405 12693
6405 12703
6406 1580
6406 9165
6406 10194
6406 12704
6407 5365
6407 12705
6407 12706
6408 2373
6408 11308
6408 11632
6409 12669
6409 12956
6410 11631
6410 12708
6410 12967
6411 7094
6411 8806
6411 11586
6411 12710
6412 12417
6412 12959
6413 1529
6413 2727
6413 10067
6414 6674
6414 6675
6414 8434
6414 12712
6415 1618
6415 8890
6415 12713
6416 1466
6416 1783
6416 7296
6416 10688
6416 12296
6416 12714
6417 918
6417 5589
6417 6573
6417 7634
6418 1
6418 1529
6418 7827
6418 9154
6418 12028
6419 5501
6419 7181
6419 7445
6419 12715
6420 6425
6420 8030
6421 11670
6421 12301
6422 8230
6422 12717
6422 12718
6423 11407
6423 12719
6423 12720
6424 8641
6424 10162
6424 12721
6424 12722
6424 12723
6425 6420
6425 7653
6425 12724
6426 535
6426 2363
6427 536
6427 1353
6428 470
6428 536
6428 822
6428 1311
6428 1655
6428 2339
6428 2349
6428 3089
6429 77
6429 536
6429 548
6429 760
6429 1552
6429 2827
6430 536
6431 537
6432 537
6432 1031
6432 1054
6432 1511
6432 2732
6432 2733
6433 537
6433 1031
6434 530
6434 537
6434 2361
6434 2591
6435 538
6436 538
6436 2694
6437 538
6437 547
6437 774
6437 853
6437 1656
6437 1743
6438 539
6438 2835
6439 379
6439 539
6440 240
6440 539
6440 1546
6441 539
6442 302
6442 539
6443 428
6443 539
6444 539
6444 1554
6444 1745
6445 540
6445 1042
6445 2007
6445 2546
6446 540
6446 1415
6446 1694
6447 540
6447 2007
6448 382
6448 540
6448 1374
6448 2270
6448 2597
6449 540
6450 360
6450 540
6451 541
6451 1850
6452 541
6452 1540
6452 1659
6452 2186
6453 412
6453 541
6453 887
6453 1211
6453 2422
6454 412
6454 541
6454 978
6455 412
6455 541
6456 541
6456 1795
6456 2858
6457 541
6458 412
6458 541
6458 840
6458 2386
6459 500
6459 541
6460 542
6461 542
6461 793
6461 1080
6461 2506
6461 2646
6462 542
6462 1080
6463 542
6463 1080
6463 6218
6464 542
6464 1080
6464 1156
6464 1582
6465 543
6466 361
6466 543
6467 374
6467 543
6468 543
6468 3168
6469 544
6470 494
6470 544
6471 544
6471 977
6472 354
6472 544
6473 545
6473 1949
6474 545
6475 382
6475 545
6476 546
6476 5860
6477 243
6477 546
6478 546
6479 484
6479 546
6480 547
6480 1168
6481 460
6481 547
6481 1109
6481 2175
6482 547
6482 565
6482 853
6482 1133
6482 1656
6483 547
6484 77
6484 548
6485 548
6486 77
6486 548
6486 2894
6487 548
6487 1552
6487 2116
6488 77
6488 548
6488 2116
6488 2815
6489 548
6489 760
6490 345
6490 548
6490 606
6490 2185
6491 472
6491 548
6491 1231
6491 1252
6491 1425
6492 77
6492 548
6492 608
6492 1552
6492 2116
6492 2894
6493 549
6493 971
6494 549
6495 549
6495 631
6495 1708
6495 1852
6495 2030
6495 2254
6495 2258
6496 549
6496 691
6496 754
6496 1617
6496 1621
6496 2858
6497 549
6497 1282
6497 1708
6498 550
6498 1669
6498 2002
6498 3240
6499 550
6499 2139
6500 493
6500 550
6500 778
6500 2002
6500 2218
6500 2486
6500 2954
6501 550
6501 778
6501 885
6501 1080
6501 2440
6501 2486
6502 550
6503 550
6503 1635
6503 2646
6504 551
6504 985
6504 1020
6504 2471
6504 2570
6504 2585
6504 2941
6505 551
6505 613
6505 1059
6505 2507
6505 2776
6506 551
6506 1020
6507 551
6508 308
6508 551
6509 552
6509 1020
6509 1993
6509 8453
6510 424
6510 552
6511 552
6512 552
6512 2655
6513 281
6513 552
6514 553
6515 553
6515 1013
6516 44
6516 553
6516 1485
6516 1859
6516 2230
6517 554
6518 554
6518 2835
6518 3194
6519 281
6519 554
6520 424
6520 554
6520 708
6520 1128
6520 1875
6521 554
6521 2079
6522 554
6522 2857
6522 3092
6522 3328
6523 494
6523 554
6523 2682
6524 65
6524 554
6524 2013
6524 2042
6525 555
6525 2466
6526 555
6527 555
6527 1872
6527 2136
6527 2368
6528 78
6528 555
6529 555
6529 2434
6529 2472
6529 2593
6529 3115
6530 555
6530 1474
6530 1755
6531 162
6531 555
6531 1660
6532 430
6532 555
6532 636
6533 556
6533 1447
6533 1822
6533 1839
6533 2094
6533 2132
6534 556
6534 2808
6535 556
6536 333
6536 556
6537 556
6537 1865
6537 1867
6538 556
6538 935
6538 1531
6538 2116
6538 3285
6539 556
6539 623
6539 833
6539 858
6539 1749
6539 1839
6539 2808
6540 556
6540 1786
6540 1865
6540 2834
6541 66
6541 279
6541 424
6541 557
6541 2226
6542 557
6542 1557
6543 424
6543 557
6543 1126
6543 2282
6543 2434
6544 546
6544 557
6545 557
6546 558
6546 2241
6547 348
6547 558
6548 558
6549 558
6549 667
6549 1049
6549 2241
6550 120
6550 558
6550 1409
6551 65
6551 558
6552 5571
6552 8478
6553 559
6553 1655
6553 8409
6553 12725
6554 2024
6554 2665
6554 2697
6554 8478
6554 11130
6555 560
6555 6555
6556 561
6556 610
6556 1087
6556 1338
6556 1380
6556 1850
6556 2372
6556 3150
6556 3151
6557 561
6557 1890
6558 562
6558 6400
6559 562
6559 8694
6560 563
6561 47
6561 563
6561 1262
6562 162
6562 563
6562 12726
6563 563
6563 2434
6563 2472
6564 563
6564 1815
6564 2369
6564 2472
6564 2687
6565 95
6565 563
6565 1755
6566 533
6566 563
6567 172
6567 564
6567 1186
6567 1849
6567 2560
6567 3278
6568 564
6569 564
6569 2143
6570 564
6570 1135
6570 1183
6570 1785
6570 1841
6570 2101
6570 2147
6570 2302
6570 2883
6570 3211
6571 404
6571 565
6571 1167
6571 2635
6572 565
6573 565
6573 6417
6574 421
6574 566
6575 566
6575 1954
6575 3316
6575 6748
6576 566
6576 3279
6577 566
6577 607
6577 1954
6577 6266
6578 566
6578 6266
6578 6580
6579 566
6580 566
6580 6578
6581 567
6581 724
6581 767
6581 1088
6581 1265
6581 1266
6581 1539
6581 1625
6581 2079
6581 2228
6581 2888
6581 2992
6581 3258
6582 202
6582 567
6582 1449
6583 494
6583 567
6584 96
6584 567
6584 1103
6585 567
6585 1103
6586 567
6587 202
6587 567
6587 2104
6587 2228
6588 567
6588 2992
6588 7547
6589 568
6590 568
6590 681
6591 569
6592 569
6592 1661
6593 569
6593 1373
6593 1661
6594 569
6594 1535
6594 1705
6594 2616
6594 2643
6595 570
6595 2579
6596 363
6596 570
6596 1368
6597 570
6598 75
6598 570
6599 570
6599 1533
6599 1855
6599 2455
6600 571
6600 859
6600 966
6600 1517
6600 1730
6600 2725
6601 571
6602 424
6602 571
6603 571
6603 2801
6604 428
6604 571
6605 572
6606 572
6606 935
6607 546
6607 573
6608 573
6609 369
6609 573
6609 12655
6610 573
6610 12655
6611 574
6612 574
6612 1499
6612 1572
6613 440
6613 574
6613 1284
6613 1963
6614 574
6614 1284
6614 1963
6614 2297
6615 574
6615 1040
6616 575
6616 1637
6616 1652
6617 575
6618 76
6618 575
6619 575
6619 1496
6619 1637
6619 1652
6619 1758
6619 1761
6619 2853
6620 188
6620 575
6621 575
6621 872
6621 1136
6621 1447
6621 1761
6622 576
6622 2426
6623 576
6624 247
6624 576
6625 574
6625 576
6625 1284
6626 65
6626 576
6627 78
6627 577
6628 320
6628 577
6628 2153
6628 2529
6629 577
6630 577
6630 1796
6630 2932
6631 577
6631 5527
6632 320
6632 577
6633 578
6633 2032
6633 2215
6633 2796
6634 578
6635 578
6635 2824
6636 315
6636 578
6636 2243
6636 2517
6636 2824
6637 431
6637 578
6638 578
6638 2215
6638 2243
6639 579
6639 2234
6640 579
6641 580
6641 1788
6642 580
6643 581
6643 2362
6644 581
6645 581
6645 2713
6645 3963
6645 7298
6645 9917
6645 10013
6645 10300
6645 12727
6646 431
6646 581
6647 7473
6647 12381
6648 12381
6649 10970
6649 12381
6649 12728
6650 1042
6650 1694
6650 2007
6650 3705
6650 5462
6650 5463
6650 11811
6651 447
6651 583
6652 583
6653 462
6653 584
6654 584
6655 584
6655 1347
6656 585
6656 1552
6657 415
6657 586
6657 1013
6657 1859
6657 2324
6658 75
6658 586
6659 586
6659 1738
6659 2285
6660 586
6660 1198
6661 200
6661 587
6662 587
6662 1170
6662 2083
6662 3556
6663 587
6663 2987
6664 68
6664 587
6665 587
6665 1709
6665 2432
6665 2632
6665 3648
6666 588
6667 444
6667 588
6668 589
6669 589
6669 756
6670 589
6670 12729
6671 589
6671 12731
6672 532
6672 590
6673 590
6674 590
6674 6414
6675 532
6675 590
6675 6414
6675 12732
6676 591
6676 3275
6677 591
6678 591
6678 657
6678 2536
6678 4335
6678 12252
6679 591
6679 1738
6679 3052
6680 592
6681 592
6681 2398
6681 2439
6682 592
6682 1904
6683 390
6683 592
6683 1075
6684 592
6684 794
6684 1249
6684 2246
6684 2439
6685 593
6686 593
6686 762
6687 593
6687 762
6687 1949
6687 1950
6688 593
6688 5823
6688 12734
6689 545
6689 593
6690 594
6690 3247
6691 594
6692 594
6692 1006
6692 2901
6692 3247
6693 266
6693 594
6693 1669
6693 2002
6694 594
6694 1396
6694 1802
6695 259
6695 594
6695 1534
6695 1705
6695 2918
6696 595
6696 631
6696 2170
6696 2381
6696 2726
6696 2727
6697 595
6698 595
6698 12735
6699 595
6699 7889
6699 8564
6699 12736
6700 596
6700 1085
6701 596
6702 451
6702 596
6703 596
6703 951
6703 1629
6704 596
6704 597
6705 597
6706 597
6706 838
6707 596
6707 597
6707 1085
6708 598
6709 598
6709 662
6709 1466
6709 1803
6709 2688
6710 598
6710 12737
6711 599
6712 599
6712 1727
6713 600
6714 483
6714 600
6715 600
6715 1179
6716 601
6717 601
6717 985
6718 77
6718 345
6718 601
6719 601
6719 942
6719 1045
6719 1136
6719 1836
6719 2455
6720 602
6720 2396
6721 602
6722 602
6722 1844
6722 1845
6723 602
6723 9047
6724 288
6724 602
6724 977
6725 603
6725 1814
6725 1886
6726 603
6726 1886
6727 603
6728 60
6728 603
6729 603
6729 1136
6729 1886
6729 2132
6729 2162
6729 2819
6730 317
6730 603
6731 437
6731 603
6731 1220
6731 1905
6732 604
6732 2001
6732 2025
6732 2026
6733 604
6733 12738
6734 604
6734 6737
6735 604
6735 1090
6735 1573
6735 2285
6735 2527
6736 604
6737 604
6737 5824
6737 6734
6737 12652
6738 605
6738 1063
6738 1754
6739 605
6740 193
6740 605
6740 1763
6741 605
6741 1063
6742 606
6743 472
6743 606
6743 1734
6744 472
6744 606
6745 606
6745 1994
6746 607
6746 2571
6747 607
6748 607
6748 3575
6748 6575
6749 608
6750 608
6750 935
6750 1069
6751 608
6751 2794
6752 431
6752 609
6753 431
6753 609
6753 1277
6754 609
6754 2226
6755 609
6756 189
6756 610
6756 2124
6756 2146
6757 610
6758 610
6758 1338
6758 1380
6759 610
6759 849
6759 1571
6759 2109
6759 2298
6759 2756
6759 2802
6759 3093
6760 341
6760 610
6760 905
6760 2509
6760 2865
6760 2916
6760 3305
6761 578
6761 610
6762 611
6763 611
6763 3311
6764 611
6764 841
6764 968
6764 1832
6764 2156
6764 2214
6765 612
6765 2316
6766 368
6766 612
6766 808
6766 1913
6766 2587
6767 612
6767 1913
6767 1980
6767 2242
6768 612
6769 613
6769 1530
6770 613
6771 542
6771 614
6771 1080
6771 1597
6771 1669
6772 614
6772 785
6772 1494
6773 614
6774 614
6774 2286
6775 615
6776 615
6776 832
6776 1685
6776 1775
6777 541
6777 615
6777 832
6777 3049
6778 66
6778 615
6779 615
6779 928
6780 616
6780 9338
6781 616
6781 12739
6782 616
6783 617
6783 2857
6784 617
6785 618
6785 12740
6786 618
6786 9338
6787 618
6788 618
6788 12741
6789 619
6789 1907
6789 2028
6789 2786
6790 619
6790 986
6790 1313
6790 1621
6790 1627
6791 619
6792 176
6792 619
6793 282
6793 620
6794 620
6795 282
6795 620
6795 804
6796 403
6796 620
6797 621
6797 2931
6798 621
6799 68
6799 621
6799 2741
6799 2867
6799 2870
6799 2871
6800 68
6800 621
6801 622
6801 12742
6802 622
6803 622
6803 12743
6804 622
6804 2844
6804 2857
6805 622
6805 2289
6806 332
6806 622
6806 1406
6807 623
6807 2193
6808 623
6808 652
6808 2171
6808 2273
6809 623
6810 623
6810 652
6810 2168
6810 2273
6810 8633
6811 556
6811 623
6811 1550
6811 1839
6811 2951
6812 54
6812 623
6812 1570
6813 623
6813 1443
6813 2046
6814 624
6814 1302
6814 1344
6814 1726
6815 624
6815 12744
6816 591
6816 624
6816 1726
6817 624
6817 1726
6817 1815
6818 624
6819 625
6820 625
6820 2198
6821 625
6821 2197
6821 2198
6821 2474
6821 2997
6822 626
6823 626
6823 1626
6824 505
6824 626
6825 626
6825 1626
6825 3172
6826 627
6826 1902
6827 627
6828 96
6828 627
6828 1480
6829 627
6829 1632
6829 1650
6830 627
6830 646
6830 747
6830 984
6830 1544
6830 1650
6830 1753
6831 627
6831 628
6832 628
6833 628
6833 2251
6834 628
6834 1046
6834 1632
6834 1650
6835 628
6835 1046
6835 1632
6836 308
6836 628
6836 2251
6837 308
6837 628
6838 629
6839 629
6839 3251
6840 630
6840 2750
6841 630
6841 1965
6841 2299
6841 2335
6841 2516
6841 2979
6841 2980
6842 526
6842 630
6842 2013
6843 630
6844 630
6844 659
6844 2299
6845 631
6845 1122
6845 2254
6846 631
6846 1122
6847 631
6847 2170
6847 2726
6847 2727
6848 631
6849 632
6849 917
6850 633
6850 2267
6851 634
6851 3052
6852 635
6852 3344
6853 635
6853 653
6853 1132
6854 635
6854 650
6854 1186
6854 1569
6854 1849
6854 2645
6854 2993
6855 636
6856 636
6856 2533
6857 637
6857 1750
6857 2226
6857 2447
6857 3080
6858 637
6859 637
6859 943
6860 202
6860 637
6861 638
6862 71
6862 638
6863 638
6863 2160
6864 416
6864 638
6864 654
6864 1012
6864 2639
6865 638
6865 707
6865 2305
6865 2682
6866 639
6867 639
6867 2019
6868 639
6868 846
6868 909
6868 1725
6869 640
6869 2325
6870 640
6871 640
6871 1891
6871 2089
6872 401
6872 640
6873 641
6874 641
6874 1501
6875 641
6875 786
6875 1860
6875 2387
6876 642
6876 2025
6876 4725
6876 7105
6876 11659
6876 12745
6877 642
6877 677
6878 643
6878 5147
6878 7279
6878 12746
6879 643
6879 1261
6879 9326
6879 9327
6880 643
6880 3177
6881 643
6881 738
6881 904
6881 12528
6882 644
6882 3150
6883 292
6883 645
6884 363
6884 645
6885 645
6885 2150
6886 646
6886 1544
6887 646
6887 1374
6887 1376
6887 1544
6887 11032
6888 646
6889 646
6889 1047
6889 1439
6889 7415
6889 9818
6890 439
6890 646
6891 646
6891 1782
6891 2019
6892 430
6892 646
6893 540
6893 646
6894 647
6894 2565
6895 647
6895 2658
6895 2696
6895 2842
6896 647
6897 397
6897 647
6897 1307
6898 647
6898 12653
6899 647
6899 1140
6899 2658
6899 2696
6899 2842
6900 648
6900 12747
6901 648
6902 648
6902 881
6902 1082
6902 1635
6903 648
6903 1082
6904 649
6905 335
6905 649
6906 649
6906 12749
6907 649
6907 1792
6908 446
6908 649
6908 3254
6909 649
6909 1748
6909 1981
6910 650
6910 972
6911 650
6912 650
6912 1146
6912 1797
6912 2101
6913 409
6913 650
6914 650
6914 651
6914 1169
6914 1987
6915 635
6915 651
6916 651
6917 119
6917 651
6917 2591
6918 335
6918 651
6919 651
6919 1743
6920 76
6920 651
6920 1305
6921 652
6921 6925
6922 652
6923 652
6923 1616
6923 1646
6924 652
6924 655
6924 1860
6924 2273
6925 652
6925 5318
6925 6921
6926 650
6926 653
6927 653
6928 653
6928 1799
6929 448
6929 653
6930 335
6930 653
6930 1054
6930 1655
6931 654
6931 2465
6931 2681
6932 416
6932 654
6933 654
6933 2681
6934 654
6935 416
6935 654
6935 1657
6936 655
6937 655
6937 2273
6938 652
6938 655
6939 623
6939 652
6939 655
6939 2878
6940 623
6940 655
6941 655
6941 949
6941 2208
6941 2279
6941 2678
6942 556
6942 655
6943 270
6943 656
6944 656
6945 656
6945 2008
6946 656
6946 1652
6946 1787
6947 657
6948 367
6948 657
6948 5413
6949 72
6949 657
6949 679
6949 823
6949 988
6949 1568
6949 1693
6949 1921
6949 2836
6950 657
6950 1605
6950 1954
6950 2159
6951 657
6951 1450
6951 1572
6951 2533
6951 2535
6952 657
6952 12750
6953 657
6953 835
6953 1244
6953 1329
6953 1712
6953 1818
6953 2187
6953 2322
6953 2695
6953 2831
6954 657
6954 1586
6954 2675
6955 658
6956 658
6956 1661
6957 658
6957 1199
6957 1240
6958 398
6958 658
6958 1432
6959 594
6959 658
6960 569
6960 658
6960 1373
6961 569
6961 658
6961 1373
6961 2962
6961 3158
6962 659
6962 3174
6963 210
6963 659
6963 1965
6963 2299
6964 659
6965 659
6965 1774
6965 2619
6966 659
6966 660
6967 660
6967 857
6967 1362
6967 1896
6967 2755
6967 2807
6968 660
6968 1378
6968 1662
6969 661
6969 2817
6970 530
6970 661
6970 1677
6971 661
6971 2354
6971 3055
6972 661
6972 1054
6972 1254
6972 1642
6972 2540
6973 422
6973 661
6973 2816
6974 662
6974 1811
6975 662
6975 1783
6975 1803
6975 1811
6975 1847
6976 662
6976 1525
6976 1811
6977 341
6977 663
6977 680
6978 663
6978 2298
6979 312
6979 663
6979 1966
6979 2061
6980 663
6981 664
6981 2411
6982 664
6982 1766
6982 1800
6982 2409
6982 2481
6983 664
6983 979
6983 2140
6983 2141
6984 664
6984 697
6984 1766
6984 2776
6984 2777
6984 3945
6985 664
6986 664
6986 682
6986 710
6986 734
6986 765
6986 979
6986 1441
6986 1563
6986 1953
6986 2440
6986 2712
6986 2777
6986 3267
6987 664
6987 2712
6987 3839
6987 12010
6988 665
6988 1174
6988 1520
6988 1538
6988 1569
6988 1570
6988 1827
6988 3061
6989 665
6990 163
6990 665
6990 1472
6990 1520
6991 665
6991 1520
6991 1758
6992 665
6992 2354
6993 666
6993 1792
6993 1793
6994 382
6994 666
6994 1501
6994 1650
6994 1657
6995 666
6995 1981
6996 649
6996 666
6997 666
6998 667
6998 1984
6998 2667
6998 4624
6999 667
6999 785
6999 1049
6999 1717
6999 2241
6999 2971
6999 2972
7000 667
7001 667
7001 1148
7002 667
7002 1049
7002 1078
7002 1717
7002 2971
7003 559
7003 668
7004 668
7005 668
7005 683
7005 1403
7005 1476
7005 2760
7005 2817
7006 668
7006 1507
7006 2402
7006 2403
7007 669
7008 669
7008 2427
7009 670
7010 670
7010 1275
7011 401
7011 671
7011 1295
7012 671
7013 671
7013 1180
7014 672
7014 6390
7015 672
7015 1927
7015 2077
7015 2901
7016 672
7017 673
7018 673
7018 1211
7018 2169
7018 2889
7019 673
7019 1398
7020 308
7020 673
7020 719
7020 869
7021 674
7022 242
7022 674
7023 675
7023 1842
7024 675
7025 676
7025 2907
7026 676
7027 677
7027 11966
7028 677
7029 456
7029 678
7029 3222
7030 456
7030 678
7031 678
7031 2070
7032 678
7033 679
7033 1820
7034 679
7034 12751
7034 12752
7035 679
7036 361
7036 679
7036 3168
7037 307
7037 679
7037 1701
7038 619
7038 679
7038 828
7038 906
7038 2638
7039 328
7039 679
7039 2120
7040 680
7041 680
7041 3093
7042 680
7042 735
7042 1217
7042 1366
7042 2418
7043 680
7043 1366
7043 1746
7044 680
7044 937
7044 1366
7044 1746
7044 2772
7044 2789
7044 2863
7044 3011
7045 376
7045 681
7046 681
7046 2635
7047 681
7048 442
7048 681
7048 705
7048 2235
7048 2523
7049 77
7049 681
7049 803
7049 940
7049 1109
7049 2345
7050 518
7050 681
7051 681
7051 1656
7051 2635
7052 682
7053 682
7053 710
7054 75
7054 683
7055 683
7056 683
7056 903
7056 1032
7056 1602
7057 683
7057 1171
7058 684
7059 684
7059 2029
7060 160
7060 685
7060 1253
7060 1446
7060 2747
7060 2748
7061 685
7062 176
7062 685
7063 685
7063 878
7064 418
7064 686
7065 191
7065 686
7065 2127
7066 422
7066 686
7067 686
7067 2062
7067 12590
7068 686
7069 686
7069 965
7070 687
7070 1148
7070 1304
7070 1932
7070 2183
7070 3116
7070 3117
7071 687
7072 687
7072 1929
7073 179
7073 687
7074 179
7074 687
7074 1148
7074 3024
7075 688
7075 2843
7075 3007
7076 187
7076 688
7077 688
7077 3259
7078 688
7079 187
7079 688
7079 1877
7079 2364
7080 689
7080 2811
7081 689
7082 690
7083 75
7083 690
7084 690
7084 1185
7084 1470
7084 2523
7084 3020
7084 3021
7084 3022
7085 690
7085 858
7086 691
7086 1330
7087 166
7087 691
7087 1387
7087 1567
7087 2282
7088 691
7089 95
7089 691
7089 764
7089 996
7089 1387
7089 2293
7090 531
7090 692
7090 2063
7091 531
7091 692
7092 90
7092 692
7093 692
7093 1053
7094 692
7094 1469
7094 6411
7095 407
7095 692
7095 1772
7096 692
7097 693
7097 871
7097 948
7097 1249
7097 2446
7097 2963
7098 693
7098 3334
7099 693
7100 693
7100 1767
7100 2374
7101 693
7101 756
7101 779
7101 1186
7101 1569
7101 2008
7101 2361
7101 3042
7102 694
7102 922
7103 694
7103 769
7103 836
7104 694
7104 836
7104 1050
7104 1842
7105 694
7105 836
7105 1004
7105 2386
7105 6876
7106 694
7107 695
7107 12753
7108 695
7109 78
7109 696
7110 696
7111 696
7111 4237
7112 697
7112 757
7112 1643
7112 1671
7112 1746
7112 2077
7113 697
7113 907
7114 697
7115 697
7115 3048
7115 12754
7116 698
7116 1545
7116 3208
7116 12755
7117 698
7117 3083
7117 4232
7117 12756
7118 698
7118 1545
7119 698
7120 699
7120 11896
7121 699
7121 2007
7121 2234
7121 11896
7122 11896
7123 699
7123 1103
7123 1480
7123 1731
7123 2304
7123 2547
7123 3291
7123 11896
7124 699
7124 1731
7124 11896
7125 329
7125 700
7125 2586
7125 2894
7126 329
7126 700
7127 700
7128 700
7128 1151
7129 701
7129 1382
7129 1402
7130 489
7130 701
7131 701
7131 3953
7132 701
7133 702
7133 1854
7133 1951
7133 2523
7134 702
7135 702
7135 3021
7136 388
7136 702
7136 1854
7136 1995
7137 442
7137 702
7138 442
7138 681
7138 702
7138 940
7138 2523
7139 248
7139 702
7140 186
7140 702
7141 703
7142 357
7142 703
7142 2015
7142 2833
7143 703
7143 1277
7143 2280
7143 2436
7144 279
7144 703
7145 704
7145 7151
7145 7813
7145 10721
7145 12757
7146 704
7147 704
7147 1436
7148 704
7148 1686
7148 1772
7148 3229
7149 704
7149 768
7149 1065
7149 1534
7149 2673
7150 704
7150 768
7150 772
7150 868
7150 980
7150 1065
7150 1096
7150 1212
7150 1540
7150 1686
7150 2009
7150 2673
7151 704
7151 978
7151 7145
7152 705
7153 333
7153 705
7153 1161
7153 1250
7153 2420
7154 705
7154 1634
7155 452
7155 705
7156 706
7157 706
7157 2209
7158 706
7158 1862
7158 2261
7158 3375
7159 338
7159 339
7159 706
7159 871
7159 2453
7160 379
7160 706
7161 466
7161 706
7161 1935
7162 360
7162 707
7163 707
7163 3080
7164 707
7165 638
7165 707
7166 708
7166 1074
7167 708
7168 709
7168 792
7168 1678
7168 1838
7168 1953
7168 2167
7168 2439
7168 3120
7168 3121
7169 709
7169 1953
7169 2058
7169 2698
7170 709
7170 1860
7171 484
7171 709
7172 709
7173 710
7173 1917
7173 1918
7173 3831
7174 694
7174 710
7175 710
7176 710
7176 2287
7177 711
7178 661
7178 711
7178 2331
7179 711
7179 3042
7180 712
7181 712
7181 6419
7182 713
7183 713
7183 12758
7184 714
7185 714
7185 12759
7186 289
7186 715
7186 953
7186 2162
7187 715
7188 715
7188 804
7188 2163
7188 4638
7189 715
7189 12553
7190 715
7190 2534
7191 716
7192 716
7192 1462
7193 717
7193 2798
7194 717
7195 718
7196 718
7196 2908
7197 718
7197 1500
7197 2960
7198 718
7198 1877
7198 2604
7198 3113
7199 73
7199 718
7200 308
7200 719
7200 2398
7201 308
7201 719
7202 308
7202 719
7202 1543
7202 2416
7203 551
7203 719
7204 719
7204 887
7205 308
7205 719
7205 981
7205 1857
7205 2595
7206 719
7207 720
7208 430
7208 720
7209 721
7209 1602
7210 721
7211 722
7211 7211
7212 722
7213 722
7213 6282
7214 723
7215 723
7215 8101
7216 452
7216 723
7217 723
7217 4173
7218 724
7218 1286
7218 2721
7219 302
7219 724
7220 724
7220 871
7220 1075
7220 1202
7220 1523
7220 1524
7221 724
7222 725
7223 725
7223 1877
7224 187
7224 725
7225 726
7225 1498
7226 726
7227 727
7227 2671
7228 169
7228 727
7229 727
7230 727
7230 1123
7230 1204
7230 1522
7230 1991
7230 2496
7230 2505
7230 2820
7230 2822
7231 728
7231 3096
7232 728
7233 367
7233 728
7234 566
7234 728
7235 403
7235 729
7236 78
7236 729
7237 729
7238 729
7238 2436
7239 443
7239 729
7240 473
7240 729
7241 365
7241 729
7241 2461
7242 730
7242 3018
7243 730
7244 730
7244 1698
7244 3018
7245 375
7245 730
7246 730
7246 5030
7246 6343
7247 731
7247 1140
7247 1416
7247 1478
7247 1758
7247 1837
7247 2094
7247 2737
7247 3160
7248 731
7248 2840
7249 426
7249 731
7250 731
7250 1140
7250 1460
7250 1478
7250 1758
7250 2050
7250 2393
7250 2710
7251 469
7251 731
7251 930
7251 1163
7251 1566
7251 1609
7251 1743
7252 731
7253 408
7253 731
7253 1506
7254 731
7254 1408
7254 2072
7254 2341
7255 732
7255 1918
7255 2126
7255 2756
7255 2757
7255 2758
7256 732
7257 732
7257 965
7258 732
7258 941
7258 2481
7258 3104
7258 3834
7258 3835
7259 733
7259 1738
7259 1748
7259 2350
7259 2419
7260 733
7261 733
7261 3080
7262 628
7262 733
7262 844
7262 1650
7263 400
7263 734
7264 734
7264 843
7264 910
7264 945
7264 1098
7264 1620
7264 1636
7264 1661
7264 3182
7264 3183
7265 734
7265 2440
7266 734
7267 735
7267 3305
7268 735
7269 736
7269 947
7269 1955
7269 2877
7270 736
7270 12760
7271 136
7271 736
7271 2213
7271 2447
7271 2975
7272 736
7273 736
7273 1437
7273 2833
7274 458
7274 737
7275 340
7275 737
7276 737
7277 737
7277 2621
7278 738
7278 2870
7279 738
7279 2335
7279 6878
7280 738
7280 1427
7280 1778
7280 2499
7280 2915
7280 2930
7280 2931
7281 68
7281 621
7281 738
7281 904
7281 2335
7281 2383
7282 68
7282 738
7282 1427
7282 2620
7283 738
7284 739
7285 739
7285 1905
7285 2717
7285 3146
7285 3147
7286 739
7286 3405
7287 740
7287 1700
7288 740
7288 1445
7288 2118
7288 2324
7289 740
7290 740
7290 1305
7290 1476
7291 285
7291 740
7292 286
7292 741
7292 947
7293 687
7293 741
7294 741
7295 741
7295 3312
7296 742
7296 6416
7297 742
7297 1620
7297 2462
7298 742
7298 1620
7298 1661
7298 6645
7299 742
7300 743
7301 455
7301 743
7302 744
7302 3361
7302 12167
7303 744
7303 3155
7304 744
7305 745
7305 965
7306 84
7306 745
7306 2240
7306 2296
7306 2444
7307 745
7308 745
7308 758
7308 2381
7308 3094
7309 746
7309 2704
7310 746
7311 746
7311 1594
7311 1719
7311 1871
7311 2412
7311 2413
7311 2415
7311 2703
7311 10880
7312 365
7312 746
7313 746
7313 2412
7313 12737
7314 746
7314 2413
7314 2704
7314 12761
7315 747
7316 747
7316 2708
7317 747
7317 1782
7317 1902
7317 2708
7318 747
7318 1035
7318 1047
7318 1546
7318 2212
7318 2708
7318 2995
7319 232
7319 747
7320 747
7320 1439
7320 2085
7321 12392
7322 748
7322 5382
7323 749
7323 1845
7324 66
7324 749
7325 749
7326 12762
7327 419
7327 12762
7328 196
7328 750
7329 751
7329 1281
7329 1406
7330 447
7330 751
7331 751
7332 751
7332 1611
7333 751
7333 1041
7333 1568
7333 2194
7334 342
7334 751
7335 447
7335 751
7335 2346
7335 5925
7336 60
7336 752
7336 1247
7337 752
7338 163
7338 752
7338 1119
7338 1174
7339 496
7339 752
7339 1652
7339 2143
7340 752
7340 1013
7341 44
7341 752
7341 1472
7342 753
7342 1096
7343 753
7344 754
7344 1617
7345 754
7346 691
7346 754
7347 194
7347 754
7347 873
7347 1097
7347 1173
7347 2700
7347 2985
7348 755
7348 3685
7349 755
7350 72
7350 755
7351 741
7351 755
7352 755
7352 1468
7352 1605
7352 2019
7352 2701
7353 756
7354 756
7354 779
7354 1860
7354 2361
7355 604
7355 756
7355 2645
7355 2754
7356 757
7357 757
7357 1643
7357 1835
7357 2471
7357 12763
7358 341
7358 757
7359 231
7359 757
7359 2471
7360 757
7360 1765
7361 757
7361 1442
7361 2471
7362 758
7363 758
7363 3512
7364 758
7364 1027
7364 1134
7364 1998
7365 759
7366 759
7366 2955
7367 760
7367 1090
7367 1220
7367 1482
7367 2437
7368 760
7368 2283
7369 760
7370 77
7370 760
7370 2283
7370 3298
7371 181
7371 761
7372 761
7373 762
7374 170
7374 762
7374 1273
7375 762
7375 1949
7376 763
7377 763
7377 1534
7377 2488
7378 763
7378 3114
7379 399
7379 763
7380 764
7381 765
7382 765
7382 1563
7383 766
7384 766
7384 2941
7385 767
7386 767
7386 1088
7387 567
7387 767
7388 768
7388 12764
7389 675
7389 768
7390 768
7391 768
7391 1337
7392 569
7392 768
7392 1104
7393 768
7393 1540
7393 2689
7394 768
7394 978
7394 980
7394 1096
7394 1106
7394 1686
7394 2416
7395 769
7396 121
7396 769
7397 769
7397 1407
7397 1726
7397 2509
7397 2510
7398 769
7398 1020
7398 1095
7398 1325
7398 2322
7398 2941
7398 8453
7399 769
7399 2695
7399 5383
7400 456
7400 678
7400 769
7401 769
7401 2012
7402 500
7402 769
7402 1082
7403 770
7404 770
7404 2178
7405 771
7405 775
7406 771
7407 772
7407 1512
7407 1551
7408 412
7408 772
7409 772
7410 772
7410 2342
7411 773
7412 773
7412 12645
7413 773
7413 4524
7413 5382
7413 12765
7414 334
7414 773
7415 773
7415 1047
7415 1548
7415 6889
7416 419
7416 773
7417 774
7417 1959
7417 2112
7417 2428
7418 718
7418 774
7419 775
7419 1679
7419 1778
7419 2263
7419 2334
7419 2401
7420 776
7420 1656
7420 2952
7421 776
7421 2952
7422 776
7422 1353
7422 1798
7422 2823
7422 2952
7422 3079
7423 777
7424 777
7424 2779
7425 778
7425 1259
7425 2486
7426 778
7426 1583
7427 778
7428 778
7428 885
7428 1669
7428 2218
7429 778
7429 1481
7429 10494
7429 12230
7430 268
7430 778
7430 1259
7430 1654
7431 542
7431 778
7431 1080
7431 1542
7431 1669
7432 779
7433 76
7433 779
7434 779
7434 8186
7434 12767
7435 456
7435 779
7436 779
7436 1678
7437 780
7437 2262
7438 747
7438 780
7438 1039
7438 2332
7439 747
7439 780
7440 780
7441 780
7441 979
7441 1595
7441 2154
7442 781
7443 410
7443 781
7444 781
7444 2216
7444 2291
7444 2292
7445 781
7445 6419
7446 607
7446 781
7447 334
7447 782
7447 900
7447 1203
7447 1260
7447 1718
7447 2992
7448 782
7449 782
7449 1718
7450 334
7450 782
7450 900
7450 1203
7450 1260
7450 1588
7450 1718
7450 2410
7450 2722
7450 2835
7451 783
7451 2285
7452 783
7453 784
7453 2496
7454 784
7454 12768
7455 784
7456 785
7456 1717
7457 785
7458 667
7458 785
7459 641
7459 786
7460 600
7460 786
7461 786
7462 786
7462 6263
7463 787
7463 2592
7464 787
7464 1295
7464 1686
7465 787
7466 787
7466 1580
7466 7789
7467 787
7467 889
7467 1004
7467 1463
7467 1842
7467 2023
7468 656
7468 787
7468 1716
7469 787
7469 1716
7469 2188
7469 2306
7470 788
7470 4472
7471 788
7472 788
7472 1753
7472 12769
7473 788
7473 2119
7473 2356
7473 2553
7473 3317
7473 6647
7474 244
7474 788
7475 354
7475 494
7475 788
7476 789
7477 76
7477 789
7478 9094
7479 790
7479 3023
7480 1150
7480 12599
7481 12599
7482 788
7482 791
7483 791
7483 12553
7484 792
7485 792
7485 794
7486 792
7486 965
7486 1678
7486 2874
7487 792
7487 1137
7487 2002
7487 2018
7487 2508
7488 792
7488 1829
7488 3331
7489 793
7490 793
7490 1501
7490 2182
7490 4698
7491 793
7491 2260
7492 266
7492 793
7492 1158
7492 2260
7493 793
7493 1501
7493 2182
7494 793
7494 885
7494 1158
7494 1669
7494 2182
7495 794
7495 2423
7495 2425
7495 2736
7495 2738
7496 794
7497 792
7497 794
7497 1838
7497 2423
7497 2484
7498 794
7498 2395
7499 794
7499 974
7499 1514
7500 795
7500 2214
7501 795
7502 357
7502 795
7503 796
7503 1751
7503 2395
7503 2542
7503 2543
7503 2599
7503 2880
7503 3134
7503 3135
7504 796
7505 311
7505 796
7506 595
7506 796
7507 796
7507 2257
7507 2319
7507 2543
7507 2599
7508 754
7508 796
7509 796
7509 2309
7510 796
7510 1751
7510 2599
7511 796
7511 2257
7511 2258
7511 2309
7511 2868
7511 2869
7512 797
7512 2865
7513 797
7514 798
7515 798
7515 982
7515 1573
7515 8304
7515 12770
7516 798
7516 982
7517 799
7517 6058
7518 76
7518 799
7519 799
7520 800
7521 609
7521 800
7522 800
7522 1137
7523 330
7523 800
7524 280
7524 800
7525 801
7525 1705
7526 259
7526 801
7526 1130
7526 1705
7526 1881
7527 801
7528 472
7528 802
7529 188
7529 802
7529 1531
7530 802
7531 188
7531 802
7532 333
7532 802
7532 2420
7533 802
7533 1184
7533 1208
7534 460
7534 803
7534 1771
7535 681
7535 803
7536 803
7536 1109
7537 460
7537 803
7537 1109
7537 1470
7538 803
7538 1109
7538 1771
7539 803
7540 76
7540 804
7541 422
7541 804
7541 875
7542 804
7543 76
7543 804
7543 890
7544 715
7544 804
7545 472
7545 804
7546 461
7546 804
7546 1013
7546 1229
7546 1422
7546 1496
7546 2150
7547 805
7547 6588
7548 122
7548 806
7549 806
7549 2923
7550 807
7550 3240
7551 807
7551 1326
7551 3199
7552 808
7552 1910
7553 341
7553 808
7554 245
7554 809
7555 809
7555 12603
7556 810
7557 545
7557 810
7558 811
7559 361
7559 811
7560 811
7560 1781
7561 812
7561 3681
7562 813
7562 1328
7562 1801
7562 2037
7562 10320
7563 813
7563 2196
7563 2429
7563 2430
7563 3424
7564 280
7564 813
7565 813
7565 992
7566 464
7566 813
7566 1126
7567 335
7567 814
7568 814
7568 1819
7568 2422
7568 2529
7568 2976
7569 814
7569 3207
7570 814
7570 2496
7570 2513
7570 2536
7570 2558
7571 352
7571 815
7572 72
7572 815
7573 816
7574 816
7574 1332
7574 1805
7575 77
7575 816
7575 1200
7576 470
7576 816
7577 816
7577 875
7577 940
7577 985
7577 1045
7577 1109
7577 1839
7577 2808
7577 2970
7578 817
7578 2087
7579 603
7579 817
7579 2580
7580 472
7580 817
7580 1167
7581 817
7581 973
7581 1214
7581 1785
7581 1836
7582 817
7583 817
7583 874
7583 1785
7583 2087
7584 76
7584 817
7584 874
7584 1167
7584 1798
7585 556
7585 817
7585 2808
7586 818
7586 3182
7587 818
7588 429
7588 818
7589 580
7589 818
7590 819
7591 659
7591 819
7592 820
7593 820
7593 12771
7594 471
7594 821
7594 1790
7595 821
7595 1162
7596 415
7596 822
7597 822
7597 2560
7598 823
7599 823
7599 1872
7600 824
7601 824
7601 3154
7602 327
7602 824
7602 2572
7602 3195
7603 825
7603 7603
7604 825
7605 825
7605 2754
7606 826
7606 1424
7606 2466
7607 826
7607 2465
7608 826
7609 827
7610 826
7610 827
7611 827
7611 1085
7611 1824
7612 827
7612 1824
7613 828
7614 828
7614 1230
7615 828
7615 1362
7615 2338
7615 2567
7616 829
7617 731
7617 829
7618 829
7618 2702
7619 830
7620 830
7620 2427
7621 830
7621 1257
7621 1851
7622 170
7622 830
7623 830
7623 2222
7623 2379
7623 2721
7623 2878
7623 3194
7624 831
7624 12772
7625 78
7625 831
7626 831
7627 832
7628 832
7628 2164
7629 615
7629 832
7630 832
7630 1002
7630 2158
7630 2287
7630 2690
7631 833
7632 556
7632 833
7632 952
7632 1667
7632 1839
7632 2808
7633 833
7633 2340
7634 833
7634 1242
7634 2195
7634 6417
7635 816
7635 833
7635 875
7635 940
7635 1045
7635 1109
7635 1839
7635 2345
7635 2808
7636 834
7636 1475
7636 2959
7637 834
7637 1898
7638 834
7639 834
7639 987
7639 1898
7639 2659
7639 2925
7640 556
7640 835
7640 935
7640 1482
7640 2420
7640 2795
7641 835
7641 1329
7641 1390
7642 835
7642 1813
7643 835
7644 334
7644 835
7644 898
7644 2407
7645 591
7645 835
7646 836
7646 1004
7647 836
7648 612
7648 836
7649 479
7649 836
7649 1096
7650 694
7650 836
7651 836
7651 1842
7651 3277
7652 837
7652 1041
7652 1177
7652 1866
7653 837
7653 6425
7654 783
7654 837
7655 837
7655 2497
7655 6283
7656 837
7657 74
7657 838
7658 838
7658 1155
7658 1732
7658 1883
7659 838
7659 1883
7660 74
7660 438
7660 838
7661 838
7662 839
7663 839
7663 3896
7664 651
7664 839
7665 840
7665 2316
7666 840
7666 2353
7666 2669
7667 840
7668 840
7668 861
7668 1004
7668 2669
7669 412
7669 840
7670 694
7670 840
7671 541
7671 840
7672 841
7672 2354
7673 841
7674 841
7674 1710
7674 1832
7675 422
7675 841
7675 985
7676 439
7676 841
7677 841
7677 968
7677 1832
7677 2156
7678 422
7678 841
7679 842
7679 849
7679 888
7679 1393
7679 2418
7680 842
7681 842
7681 12599
7682 122
7682 842
7683 842
7683 1480
7683 1657
7684 842
7684 1129
7685 843
7686 843
7686 3276
7687 843
7687 1525
7687 2531
7687 2584
7687 2810
7688 96
7688 844
7689 96
7689 844
7689 1480
7689 2773
7689 2774
7689 2775
7690 844
7690 12773
7691 844
7692 844
7692 1657
7692 1684
7692 2305
7692 2775
7692 2846
7693 567
7693 844
7694 844
7694 932
7694 2304
7695 845
7695 1151
7695 1501
7695 2291
7695 2464
7696 845
7697 845
7697 1151
7698 427
7698 846
7698 909
7699 846
7699 1725
7699 2378
7700 846
7700 1736
7701 846
7702 847
7702 1368
7703 329
7703 847
7704 700
7704 847
7705 847
7706 329
7706 363
7706 847
7707 847
7707 1241
7707 1550
7708 848
7708 1332
7709 93
7709 848
7710 848
7710 1317
7710 1460
7710 1706
7710 2556
7710 2785
7710 3002
7710 3071
7711 848
7711 1317
7711 2428
7712 442
7712 848
7713 848
7714 848
7714 1805
7714 2112
7714 2327
7714 2468
7715 849
7715 888
7715 1571
7715 2239
7715 2404
7716 849
7716 888
7716 7721
7717 849
7717 2813
7718 849
7719 849
7719 1290
7719 1772
7720 849
7720 941
7720 959
7720 1290
7720 1331
7720 1547
7720 3104
7720 3105
7721 849
7721 7716
7722 850
7723 850
7723 2212
7724 419
7724 851
7725 851
7725 2233
7725 7727
7725 12775
7726 851
7727 851
7727 7725
7728 852
7729 852
7729 1891
7730 853
7730 2495
7731 547
7731 853
7732 853
7732 1304
7732 12776
7733 853
7734 853
7734 2067
7734 2959
7734 3200
7734 3260
7735 853
7735 2067
7735 2175
7735 2259
7736 426
7736 853
7736 2204
7737 187
7737 853
7737 2428
7737 2457
7738 853
7738 1826
7738 2428
7738 2456
7738 2457
7738 2635
7739 452
7739 853
7740 538
7740 853
7741 702
7741 853
7742 854
7742 2172
7743 854
7744 195
7744 854
7744 1676
7744 2172
7745 855
7746 855
7746 1325
7746 1647
7747 454
7747 855
7748 855
7748 1313
7749 409
7749 855
7749 2307
7749 2651
7749 3216
7750 856
7751 72
7751 856
7752 78
7752 856
7753 856
7753 943
7753 1817
7753 2787
7753 3558
7754 856
7754 995
7754 2450
7754 4054
7755 447
7755 857
7756 857
7757 409
7757 857
7757 1318
7757 1386
7758 857
7758 1850
7758 2284
7759 338
7759 857
7760 857
7760 2480
7761 369
7761 857
7761 2282
7761 2394
7762 858
7763 858
7763 1615
7764 858
7764 1161
7764 1550
7764 1839
7765 376
7765 858
7765 1865
7765 2273
7766 858
7766 1161
7766 1601
7766 2138
7766 2345
7766 2808
7767 858
7767 1285
7767 1615
7768 410
7768 445
7768 859
7769 416
7769 859
7770 859
7771 445
7771 859
7772 859
7772 933
7773 416
7773 859
7773 1730
7774 860
7774 2225
7774 5545
7775 860
7775 990
7776 860
7776 990
7776 1228
7776 12777
7777 677
7777 860
7778 860
7779 624
7779 860
7779 990
7780 368
7780 860
7781 861
7781 2462
7782 694
7782 861
7783 861
7784 861
7784 1509
7784 1644
7785 244
7785 861
7786 389
7786 861
7786 2353
7787 369
7787 861
7788 419
7788 862
7789 863
7789 7466
7790 187
7790 863
7791 864
7791 12778
7792 193
7792 864
7793 500
7793 865
7794 865
7794 3490
7795 866
7795 1543
7796 866
7797 177
7797 866
7797 1065
7797 1212
7797 2009
7798 867
7798 1819
7798 2378
7798 2438
7798 2440
7799 867
7800 796
7800 867
7801 867
7801 12735
7802 867
7802 11480
7802 12779
7803 866
7803 868
7804 868
7805 868
7805 1558
7806 868
7806 1543
7806 2056
7806 2380
7807 868
7807 10108
7807 12780
7808 868
7808 946
7808 1379
7808 1543
7808 2169
7808 2889
7809 868
7809 2380
7809 12781
7810 869
7811 869
7811 1211
7811 2169
7812 355
7812 869
7813 869
7813 7145
7814 308
7814 719
7814 869
7815 399
7815 869
7816 870
7816 873
7817 440
7817 870
7817 1177
7817 1963
7817 2059
7818 870
7818 1575
7818 1784
7818 1831
7818 2879
7818 3051
7819 74
7819 871
7819 2344
7819 2671
7820 871
7821 871
7821 1971
7822 872
7822 2352
7823 872
7823 1246
7823 1655
7823 2034
7823 2045
7823 2150
7823 2151
7823 2579
7823 2815
7823 3005
7824 335
7824 872
7824 1214
7825 872
7826 335
7826 872
7826 1214
7826 1496
7827 873
7827 1985
7827 6418
7828 194
7828 873
7829 182
7829 873
7830 873
7831 874
7831 1785
7832 874
7832 1785
7832 1886
7833 874
7834 875
7834 2102
7834 2275
7834 2349
7835 556
7835 875
7836 874
7836 875
7837 875
7837 1167
7838 875
7839 833
7839 875
7839 1045
7839 1631
7840 324
7840 875
7841 381
7841 876
7842 876
7843 381
7843 876
7843 3340
7844 332
7844 876
7845 876
7845 1784
7846 877
7846 3022
7847 877
7847 1426
7847 1952
7848 877
7849 681
7849 877
7850 608
7850 877
7851 702
7851 877
7851 1045
7851 3022
7852 878
7852 2220
7853 878
7854 751
7854 878
7855 878
7855 1255
7855 2223
7855 2747
7856 878
7856 2194
7856 2875
7857 515
7857 878
7858 751
7858 878
7858 2144
7858 2194
7859 751
7859 878
7859 1653
7860 879
7861 356
7861 879
7862 483
7862 879
7863 557
7863 879
7864 879
7864 1038
7865 879
7865 1160
7865 1906
7866 880
7866 894
7866 1067
7866 2000
7867 880
7867 1030
7867 1873
7867 2281
7867 2663
7868 455
7868 880
7869 880
7870 242
7870 880
7870 1030
7870 1465
7870 1699
7870 1873
7870 2281
7871 243
7871 881
7872 881
7872 1801
7872 2210
7872 2568
7873 881
7874 881
7874 1404
7874 1530
7875 881
7875 2314
7876 882
7877 882
7877 3033
7878 352
7878 882
7878 947
7878 3033
7879 423
7879 882
7880 883
7880 1906
7880 3112
7880 3335
7881 787
7881 883
7882 883
7883 883
7883 2926
7884 195
7884 883
7885 356
7885 883
7886 884
7886 1490
7886 1990
7886 2036
7887 884
7888 356
7888 884
7889 884
7889 6699
7890 885
7890 2002
7891 885
7892 594
7892 885
7892 2002
7892 3247
7893 885
7893 1594
7893 1669
7893 1802
7894 778
7894 885
7895 886
7895 1585
7895 2436
7896 886
7896 1585
7897 729
7897 886
7898 886
7899 425
7899 886
7900 473
7900 886
7901 403
7901 886
7902 243
7902 887
7902 1211
7903 887
7903 946
7903 1211
7903 1413
7903 1543
7904 887
7904 1211
7904 2238
7905 412
7905 887
7906 887
7906 1211
7907 887
7908 243
7908 887
7909 769
7909 887
7910 308
7910 887
7910 1211
7910 2238
7910 2416
7911 888
7912 849
7912 888
7913 849
7913 888
7913 1288
7914 326
7914 888
7914 2923
7915 888
7915 1076
7915 1815
7916 889
7917 889
7917 2242
7918 889
7918 1436
7918 1769
7919 577
7919 889
7920 889
7920 1043
7920 1095
7920 12634
7921 890
7921 1748
7922 890
7923 60
7923 890
7923 1562
7924 886
7924 890
7924 1585
7925 891
7926 334
7926 891
7927 891
7927 3086
7928 891
7928 1360
7928 1929
7928 1932
7928 3153
7929 781
7929 891
7930 607
7930 891
7931 892
7931 1207
7931 1275
7932 892
7932 998
7932 2584
7933 892
7934 892
7934 2293
7934 2294
7934 2584
7935 892
7935 9203
7936 344
7936 893
7936 1243
7937 291
7937 893
7938 893
7939 893
7939 7977
7940 893
7940 1224
7940 1350
7940 2334
7941 894
7941 1030
7941 2281
7941 2483
7941 3000
7942 894
7942 2589
7943 894
7944 895
7944 2840
7945 895
7946 895
7946 1378
7946 1662
7946 2043
7947 524
7947 895
7948 434
7948 895
7948 1653
7949 896
7949 1794
7950 896
7950 900
7951 896
7952 85
7952 896
7952 3740
7953 896
7953 1068
7953 1486
7953 1625
7953 2131
7953 2639
7953 3088
7953 3119
7954 897
7954 4144
7955 897
7956 897
7956 1923
7956 1974
7956 2592
7956 2603
7957 898
7957 2406
7957 2407
7957 2408
7957 2409
7958 898
7958 2408
7959 898
7960 478
7960 898
7961 899
7962 899
7962 3740
7963 567
7963 899
7964 767
7964 899
7965 900
7966 523
7966 900
7967 900
7967 2992
7968 901
7969 454
7969 901
7970 901
7970 2447
7971 639
7971 901
7972 78
7972 901
7973 455
7973 902
7974 903
7974 2163
7975 904
7975 1427
7975 2335
7976 68
7976 904
7976 1243
7976 2870
7977 904
7977 7939
7978 904
7978 2741
7979 904
7979 1760
7979 2267
7979 2268
7980 905
7980 3230
7981 905
7981 12782
7982 523
7982 905
7983 905
7983 3156
7983 12783
7984 554
7984 905
7984 3176
7984 3291
7985 679
7985 906
7985 993
7986 906
7987 906
7987 1067
7988 679
7988 906
7989 907
7990 908
7990 2424
7991 908
7992 909
7992 2165
7992 2166
7992 3490
7993 448
7993 909
7994 909
7995 909
7995 3467
7996 910
7996 3081
7997 448
7997 910
7997 2136
7998 910
7998 945
7998 996
7998 1199
7999 269
7999 910
8000 910
8001 911
8001 3161
8002 911
8002 1918
8002 2262
8003 456
8003 911
8004 911
8005 911
8005 2262
8005 2385
8005 3186
8006 912
8006 1789
8006 1917
8007 912
8008 612
8008 912
8009 913
8009 2978
8010 913
8011 656
8011 914
8012 914
8013 914
8013 1725
8013 3100
8014 914
8014 1901
8015 339
8015 914
8016 915
8017 281
8017 915
8018 915
8018 2166
8019 916
8019 1911
8019 1914
8019 1916
8020 916
8021 397
8021 916
8021 2126
8021 2918
8022 916
8022 2634
8023 916
8023 1006
8023 1724
8023 2126
8023 2158
8024 402
8024 916
8024 2287
8024 2342
8025 916
8025 2126
8025 2757
8026 768
8026 916
8026 1597
8027 917
8027 10400
8027 12784
8028 917
8028 5632
8028 12785
8029 347
8029 918
8030 918
8030 6420
8031 918
8031 6197
8031 12663
8032 919
8032 2766
8033 919
8033 1875
8033 2963
8034 920
8034 1682
8034 2148
8035 920
8035 1682
8036 920
8036 1682
8036 1765
8036 2069
8036 2397
8036 2844
8037 920
8037 1682
8037 2277
8037 2509
8037 2602
8038 231
8038 920
8038 2077
8038 2148
8038 2520
8039 921
8039 12084
8040 836
8040 922
8041 923
8041 1868
8042 924
8042 1814
8043 925
8043 2822
8044 925
8044 1991
8044 2047
8044 2705
8044 2822
8044 3103
8044 3212
8044 4069
8045 926
8046 926
8046 1072
8047 926
8047 1747
8047 3145
8048 594
8048 927
8049 927
8050 312
8050 927
8050 1844
8050 4133
8051 400
8051 927
8052 927
8052 2688
8053 928
8053 2509
8054 928
8055 408
8055 929
8055 1508
8055 2029
8056 929
8056 1183
8057 343
8057 930
8058 930
8058 1319
8058 1356
8059 76
8059 930
8060 930
8060 1163
8060 1345
8060 1858
8060 2848
8060 2849
8061 930
8061 1119
8061 1163
8061 3185
8062 758
8062 931
8063 931
8063 2307
8064 205
8064 931
8064 1122
8064 2100
8065 931
8065 1624
8065 2451
8066 931
8066 1034
8066 1852
8066 2628
8066 3032
8066 3094
8066 3095
8066 3980
8067 931
8067 1852
8067 2451
8067 2552
8067 2628
8067 2852
8068 931
8068 1381
8068 2552
8068 2627
8068 2852
8069 932
8070 932
8070 1359
8071 96
8071 932
8071 1066
8072 932
8072 1256
8072 1270
8073 96
8073 932
8073 1256
8073 1359
8073 1480
8073 1731
8074 933
8075 933
8075 2421
8075 2473
8075 2606
8075 3241
8076 933
8076 1728
8077 934
8078 319
8078 934
8079 361
8079 934
8080 934
8080 1231
8080 1425
8081 934
8081 1252
8082 935
8083 935
8083 1631
8084 188
8084 935
8085 936
8086 923
8086 936
8087 936
8087 3293
8088 455
8088 936
8088 977
8089 451
8089 936
8090 451
8090 936
8090 1407
8091 936
8091 1315
8091 1516
8092 937
8093 937
8093 1192
8093 1430
8094 680
8094 937
8095 937
8095 1553
8095 2746
8095 2772
8095 2779
8095 2780
8096 937
8096 1366
8097 895
8097 937
8098 115
8098 938
8098 1619
8099 938
8099 2559
8100 939
8100 4659
8101 939
8101 7215
8102 940
8103 858
8103 940
8104 940
8104 1285
8104 1854
8104 2191
8105 941
8106 941
8106 1845
8107 121
8107 942
8108 875
8108 942
8109 942
8110 769
8110 942
8111 943
8112 744
8112 943
8113 913
8113 943
8114 943
8114 3075
8115 944
8116 944
8116 1462
8116 2295
8117 727
8117 944
8118 944
8118 2295
8119 944
8119 1382
8119 1419
8119 3016
8119 3017
8119 3018
8119 3019
8120 945
8120 3831
8121 945
8122 946
8122 1413
8122 1543
8123 946
8123 6106
8123 12786
8124 946
8124 2889
8125 673
8125 946
8126 946
8127 947
8128 280
8128 947
8128 1524
8129 947
8129 2953
8130 947
8130 1703
8130 2528
8130 2629
8130 2856
8131 326
8131 451
8131 947
8131 2389
8132 409
8132 857
8132 948
8132 2307
8133 948
8134 948
8134 1157
8135 949
8136 949
8136 1369
8136 2171
8136 2273
8136 2561
8136 2678
8136 2955
8137 949
8137 2873
8138 949
8138 2279
8138 2678
8139 353
8139 452
8139 949
8139 2678
8140 949
8140 967
8140 2233
8140 2279
8141 949
8141 1221
8141 1224
8141 2168
8141 2207
8141 2279
8141 2487
8141 2678
8142 488
8142 950
8143 950
8144 753
8144 950
8145 664
8145 950
8145 1469
8145 2306
8146 950
8146 2001
8147 950
8147 1469
8147 1661
8148 596
8148 951
8149 951
8150 951
8150 1028
8150 1059
8150 1516
8150 1847
8150 2655
8151 951
8151 1847
8151 2818
8152 465
8152 951
8153 951
8153 2818
8154 952
8155 817
8155 952
8156 952
8156 1167
8156 1822
8156 1839
8156 2808
8157 952
8157 3233
8158 404
8158 952
8158 1502
8159 556
8159 952
8159 2087
8160 952
8160 1822
8160 1839
8161 472
8161 952
8162 953
8162 2162
8162 2288
8163 953
8163 2819
8164 953
8164 1140
8164 2162
8164 2288
8165 953
8166 953
8166 1140
8166 1225
8166 1293
8166 2050
8166 2737
8167 80
8167 954
8168 954
8168 9026
8168 12787
8169 955
8169 3004
8170 755
8170 956
8171 956
8171 1021
8172 957
8172 1067
8173 957
8173 12220
8174 958
8174 2349
8174 2733
8174 2790
8174 3066
8174 3072
8174 3073
8174 3629
8175 958
8176 958
8176 2330
8176 2790
8177 839
8177 958
8178 959
8178 2509
8178 2639
8179 959
8180 849
8180 959
8181 960
8182 960
8182 1120
8183 960
8183 1762
8183 1786
8184 119
8184 960
8185 961
8186 961
8186 7434
8187 335
8187 961
8187 1305
8187 3344
8188 76
8188 961
8188 1205
8189 666
8189 961
8190 962
8191 438
8191 962
8192 74
8192 962
8192 1883
8193 74
8193 962
8194 963
8194 5054
8195 963
8196 738
8196 963
8197 170
8197 963
8197 1048
8198 963
8198 975
8198 1250
8198 2053
8199 964
8200 370
8200 964
8201 964
8201 12788
8202 964
8202 1349
8202 3269
8203 964
8203 3269
8204 965
8204 2427
8205 965
8206 214
8206 965
8207 965
8207 1864
8207 2115
8208 519
8208 965
8209 357
8209 965
8210 966
8211 966
8211 2194
8211 6188
8212 280
8212 966
8212 1730
8213 966
8213 1517
8213 1933
8214 966
8214 1517
8215 453
8215 966
8216 967
8217 967
8217 1860
8218 967
8218 1327
8218 2336
8219 333
8219 967
8220 416
8220 968
8221 968
8222 968
8222 2214
8223 968
8223 1832
8223 2156
8224 968
8224 991
8224 1807
8224 2333
8224 2429
8224 2767
8225 410
8225 968
8225 1113
8226 968
8226 1113
8226 1477
8226 2214
8227 969
8228 957
8228 969
8229 969
8229 12789
8230 969
8230 1351
8230 1781
8230 2902
8230 2903
8230 6422
8231 970
8232 326
8232 970
8233 970
8233 2814
8234 971
8235 971
8235 3492
8236 76
8236 972
8237 972
8238 972
8238 2322
8239 759
8239 972
8240 973
8241 973
8241 1054
8241 1136
8241 1357
8241 1798
8241 2798
8242 452
8242 973
8243 248
8243 422
8243 973
8244 422
8244 973
8245 415
8245 973
8245 1305
8246 405
8246 973
8247 248
8247 973
8248 973
8248 1445
8248 1734
8248 2118
8249 973
8249 1507
8249 2402
8250 973
8250 2163
8251 974
8252 974
8252 1060
8252 1514
8253 974
8253 3318
8254 974
8254 1490
8254 1990
8254 2036
8255 330
8255 974
8255 2202
8256 425
8256 974
8257 446
8257 974
8257 1037
8257 1514
8258 975
8258 1820
8258 1831
8259 975
8260 975
8260 2786
8261 965
8261 975
8262 265
8262 975
8262 1177
8263 963
8263 975
8264 188
8264 975
8265 976
8266 976
8266 3189
8267 976
8267 1479
8267 2325
8267 3189
8268 976
8268 1694
8268 2707
8269 977
8270 977
8270 2910
8271 936
8271 977
8272 312
8272 977
8272 2061
8273 326
8273 977
8273 1335
8273 1411
8274 937
8274 977
8275 965
8275 977
8276 326
8276 977
8276 1904
8277 978
8277 2229
8277 3043
8277 3044
8277 3045
8277 3047
8277 3221
8277 6277
8278 978
8278 2169
8279 978
8280 887
8280 978
8281 412
8281 978
8282 978
8282 1543
8282 2416
8283 573
8283 978
8284 869
8284 978
8285 978
8285 980
8285 1065
8285 1213
8286 355
8286 978
8286 1204
8287 979
8288 979
8288 3231
8289 979
8289 2039
8289 2140
8290 979
8290 2039
8290 2140
8290 2141
8291 978
8291 980
8292 980
8292 1212
8293 868
8293 980
8294 980
8295 336
8295 980
8295 1534
8296 980
8296 1065
8296 1686
8296 2673
8297 980
8297 1065
8297 1212
8297 2009
8297 2411
8298 768
8298 980
8299 981
8300 308
8300 981
8301 981
8301 1046
8301 2011
8301 2130
8301 2431
8301 2711
8301 2978
8302 982
8303 680
8303 982
8303 1217
8304 982
8304 2176
8304 3307
8304 7515
8305 983
8306 728
8306 983
8307 983
8307 3707
8308 983
8308 1730
8308 3707
8309 984
8310 984
8310 2762
8311 898
8311 984
8312 984
8312 1003
8312 1052
8313 628
8313 984
8313 1003
8314 976
8314 984
8314 1782
8315 984
8315 1546
8315 10119
8315 12790
8316 392
8316 985
8317 985
8317 1384
8317 2920
8318 985
8319 835
8319 985
8319 1304
8320 446
8320 985
8321 985
8321 3210
8322 319
8322 985
8322 1900
8323 986
8323 1459
8323 1621
8323 1767
8323 2060
8323 2442
8323 2446
8323 3226
8324 986
8324 3226
8325 987
8325 2204
8326 988
8326 2526
8327 989
8327 1433
8327 2236
8328 838
8328 989
8329 989
8329 1433
8329 1732
8329 2991
8330 989
8330 3169
8331 956
8331 989
8332 990
8332 2392
8332 10240
8333 860
8333 990
8333 2316
8334 990
8334 1228
8335 991
8336 991
8336 1012
8336 1036
8336 1555
8336 1718
8336 2079
8336 2410
8336 3154
8336 3167
8337 991
8337 2300
8338 992
8339 992
8339 2991
8340 993
8341 993
8341 2431
8342 525
8342 993
8343 984
8343 994
8344 994
8345 201
8345 994
8345 3110
8346 168
8346 994
8347 994
8347 2546
8348 995
8349 995
8349 1946
8350 995
8350 1536
8350 3242
8351 996
8352 910
8352 996
8353 996
8353 1434
8354 169
8354 996
8355 996
8355 1795
8355 2858
8356 946
8356 997
8356 1413
8357 997
8358 308
8358 719
8358 997
8359 401
8359 997
8360 997
8360 2972
8361 946
8361 997
8362 998
8363 892
8363 998
8364 999
8365 999
8365 12722
8366 1000
8366 1414
8367 1000
8368 1001
8369 769
8369 1001
8370 820
8370 1001
8371 330
8371 1001
8372 1002
8372 1481
8372 1491
8372 1724
8372 2126
8372 2511
8372 2918
8373 1002
8373 1006
8374 1002
8374 2148
8374 2149
8374 3049
8375 1002
8375 1551
8375 1869
8375 2531
8375 2809
8375 2810
8376 1002
8377 1002
8377 1571
8377 2901
8378 400
8378 1002
8379 984
8379 1003
8380 382
8380 1003
8381 1003
8381 1190
8381 1645
8382 1003
8383 193
8383 1003
8383 1645
8384 360
8384 1003
8385 1004
8385 3277
8386 860
8386 990
8386 1004
8387 1004
8388 694
8388 836
8388 1004
8388 2091
8389 1005
8390 1005
8390 2278
8390 3076
8391 448
8391 1005
8392 189
8392 1005
8393 1005
8393 1885
8394 429
8394 1005
8394 1885
8395 1006
8395 1098
8395 1337
8396 1006
8396 2041
8397 1006
8398 916
8398 1006
8398 2126
8398 2158
8399 1006
8399 1217
8399 1530
8399 2316
8400 594
8400 1006
8401 916
8401 1006
8402 1007
8403 1007
8403 2902
8404 1008
8405 1008
8405 1085
8406 1009
8406 6267
8407 1009
8408 1009
8408 12674
8409 1010
8409 6553
8410 1010
8411 291
8411 1010
8411 1471
8412 1010
8412 1542
8412 1914
8412 3094
8412 5115
8413 439
8413 1011
8413 1352
8414 1011
8414 1949
8414 2214
8415 795
8415 1011
8416 445
8416 1011
8417 1011
8418 510
8418 1012
8419 555
8419 1012
8420 1012
8420 2038
8421 1012
8422 1012
8422 1234
8422 2079
8423 555
8423 1012
8423 2181
8423 2854
8424 330
8424 1012
8424 1060
8425 533
8425 1012
8425 1755
8426 1012
8426 1555
8426 1745
8426 2079
8427 1013
8428 1013
8428 1422
8428 2402
8429 1013
8429 1836
8430 75
8430 1013
8430 1841
8430 2127
8431 1014
8432 1014
8432 1498
8432 1499
8433 1014
8433 1498
8433 1499
8433 2110
8434 1014
8434 6414
8435 1014
8435 1420
8435 1821
8435 1937
8435 2675
8436 1015
8437 76
8437 1015
8437 1981
8438 1015
8438 3054
8439 1015
8439 1077
8439 1979
8439 4636
8439 4638
8440 193
8440 1015
8440 2546
8441 335
8441 1015
8442 1013
8442 1016
8443 1016
8443 5553
8444 398
8444 1016
8445 1016
8446 76
8446 1016
8446 2349
8446 2790
8446 3098
8447 1017
8447 1195
8448 436
8448 1018
8449 446
8449 1019
8450 884
8450 1019
8450 1990
8450 2355
8451 884
8451 1019
8452 1019
8452 1990
8452 2355
8453 1020
8453 1993
8453 6509
8453 7398
8454 1020
8454 2941
8455 769
8455 1020
8455 1649
8456 76
8456 1020
8457 769
8457 1020
8457 2534
8457 2585
8457 3085
8458 1021
8459 1022
8460 1022
8460 1499
8461 557
8461 1022
8462 1023
8462 3145
8463 1023
8464 944
8464 1023
8465 1024
8465 12791
8466 1024
8466 1273
8466 2320
8467 1024
8467 1754
8468 1024
8469 1025
8469 12792
8470 1025
8470 4610
8471 1026
8471 3201
8472 434
8472 466
8472 1026
8472 1935
8473 894
8473 1026
8474 1027
8474 1852
8474 1998
8474 2628
8474 2705
8474 2706
8474 2942
8474 3032
8475 1027
8475 2706
8476 1027
8476 1852
8476 1998
8476 2628
8476 2705
8476 2706
8476 2942
8477 931
8477 1027
8477 1034
8478 1027
8478 1071
8478 1719
8478 6552
8478 6554
8479 1028
8479 1164
8480 1028
8480 1059
8480 1574
8481 596
8481 1028
8482 951
8482 1028
8483 1029
8483 3326
8484 1030
8484 1465
8484 2173
8484 2281
8484 2735
8484 3000
8485 1030
8485 2281
8486 1030
8486 1067
8486 2000
8486 2281
8487 1031
8487 1168
8488 1031
8488 1168
8488 1169
8488 2817
8489 1031
8489 2150
8489 2324
8490 406
8490 1032
8491 1033
8491 3404
8492 931
8492 1034
8493 1034
8494 931
8494 1034
8494 1097
8494 1606
8494 2030
8495 931
8495 1034
8495 1852
8496 1034
8496 1852
8496 1998
8497 1034
8497 1672
8498 1035
8499 976
8499 1035
8500 1035
8500 1548
8500 1810
8500 2563
8500 2564
8501 1035
8501 1152
8502 976
8502 1035
8502 2251
8502 2325
8503 1035
8503 2251
8503 2325
8504 1036
8504 6403
8505 357
8505 1036
8506 1036
8507 1036
8507 3702
8507 5822
8508 1037
8509 280
8509 1037
8509 1748
8510 1037
8510 1585
8511 443
8511 1037
8512 425
8512 1037
8513 1038
8514 1038
8514 2319
8515 1038
8515 1074
8515 1559
8516 203
8516 1038
8517 926
8517 1038
8518 890
8518 1039
8519 1039
8520 1039
8520 1058
8520 1844
8520 2262
8520 2298
8520 2756
8520 3028
8521 1040
8522 1040
8522 1824
8523 1040
8523 1621
8523 1622
8524 429
8524 1040
8525 1041
8525 2810
8526 1041
8527 837
8527 1041
8527 1177
8528 377
8528 1041
8528 1249
8529 448
8529 1041
8529 1862
8530 65
8530 1041
8531 313
8531 1041
8531 2220
8532 1041
8532 1123
8532 1300
8533 540
8533 1042
8533 1415
8534 1042
8534 1374
8534 2597
8535 1042
8536 1042
8536 1374
8536 2519
8536 2571
8536 2597
8537 430
8537 994
8537 1042
8538 994
8538 1042
8539 1043
8539 2064
8540 1043
8541 1043
8541 6263
8541 12561
8542 1044
8542 2398
8543 1044
8543 1169
8543 1476
8544 1044
8545 355
8545 1044
8546 1045
8547 877
8547 1045
8547 1358
8548 875
8548 1045
8548 1667
8548 2102
8549 877
8549 1045
8550 1045
8550 2121
8551 468
8551 1045
8551 1285
8552 1046
8552 2237
8553 1046
8553 1816
8553 4643
8554 1046
8554 1596
8554 1736
8554 2431
8554 2433
8555 628
8555 1046
8556 78
8556 1046
8557 201
8557 1046
8557 2431
8558 1046
8558 1498
8558 2242
8559 1046
8560 1047
8561 540
8561 1047
8562 1047
8562 1152
8562 1986
8562 5462
8563 1048
8564 1048
8564 1151
8564 6699
8565 567
8565 1048
8566 196
8566 1048
8567 1049
8568 667
8568 1049
8568 1717
8568 1984
8569 667
8569 1049
8570 1049
8570 1516
8571 1050
8572 1050
8572 1337
8573 768
8573 1050
8574 399
8574 1050
8575 1050
8575 2294
8575 2983
8576 1051
8577 1052
8578 1052
8578 2078
8579 785
8579 1053
8580 1053
8581 1054
8581 1648
8581 1663
8582 1054
8582 2150
8582 2151
8582 3236
8583 1054
8584 347
8584 1054
8585 872
8585 1054
8586 76
8586 1054
8587 1054
8587 2927
8588 1055
8589 189
8589 1055
8590 894
8590 12632
8591 12632
8592 281
8592 12632
8593 3268
8593 3270
8593 12632
8594 1056
8594 1494
8595 1056
8595 1914
8595 1973
8595 2491
8596 215
8596 1056
8597 671
8597 1057
8598 399
8598 1057
8599 1057
8600 1057
8600 1099
8601 1058
8602 1058
8602 1491
8603 1058
8603 1411
8603 1775
8604 1058
8604 1411
8604 2660
8604 2863
8604 2865
8604 3028
8605 1059
8605 2187
8606 1059
8607 312
8607 1059
8607 1574
8608 1059
8608 2187
8608 2776
8609 1059
8609 1574
8609 2187
8609 2776
8610 883
8610 1059
8610 1074
8610 1969
8611 341
8611 1059
8611 1516
8612 766
8612 1059
8613 312
8613 1059
8613 1574
8613 2187
8614 1060
8615 1060
8615 3691
8616 72
8616 1060
8616 1539
8617 1060
8617 2664
8617 2774
8618 72
8618 1060
8619 995
8619 1060
8619 3696
8620 1060
8620 1740
8620 12794
8621 1061
8622 1038
8622 1061
8623 1062
8624 1062
8624 2587
8625 1062
8625 1772
8625 2178
8625 2320
8626 1063
8627 1063
8627 12795
8628 1063
8628 10633
8629 1063
8629 1550
8629 10633
8630 1064
8631 1064
8631 1339
8632 626
8632 1064
8633 440
8633 1064
8633 6810
8634 1065
8635 1065
8635 2688
8636 519
8636 1065
8637 1065
8637 2306
8637 3158
8638 980
8638 1065
8639 1066
8640 247
8640 1066
8641 193
8641 1066
8641 6424
8642 1066
8642 1116
8643 382
8643 1066
8643 2304
8644 193
8644 1066
8645 714
8645 1066
8646 173
8646 1067
8646 1461
8647 1067
8648 1067
8648 1812
8649 214
8649 1067
8650 952
8650 1067
8651 1068
8652 1068
8652 1088
8652 1892
8652 2300
8652 2631
8653 1068
8653 1486
8654 1069
8655 1069
8655 2986
8656 1069
8656 1763
8656 2763
8657 1070
8658 1070
8658 10685
8658 12796
8659 1070
8659 1779
8659 1780
8660 1070
8660 1959
8661 1071
8662 852
8662 1071
8663 807
8663 1071
8664 784
8664 1071
8665 1072
8666 1072
8666 9164
8667 1072
8667 1097
8667 1330
8667 2167
8667 2309
8667 2502
8667 2868
8668 203
8668 1072
8668 1626
8669 1038
8669 1072
8669 2015
8670 290
8670 1072
8671 1072
8671 1277
8671 2899
8671 3516
8672 78
8672 1072
8673 1073
8674 1073
8674 3615
8675 1073
8675 1162
8675 1858
8676 472
8676 1073
8677 1074
8678 1074
8678 5416
8679 557
8679 1074
8680 1038
8680 1074
8681 473
8681 1075
8681 1518
8681 1978
8682 1075
8683 974
8683 1075
8683 1585
8683 2129
8684 1075
8684 12797
8685 65
8685 1075
8686 1075
8686 1280
8686 1710
8687 1076
8688 1076
8688 2260
8688 6392
8689 1076
8689 1197
8690 1077
8691 1015
8691 1077
8692 1077
8692 2419
8693 1078
8694 1078
8694 6559
8695 1049
8695 1078
8696 667
8696 1078
8697 1079
8697 1346
8697 2235
8698 186
8698 1079
8699 1081
8700 1081
8700 2251
8701 1082
8702 1082
8702 1565
8702 2522
8703 1082
8703 1404
8704 1083
8705 1083
8705 1637
8706 248
8706 1083
8707 76
8707 1083
8708 451
8708 1083
8709 248
8709 1083
8709 2550
8710 1084
8710 1672
8710 2573
8711 1084
8711 2366
8712 1084
8713 1041
8713 1084
8714 1084
8714 1313
8714 1338
8714 2366
8715 476
8715 1084
8716 1085
8717 1085
8717 3685
8718 827
8718 1085
8719 826
8719 1085
8720 1086
8721 1086
8721 12798
8722 451
8722 1086
8723 1087
8724 346
8724 1087
8725 1087
8725 1845
8726 1088
8727 1088
8727 2775
8728 1089
8729 1089
8729 1812
8730 728
8730 1089
8731 448
8731 1089
8732 1090
8733 1090
8733 1425
8733 2360
8734 188
8734 1090
8735 1090
8735 2360
8736 1090
8736 1425
8736 2359
8736 2360
8737 121
8737 1090
8738 10368
8739 1091
8739 4436
8740 1092
8741 1092
8741 2098
8742 1093
8742 1370
8742 2394
8743 1093
8743 6398
8744 1093
8745 837
8745 1093
8746 665
8746 1093
8747 1094
8748 122
8748 1094
8749 1094
8749 6395
8750 1094
8750 12799
8751 1095
8752 766
8752 1095
8753 1095
8753 12554
8754 1095
8754 1713
8755 1096
8756 1050
8756 1096
8757 709
8757 1096
8757 1525
8757 2522
8758 1096
8758 1379
8758 2889
8759 768
8759 1096
8759 2673
8760 840
8760 1096
8761 370
8761 1096
8762 978
8762 1096
8763 1097
8763 3032
8764 1097
8764 2537
8764 2541
8764 2549
8764 2700
8764 11835
8764 12800
8765 1097
8765 2290
8765 2512
8765 2549
8765 2700
8766 1098
8767 541
8767 1098
8768 1098
8768 1842
8769 1098
8769 2098
8769 12801
8770 400
8770 1098
8771 541
8771 1098
8771 1890
8772 1099
8773 1100
8774 90
8774 1100
8775 1100
8775 9902
8776 759
8776 1100
8777 1101
8777 6395
8778 1101
8779 1094
8779 1101
8780 1102
8781 464
8781 1102
8781 2877
8782 1102
8782 2429
8783 66
8783 424
8783 1102
8784 1103
8785 193
8785 1066
8785 1103
8786 844
8786 1103
8787 1066
8787 1103
8788 1103
8788 2547
8789 1069
8789 1103
8789 1480
8790 532
8790 1104
8790 1259
8791 1104
8792 399
8792 1104
8793 117
8793 1104
8794 1104
8794 1413
8794 1573
8795 1104
8795 1661
8796 460
8796 803
8796 1105
8797 1105
8798 54
8798 1105
8799 477
8799 1105
8800 408
8800 1105
8801 1106
8801 2286
8801 2676
8802 1106
8803 1106
8803 1889
8804 980
8804 1106
8805 541
8805 1106
8805 2009
8806 1106
8806 1494
8806 1916
8806 2676
8806 6411
8807 1107
8808 1106
8808 1107
8809 1064
8809 1107
8810 1108
8810 1185
8811 1109
8811 2121
8812 477
8812 1109
8813 460
8813 1109
8813 1470
8814 44
8814 1109
8814 2121
8815 1110
8815 1139
8815 1619
8816 1110
8816 1139
8817 1110
8818 1111
8818 2336
8819 1111
8819 1232
8819 1743
8819 1828
8819 1959
8819 1962
8819 1970
8819 2095
8819 2925
8820 1111
8821 1111
8821 1877
8821 2311
8821 2556
8821 2604
8822 1111
8822 1163
8822 1840
8822 2358
8823 1112
8824 68
8824 1112
8824 2934
8825 187
8825 1112
8826 1112
8826 3166
8827 1113
8827 1457
8827 1589
8828 968
8828 1113
8828 1589
8829 968
8829 1113
8830 1113
8831 1114
8831 3031
8831 3133
8832 1114
8832 2720
8833 1114
8834 1115
8835 937
8835 1115
8836 1116
8837 1116
8837 3019
8838 641
8838 1117
8839 1117
8840 1070
8840 1117
8841 1118
8842 1118
8842 9162
8843 1119
8843 2349
8843 2761
8844 1119
8844 1319
8844 1855
8844 2349
8844 2504
8845 661
8845 1119
8846 1120
8846 2939
8847 1121
8847 2159
8848 120
8848 1121
8848 1147
8849 947
8849 1121
8850 1122
8850 1866
8850 2015
8850 2058
8850 2261
8850 2290
8850 2612
8850 2749
8850 3012
8851 1122
8851 1381
8851 2552
8851 2627
8851 2628
8852 1122
8852 2744
8853 1122
8853 2512
8853 2552
8853 2627
8854 1123
8855 512
8855 1123
8855 2496
8855 2705
8855 2744
8855 2822
8856 1123
8856 1522
8856 3108
8857 1123
8857 2182
8858 639
8858 1123
8859 1041
8859 1123
8860 1124
8861 1098
8861 1124
8862 244
8862 1124
8863 881
8863 1124
8863 2182
8863 2210
8864 1124
8864 2531
8865 1124
8865 1636
8865 1958
8865 2023
8866 1124
8866 1850
8866 10129
8867 614
8867 1124
8868 1004
8868 1125
8869 1125
8869 2391
8870 1125
8871 1126
8872 1040
8872 1126
8873 342
8873 1126
8874 342
8874 1126
8874 1280
8875 557
8875 1126
8876 818
8876 1126
8877 971
8877 1126
8878 1126
8878 2333
8879 429
8879 1126
8880 1126
8880 1518
8880 2434
8881 1127
8882 359
8882 1127
8883 1127
8883 12771
8884 979
8884 1127
8884 1441
8885 1128
8886 1128
8886 6399
8887 966
8887 1128
8888 1129
8888 1769
8888 2214
8888 2426
8888 2427
8889 1129
8890 1129
8890 6415
8891 1130
8892 843
8892 1130
8893 393
8893 1130
8894 1130
8894 1534
8895 407
8895 1130
8896 1131
8897 1131
8897 2066
8898 1131
8898 1405
8898 1744
8898 2066
8899 1131
8899 1405
8899 1744
8900 397
8900 1131
8900 1327
8901 647
8901 1131
8902 1132
8903 1132
8903 1734
8904 458
8904 1132
8905 908
8905 1133
8906 1133
8906 1475
8906 1503
8906 1511
8906 1855
8906 2843
8906 2957
8907 1119
8907 1133
8907 1894
8907 2272
8907 2637
8908 1133
8908 2204
8909 1133
8909 1503
8909 1962
8909 2272
8910 1133
8911 953
8911 1133
8912 1134
8912 2543
8913 1134
8913 2296
8913 2610
8913 2677
8913 2683
8914 471
8914 1135
8915 1135
8915 1791
8916 1136
8916 5588
8916 12148
8917 1136
8917 2264
8918 1137
8918 1600
8918 1880
8919 1137
8920 1137
8920 2770
8921 1138
8921 2591
8922 1139
8922 1834
8922 2143
8922 2339
8923 1140
8924 1140
8924 2188
8925 718
8925 1140
8926 647
8926 1140
8926 3109
8926 3263
8927 1140
8927 1460
8927 1758
8927 2094
8928 1141
8928 1189
8929 587
8929 1142
8930 1142
8930 2965
8931 1143
8932 361
8932 1143
8933 1144
8934 112
8934 1144
8935 1144
8935 2382
8936 1145
8936 12717
8937 1145
8937 4403
8937 4975
8938 1145
8938 1509
8938 5381
8938 5383
8939 3
8939 1145
8939 2240
8939 3595
8939 9508
8939 12802
8940 1145
8940 12803
8941 1073
8941 1146
8942 1146
8942 2143
8942 6042
8943 76
8943 1146
8944 71
8944 1147
8945 1147
8945 1915
8945 2219
8945 2465
8946 1147
8946 2887
8947 667
8947 1148
8947 1339
8947 1997
8948 1148
8949 1148
8949 1572
8949 2533
8949 2535
8949 3315
8950 1148
8950 1244
8950 2135
8951 440
8951 1148
8951 1395
8952 1148
8952 1929
8953 72
8953 1148
8954 10457
8955 584
8955 9563
8956 1149
8956 2983
8957 12558
8958 419
8958 1150
8959 1634
8959 12558
8960 1151
8961 830
8961 1151
8962 1152
8963 976
8963 1152
8964 1152
8964 3265
8965 627
8965 1152
8965 1650
8966 1153
8967 540
8967 1153
8968 409
8968 1153
8969 1154
8970 369
8970 1154
8970 2394
8971 1154
8971 12804
8972 448
8972 1154
8973 1155
8974 1155
8974 6402
8975 74
8975 1155
8976 989
8976 1155
8976 1433
8976 2236
8977 838
8977 1155
8978 989
8978 1155
8978 1433
8979 1156
8980 346
8980 1156
8981 1156
8981 1654
8981 2634
8982 454
8982 1156
8982 1630
8983 268
8983 1156
8984 1156
8984 1558
8985 1157
8986 331
8986 1157
8986 2043
8987 846
8987 1157
8988 1157
8988 3375
8989 1157
8989 1302
8989 2308
8990 639
8990 1157
8991 1158
8992 268
8992 1158
8992 1630
8993 573
8993 1158
8994 1156
8994 1158
8994 2314
8995 765
8995 1158
8996 1084
8996 1158
8997 1158
8997 2718
8998 503
8998 1158
8999 1159
8999 1854
8999 2823
9000 1159
9001 705
9001 1159
9002 170
9002 1160
9002 1518
9003 1160
9003 2236
9004 1160
9005 1102
9005 1160
9006 1160
9006 1320
9006 1622
9007 1160
9007 1906
9007 2236
9007 2900
9007 12182
9008 904
9008 1161
9008 2180
9009 1161
9009 1491
9009 2499
9010 1161
9011 1161
9011 2489
9012 77
9012 1161
9012 2334
9012 2561
9012 2818
9012 3077
9013 975
9013 1161
9013 1350
9014 623
9014 1161
9015 1162
9016 1162
9016 1549
9017 408
9017 1162
9018 1073
9018 1162
9019 472
9019 1162
9020 1163
9020 1418
9020 2311
9021 1163
9022 1163
9022 1183
9022 1609
9022 2927
9023 1163
9023 1354
9024 1164
9025 1164
9025 2452
9026 1164
9026 8168
9027 1165
9028 1165
9028 2772
9029 1166
9030 1166
9030 9857
9031 575
9031 1167
9031 1229
9032 1167
9032 2441
9032 2524
9032 2525
9032 3060
9033 1167
9033 3061
9034 472
9034 1167
9035 1167
9036 404
9036 1167
9036 1168
9037 874
9037 1167
9038 1136
9038 1167
9039 556
9039 817
9039 1167
9040 1168
9041 241
9041 1168
9041 1602
9041 1836
9042 1114
9042 1168
9043 1168
9043 1744
9043 1922
9043 2819
9043 2860
9043 2959
9044 404
9044 1168
9044 1502
9044 2191
9045 347
9045 1168
9046 442
9046 1169
9047 1170
9047 6723
9048 717
9048 1171
9049 1172
9049 1631
9050 468
9050 1172
9051 1172
9052 1173
9053 975
9053 1173
9054 1173
9054 1919
9055 1173
9055 1263
9055 1713
9056 965
9056 1173
9057 413
9057 1174
9057 1562
9058 1174
9059 1174
9059 2958
9060 1174
9060 1673
9060 2759
9061 471
9061 1174
9062 1013
9062 1174
9062 1836
9063 1175
9064 1175
9064 12585
9065 1176
9065 9377
9066 239
9066 1177
9067 1128
9067 1177
9068 1177
9069 1177
9069 2071
9069 2594
9070 1177
9070 2693
9071 1178
9072 1178
9072 11553
9073 1179
9074 1180
9075 111
9075 401
9075 1180
9076 1181
9077 1181
9077 1430
9077 1934
9078 1181
9078 2986
9079 1182
9079 2395
9079 2541
9079 2542
9079 3134
9080 1182
9081 1038
9081 1182
9082 280
9082 1182
9083 334
9083 1182
9084 1184
9084 1593
9084 3227
9085 472
9085 1184
9086 1184
9086 3421
9087 1185
9088 1185
9088 1805
9088 2067
9088 2259
9088 2468
9089 115
9089 1186
9089 1837
9090 1186
9090 1472
9091 1187
9092 1187
9092 12677
9093 236
9093 1187
9094 1187
9094 7478
9094 9096
9095 1188
9096 1188
9096 9094
9097 236
9097 1188
9098 1189
9099 1190
9100 124
9100 1190
9101 538
9101 1190
9102 575
9102 1191
9102 1637
9103 1191
9103 1935
9103 2173
9104 1191
9105 1191
9105 1531
9105 2034
9105 2185
9106 468
9106 1191
9107 248
9107 1191
9107 1979
9108 835
9108 1191
9109 1192
9110 1192
9110 1487
9110 2017
9110 2317
9111 1192
9111 1629
9112 1193
9113 1193
9113 5281
9114 1194
9114 4353
9115 1196
9115 5326
9116 1196
9116 1236
9116 1310
9117 1197
9118 1197
9118 12806
9119 1198
9119 2469
9120 1198
9121 1198
9121 2096
9121 3896
9122 1199
9122 1371
9122 1974
9123 479
9123 1199
9124 1199
9125 1199
9125 2530
9126 9916
9127 77
9127 1200
9128 187
9128 9916
9129 1384
9129 2100
9129 9916
9130 464
9130 1201
9131 1201
9132 1201
9132 1730
9132 3156
9133 464
9133 1201
9133 3086
9134 1202
9135 1202
9135 1419
9135 3311
9136 330
9136 1203
9136 1260
9137 334
9137 1203
9137 2107
9137 2108
9138 1203
9139 1203
9139 1588
9139 2108
9140 1203
9140 2107
9140 2108
9140 2992
9141 1106
9141 1204
9141 1404
9142 1204
9142 1300
9142 1522
9142 1991
9142 2820
9142 3108
9143 1204
9144 370
9144 964
9144 1204
9145 1106
9145 1205
9145 1955
9146 1205
9147 76
9147 1205
9148 1205
9148 1211
9149 76
9149 1205
9149 3029
9150 1939
9150 2170
9150 2615
9150 9272
9150 12149
9150 12807
9151 12149
9151 12981
9152 9658
9152 12809
9153 9510
9153 11050
9153 12810
9154 1
9154 1529
9154 6418
9154 12028
9155 2375
9155 9196
9155 12811
9156 1216
9156 6199
9156 9196
9157 11861
9157 12812
9158 6249
9158 12461
9158 12813
9159 1350
9159 1440
9159 4238
9159 6401
9159 9404
9160 5514
9160 9549
9160 11150
9160 12814
9161 4506
9161 9746
9161 10647
9161 12815
9162 5695
9162 8842
9162 10926
9162 12708
9162 12816
9163 1394
9163 9704
9163 11924
9163 12817
9164 8666
9164 11087
9164 12818
9165 6406
9165 10160
9165 10193
9166 1537
9166 9195
9166 12819
9167 9195
9167 12820
9168 10240
9168 12688
9168 12821
9169 1207
9169 1689
9169 3136
9170 1208
9170 12822
9171 1208
9172 1209
9172 1787
9172 2948
9173 1209
9174 1210
9174 2675
9174 2714
9175 1210
9176 448
9176 1210
9176 2714
9177 946
9177 997
9177 1211
9178 1211
9179 869
9179 1211
9180 243
9180 1211
9181 1212
9181 1213
9181 2009
9182 1212
9182 2009
9183 1212
9184 704
9184 1212
9185 704
9185 1212
9185 2009
9185 2356
9186 1213
9187 1213
9187 9187
9188 1213
9188 1435
9188 3158
9189 76
9189 1214
9190 1214
9191 1214
9191 1886
9192 1215
9192 2232
9192 4232
9193 1292
9193 9194
9194 1292
9194 2306
9194 9193
9194 9194
9195 1216
9195 9166
9195 9167
9196 1216
9196 9155
9196 9156
9197 832
9197 1217
9198 735
9198 1217
9199 680
9199 1217
9200 1218
9200 1219
9200 5514
9201 293
9201 1218
9201 2982
9202 1218
9202 2227
9203 1219
9203 3239
9203 4380
9203 7935
9204 1220
9205 1220
9205 1558
9206 1221
9206 1608
9206 2207
9207 1221
9208 1221
9208 2168
9208 2207
9208 2208
9209 1221
9209 1633
9210 1221
9210 1742
9210 2207
9210 2699
9210 12589
9211 1222
9211 1640
9211 1833
9212 1054
9212 1223
9212 1827
9213 1223
9213 1511
9213 2754
9214 1221
9214 1224
9214 1226
9215 1224
9215 1506
9215 2561
9216 1224
9216 1421
9216 2168
9216 2208
9217 1225
9217 1425
9218 953
9218 1225
9219 656
9219 1225
9219 1837
9220 1224
9220 1226
9220 2208
9221 1226
9221 2845
9222 1227
9222 2987
9223 1227
9223 2999
9223 12272
9224 701
9224 1227
9225 1227
9225 1402
9225 2747
9226 1228
9226 1267
9226 2391
9227 1228
9227 4641
9228 1228
9228 2025
9228 2391
9228 2392
9229 1229
9229 2403
9230 1229
9230 1505
9230 1663
9230 1791
9231 1229
9231 1637
9231 2848
9232 1041
9232 1230
9233 1230
9233 1459
9233 1487
9234 1230
9235 345
9235 1231
9235 1252
9236 1191
9236 1231
9236 1252
9237 1226
9237 1231
9238 1231
9239 1231
9239 1252
9240 934
9240 1231
9241 472
9241 1231
9242 1232
9242 1233
9242 1236
9243 947
9243 1234
9244 1033
9244 1235
9245 556
9245 1235
9245 1822
9246 1236
9246 1628
9247 1236
9247 1354
9247 1503
9248 1237
9249 1237
9249 1578
9249 2406
9249 2498
9249 2649
9249 10057
9250 1237
9250 1578
9250 1893
9251 1237
9251 1578
9252 1238
9252 2581
9252 3038
9253 280
9253 1238
9254 1238
9255 1239
9255 5462
9256 479
9256 1240
9257 363
9257 380
9257 1241
9258 380
9258 1241
9259 1241
9259 1648
9260 380
9260 388
9260 645
9260 1241
9261 1241
9262 1242
9262 1777
9262 4639
9263 68
9263 1112
9263 1243
9263 2190
9264 1243
9264 1729
9264 2207
9265 1244
9265 2133
9265 2134
9265 2135
9266 1244
9267 1244
9267 1336
9268 1244
9268 1572
9268 2172
9269 1245
9270 1245
9270 1889
9271 1245
9271 1889
9271 2329
9272 1245
9272 2170
9272 2706
9272 2861
9272 2862
9272 9150
9273 1246
9274 406
9274 1246
9275 1247
9276 1247
9276 2026
9276 2322
9276 2323
9277 413
9277 1247
9277 2323
9278 1247
9278 2323
9279 346
9279 1248
9280 479
9280 1248
9281 1249
9281 1568
9281 3709
9282 1249
9282 2315
9283 1249
9283 12823
9284 644
9284 1249
9285 1250
9286 1251
9286 1460
9286 1938
9287 1251
9288 1251
9288 1317
9288 1418
9288 1460
9288 2330
9288 3057
9288 3059
9288 3071
9289 1251
9289 2190
9289 2264
9289 2554
9290 1252
9291 77
9291 1252
9292 1252
9292 1981
9293 975
9293 1253
9293 1255
9294 1253
9295 895
9295 1253
9295 1255
9295 2194
9296 1253
9296 2748
9297 160
9297 1253
9297 1255
9297 1272
9297 2778
9297 2806
9298 1254
9299 76
9299 1254
9300 1198
9300 1254
9300 1507
9301 1255
9302 455
9302 1255
9303 1255
9303 1426
9303 2194
9304 1255
9304 3090
9305 193
9305 1256
9305 2357
9306 932
9306 1256
9307 1256
9308 74
9308 1256
9308 1359
9309 1256
9309 2450
9310 1257
9311 1257
9311 1863
9311 2181
9312 726
9312 1257
9313 1257
9313 2037
9313 2379
9313 3570
9314 1257
9314 2577
9315 751
9315 1258
9315 1281
9316 447
9316 1258
9317 1258
9318 1259
9318 1597
9318 1654
9318 2486
9319 1259
9320 1259
9320 1654
9321 640
9321 1259
9321 2486
9322 1260
9322 2835
9323 1260
9324 1260
9324 2108
9324 2803
9325 1261
9326 1261
9326 1877
9326 6879
9327 1261
9327 6879
9328 618
9328 1261
9329 736
9329 1262
9330 1262
9331 557
9331 1262
9332 1262
9332 1808
9332 1875
9333 1263
9333 2438
9334 988
9334 1263
9335 1263
9335 1713
9335 2020
9336 1089
9336 1263
9337 1263
9338 1264
9338 6780
9338 6786
9338 12824
9339 1264
9339 4642
9339 9699
9340 1264
9341 1265
9341 1946
9341 3034
9342 1265
9343 1266
9343 2992
9344 1266
9344 1486
9344 1691
9345 1268
9345 1388
9345 1532
9346 1268
9347 1269
9348 1269
9348 1606
9348 2719
9349 1270
9350 1270
9350 2538
9350 2950
9351 1255
9351 1272
9351 1426
9352 170
9352 1273
9352 1603
9353 896
9353 2197
9353 12825
9354 12825
9355 320
9355 1274
9355 2244
9356 1275
9357 582
9357 1275
9358 1275
9358 2048
9358 5030
9358 12700
9359 1276
9359 1348
9359 12826
9360 730
9360 1276
9360 3018
9361 1276
9361 2456
9362 975
9362 1276
9362 1515
9363 1276
9364 1277
9365 1277
9365 2869
9366 1277
9366 1582
9366 2260
9367 66
9367 1277
9368 546
9368 1277
9369 1277
9369 3163
9369 6260
9370 1074
9370 1277
9371 1137
9371 1277
9371 2672
9372 1278
9373 1114
9373 1278
9373 1773
9374 1278
9374 1773
9375 1279
9375 1297
9375 1301
9376 1279
9377 1279
9377 1301
9377 9065
9378 1279
9378 1301
9379 1280
9380 334
9380 1280
9381 1281
9382 447
9382 1281
9383 1282
9384 1283
9385 1283
9385 1594
9385 1802
9385 2496
9385 2905
9386 574
9386 1284
9386 1966
9387 1284
9388 1284
9388 1825
9388 2297
9389 1285
9390 325
9390 1172
9390 1285
9391 1285
9391 1517
9391 1933
9392 1012
9392 1286
9393 1286
9393 3558
9394 1286
9395 1287
9396 419
9396 1287
9397 330
9397 1287
9398 1288
9399 1058
9399 1288
9400 849
9400 1288
9401 1289
9402 404
9402 1289
9402 1502
9403 923
9403 1289
9404 1289
9404 1884
9404 9159
9405 187
9405 1289
9406 1290
9407 1290
9407 2320
9407 2385
9408 1290
9408 2385
9409 1291
9409 2341
9410 1291
9410 2246
9411 920
9411 1291
9411 1682
9412 1291
9413 889
9413 1291
9413 2341
9414 1293
9414 2095
9414 2096
9414 2732
9415 1054
9415 1293
9415 2095
9415 2732
9416 1293
9416 1834
9416 2732
9417 1011
9417 1294
9417 2664
9418 1294
9418 1523
9418 1524
9419 1295
9420 1295
9420 2119
9421 698
9421 1295
9422 130
9422 1296
9422 2313
9423 1296
9423 2582
9424 1296
9425 1296
9425 12827
9426 706
9426 1297
9427 1297
9428 1298
9428 1397
9428 1399
9429 1298
9429 2607
9430 1298
9431 1299
9431 1861
9432 1299
9432 1683
9432 1861
9433 194
9433 1299
9434 1300
9434 2698
9435 1123
9435 1300
9436 1123
9436 1300
9436 1862
9437 1301
9437 2859
9438 1302
9439 1302
9439 1869
9440 1302
9440 1429
9440 2520
9441 1303
9442 1303
9442 1542
9442 1871
9443 431
9443 1303
9443 1635
9444 594
9444 885
9444 1303
9444 3247
9445 431
9445 1303
9446 1303
9446 1665
9446 9908
9447 1114
9447 1304
9447 2709
9448 1304
9449 380
9449 1304
9450 1305
9450 1333
9450 2525
9451 1305
9452 76
9452 1305
9453 1306
9454 385
9454 1306
9455 1306
9455 1873
9456 1306
9456 1882
9456 2589
9457 489
9457 1307
9458 1307
9458 1354
9459 1307
9460 1131
9460 1307
9460 1354
9461 1308
9461 9735
9462 1308
9463 1308
9463 2651
9463 9735
9464 1036
9464 1309
9465 1309
9465 1638
9465 2764
9466 1309
9467 1311
9467 1566
9467 2792
9468 1312
9468 1313
9468 2838
9469 489
9469 1312
9470 1312
9470 1663
9470 1879
9470 2837
9470 2838
9470 3320
9471 1131
9471 1312
9472 1313
9473 1313
9473 2394
9474 599
9474 1313
9475 1314
9475 1315
9475 2292
9476 1314
9477 1314
9477 1501
9477 2439
9477 2464
9477 2716
9478 1315
9478 2418
9479 1315
9480 1316
9480 1790
9481 1317
9481 2096
9481 3059
9482 955
9482 1317
9483 1318
9483 2906
9484 409
9484 1318
9485 1320
9485 2211
9486 1320
9487 1320
9487 2211
9487 2213
9487 3284
9488 1321
9489 1321
9489 2605
9489 2666
9490 1004
9490 1321
9491 1322
9491 1953
9492 1322
9493 840
9493 1322
9494 1322
9495 1324
9495 2686
9495 3164
9496 1325
9496 2026
9496 2322
9497 10990
9498 1327
9499 1328
9499 1801
9499 2210
9500 1124
9500 1328
9500 2136
9501 1328
9502 1036
9502 1329
9503 1329
9503 2131
9503 2701
9504 1329
9505 1000
9505 1329
9506 1329
9506 2131
9507 1330
9508 873
9508 1330
9508 8939
9509 479
9509 1330
9509 1620
9510 1330
9510 1690
9510 9153
9511 1330
9511 3142
9512 1290
9512 1331
9512 2780
9513 959
9513 1331
9513 1547
9514 1331
9514 2780
9515 941
9515 1331
9516 1331
9517 1332
9518 1333
9519 1333
9519 1383
9519 2752
9520 1136
9520 1333
9521 1334
9522 326
9522 1335
9523 1335
9524 1335
9524 6392
9525 1335
9525 1888
9525 2277
9526 1336
9526 3131
9527 1336
9528 196
9528 1336
9529 72
9529 1336
9529 1339
9530 1244
9530 1336
9530 1612
9531 65
9531 1336
9531 1612
9532 1337
9533 594
9533 1337
9534 1104
9534 1337
9535 266
9535 1338
9536 1338
9537 1303
9537 1338
9537 1542
9538 1338
9538 1669
9539 1156
9539 1338
9540 1339
9540 1341
9540 1997
9541 513
9541 1339
9542 1339
9543 1244
9543 1339
9543 1395
9544 1339
9544 2135
9545 1339
9545 1340
9545 3024
9546 1340
9547 1340
9547 3131
9548 1340
9548 1808
9548 2134
9549 1244
9549 1340
9549 9160
9550 1341
9551 1341
9551 2167
9552 421
9552 1342
9553 1342
9553 1693
9553 1884
9554 1342
9555 1343
9555 1410
9555 1706
9556 1343
9556 2122
9557 1344
9557 1482
9557 1726
9557 2566
9557 2789
9558 1344
9558 2566
9558 2789
9559 1344
9559 2789
9560 436
9560 1345
9560 3319
9561 77
9561 1346
9561 2275
9562 1191
9562 1346
9562 1854
9562 2345
9563 1347
9563 8955
9563 12829
9564 1347
9565 291
9565 1347
9565 3831
9566 1348
9567 1348
9567 9568
9567 9569
9568 1348
9568 9567
9569 1348
9569 1419
9569 9567
9570 1349
9571 370
9571 1349
9572 1350
9572 6401
9573 1350
9574 438
9574 1350
9575 306
9575 1351
9575 2319
9576 483
9576 1351
9577 1351
9577 2902
9578 1351
9579 1352
9580 439
9580 1352
9581 1352
9581 1738
9582 1011
9582 1352
9582 1710
9583 453
9583 1352
9584 335
9584 1353
9584 2490
9585 1353
9585 2045
9586 1353
9587 1354
9588 1355
9588 1816
9588 3687
9589 83
9589 1356
9589 1641
9590 248
9590 1357
9590 2560
9591 44
9591 1357
9591 1874
9592 1357
9592 1445
9592 1874
9593 1358
9593 2201
9593 2872
9594 1358
9595 1358
9595 2872
9596 1359
9597 1359
9597 1657
9597 1684
9598 1359
9598 1731
9599 1360
9600 1360
9600 3153
9601 1360
9601 2589
9601 3296
9602 1361
9603 1361
9603 2631
9604 1362
9604 1812
9604 2224
9605 1362
9606 55
9606 1362
9607 1362
9607 2388
9608 1363
9608 6391
9609 1363
9609 3102
9609 12563
9610 1363
9610 1723
9610 2056
9611 1363
9612 1364
9612 2345
9613 1364
9613 2111
9613 2276
9613 3245
9614 1364
9614 1452
9614 2406
9615 841
9615 1364
9615 1393
9616 1364
9617 451
9617 1365
9617 1366
9618 1365
9619 633
9619 1365
9620 1365
9620 2093
9621 1365
9621 2981
9621 3123
9622 170
9622 1366
9623 1366
9624 1046
9624 1366
9625 854
9625 1366
9626 1366
9626 2857
9627 1367
9628 1367
9628 1830
9629 361
9629 1367
9629 3135
9630 1368
9631 455
9631 1369
9632 1369
9632 1967
9632 12830
9633 983
9633 1369
9634 72
9634 1370
9635 1370
9635 2374
9636 1371
9636 1789
9636 2669
9637 1371
9637 1789
9638 389
9638 1371
9638 1563
9639 389
9639 1371
9640 1161
9640 1372
9640 2745
9641 1372
9641 2256
9642 1372
9643 1373
9644 569
9644 1373
9645 1374
9646 1374
9646 1452
9646 2597
9647 1374
9647 1376
9647 2007
9647 12831
9648 1374
9648 2597
9649 1375
9649 4094
9649 4418
9650 1374
9650 1376
9650 2234
9651 604
9651 1377
9651 1923
9651 3074
9652 121
9652 1377
9652 1564
9653 466
9653 1378
9653 1653
9654 1378
9654 1759
9654 2735
9655 1379
9655 3307
9656 1379
9657 1380
9658 1380
9658 9152
9658 12832
9659 431
9659 1380
9660 1381
9661 985
9661 1381
9661 2627
9662 1381
9662 2852
9663 1382
9664 1382
9664 12833
9665 1383
9665 1472
9665 1741
9666 1383
9667 1384
9668 1384
9668 1772
9668 2100
9668 2582
9669 1385
9669 1510
9669 3000
9670 448
9670 1385
9671 1385
9672 1385
9672 2344
9673 1037
9673 1385
9674 1385
9674 1386
9674 1389
9675 1386
9676 676
9676 1386
9677 1154
9677 1386
9678 1387
9678 1434
9678 2370
9679 1387
9680 1387
9680 3170
9681 1388
9682 622
9682 1388
9683 409
9683 1389
9684 369
9684 1389
9685 1389
9686 1390
9686 2970
9687 1390
9688 1391
9689 1391
9689 3143
9690 1391
9690 2310
9690 2613
9690 2614
9690 3143
9691 1391
9691 2200
9691 2310
9691 2614
9692 1391
9692 2613
9692 2614
9693 1298
9693 1392
9693 2879
9694 1392
9695 1392
9695 2879
9696 693
9696 1392
9696 2879
9697 1364
9697 1393
9698 1393
9699 1393
9699 2489
9699 9339
9700 1393
9700 11353
9701 1393
9701 1735
9702 1364
9702 1393
9702 1768
9702 2122
9703 10892
9704 1394
9704 2181
9704 9163
9705 1395
9706 1396
9707 1396
9707 1534
9707 1669
9707 2634
9708 1396
9708 1594
9708 1846
9709 1397
9710 65
9710 1397
9711 1298
9711 1397
9712 76
9712 1397
9713 1392
9713 1397
9714 946
9714 1398
9714 2169
9715 887
9715 1211
9715 1398
9716 1398
9716 1435
9717 1398
9718 177
9718 1398
9719 1399
9720 427
9720 1399
9721 1400
9721 1521
9721 1887
9722 1401
9722 2649
9722 5384
9723 1402
9723 2170
9723 11352
9724 1403
9724 1655
9724 1758
9725 1403
9726 413
9726 1403
9727 463
9727 1403
9727 1859
9727 2034
9728 1404
9729 78
9729 1404
9729 2224
9730 431
9730 1404
9731 1405
9731 1922
9732 1405
9733 1406
9734 1406
9734 3171
9735 1406
9735 9461
9735 9463
9736 1407
9737 1407
9737 1835
9737 2789
9738 1407
9738 12834
9739 1408
9739 2072
9740 988
9740 1409
9741 1410
9741 9907
9741 12835
9742 1410
9742 1706
9742 2785
9742 3002
9742 3003
9742 3004
9742 3165
9743 1410
9743 3103
9744 1411
9745 832
9745 1411
9746 1411
9746 9161
9747 602
9747 1411
9747 1714
9748 842
9748 1411
9748 1571
9749 1411
9749 12836
9750 1412
9751 468
9751 1412
9752 1412
9752 1422
9752 2045
9753 946
9753 1398
9753 1413
9754 454
9754 1413
9754 1543
9755 1413
9756 1398
9756 1413
9757 533
9757 1414
9757 2368
9758 1414
9759 1415
9760 1415
9760 2546
9761 1416
9762 1417
9762 3052
9762 3272
9763 456
9763 1417
9764 1418
9764 1460
9765 1418
9765 2312
9765 2330
9766 1419
9766 1967
9766 2295
9766 3033
9767 1419
9767 12837
9768 1419
9768 3311
9769 1420
9769 1821
9770 1210
9770 1420
9770 1821
9771 1420
9771 1820
9771 1821
9772 1421
9773 1421
9773 1752
9773 2487
9774 1422
9775 1423
9775 2548
9776 1423
9777 1424
9777 2466
9778 1424
9779 77
9779 1425
9779 2360
9780 1425
9781 1425
9781 2359
9781 2360
9781 2840
9782 1426
9783 1157
9783 1426
9784 621
9784 1427
9785 738
9785 1427
9785 2931
9786 738
9786 1427
9787 1427
9787 2086
9787 2180
9787 2839
9788 1427
9789 591
9789 1427
9789 2276
9790 565
9790 1427
9791 1428
9792 540
9792 1428
9793 545
9793 1428
9794 1429
9795 1429
9795 2520
9796 55
9796 1429
9796 1671
9797 1430
9797 1934
9798 1430
9799 1431
9800 1432
9800 1509
9800 1512
9801 1432
9802 1433
9803 74
9803 358
9803 438
9803 989
9803 1433
9803 1732
9803 2236
9804 1434
9805 1434
9805 2530
9805 2983
9806 1435
9807 1435
9807 2633
9807 3044
9808 1436
9809 1436
9809 11904
9809 12838
9810 1437
9811 554
9811 1437
9812 1438
9813 431
9813 1438
9814 658
9814 1438
9815 1438
9815 2099
9816 431
9816 1438
9816 2568
9817 170
9817 1440
9817 1768
9818 1440
9818 4634
9818 6889
9819 1441
9820 1441
9820 9821
9820 12695
9820 12839
9821 1441
9821 9820
9822 664
9822 1441
9823 431
9823 1442
9823 3183
9824 1442
9825 1442
9825 1801
9826 189
9826 1442
9827 1443
9828 1444
9829 330
9829 1287
9829 1444
9830 425
9830 1444
9831 1445
9832 462
9832 1445
9833 1445
9833 1734
9833 2118
9834 1446
9834 12392
9835 1446
9835 1830
9835 2014
9836 248
9836 1357
9836 1447
9837 1447
9837 2195
9838 10209
9839 1084
9839 1448
9839 1451
9840 1084
9840 1448
9841 1584
9841 10209
9842 1449
9843 508
9843 1449
9844 1450
9845 687
9845 1450
9846 1450
9846 3696
9847 78
9847 555
9847 1450
9847 2664
9847 2765
9848 1450
9848 2533
9848 3464
9849 1451
9850 542
9850 1080
9850 1451
9851 1313
9851 1451
9852 1451
9852 2390
9853 1451
9853 2210
9853 2366
9853 2390
9854 1452
9855 75
9855 1452
9856 1453
9856 2042
9857 1453
9857 9030
9857 12840
9858 421
9858 1453
9858 2309
9859 409
9859 1454
9860 1454
9860 3339
9860 3375
9861 1455
9861 1963
9861 1966
9861 2749
9862 1455
9862 2371
9862 2447
9863 1455
9863 2382
9864 1456
9864 1458
9864 2229
9865 1456
9866 1457
9867 692
9867 1458
9867 2229
9868 1458
9868 2229
9869 90
9869 1458
9870 1459
9870 1487
9871 381
9871 1459
9872 1459
9873 365
9873 1459
9873 2400
9873 2881
9874 363
9874 1460
9874 2168
9875 1460
9875 3004
9876 1461
9877 448
9877 1461
9878 1461
9878 1901
9879 1462
9880 61
9880 1462
9881 1462
9881 1759
9881 2735
9882 1463
9883 1089
9883 1463
9884 1463
9884 2227
9885 1463
9885 1842
9885 2386
9886 1464
9887 1464
9887 1697
9887 1819
9888 1464
9888 1819
9889 95
9889 1464
9889 1819
9890 65
9890 1465
9891 662
9891 1466
9891 1803
9892 1466
9892 3151
9893 768
9893 1466
9893 1803
9894 1466
9894 1636
9894 1783
9894 2576
9894 3040
9895 1229
9895 1467
9895 1700
9896 354
9896 1468
9896 2019
9896 2131
9897 201
9897 1468
9897 1691
9897 3013
9898 1468
9898 1691
9898 2131
9899 1468
9899 3013
9900 354
9900 1468
9901 531
9901 692
9901 1469
9902 1469
9902 2676
9902 6370
9902 6372
9902 8775
9902 12841
9903 1104
9903 1469
9904 1470
9905 1470
9905 1656
9905 2175
9906 460
9906 1470
9906 1860
9907 1471
9907 9741
9907 9910
9908 1471
9908 9446
9908 11301
9909 1471
9910 1471
9910 9907
9911 1472
9912 1472
9912 1827
9912 2008
9913 640
9913 1473
9914 456
9914 1473
9914 1624
9915 1473
9915 1624
9916 1473
9916 9126
9916 9128
9916 9129
9917 1474
9917 1513
9917 6645
9918 1474
9918 3324
9919 590
9919 1474
9920 77
9920 1475
9920 2710
9921 1475
9921 2340
9921 2358
9921 3069
9921 3173
9922 729
9922 1477
9923 316
9923 1477
9924 1477
9925 953
9925 1478
9925 2819
9926 953
9926 1478
9927 1478
9928 1479
9928 2880
9929 1479
9929 1810
9929 3189
9930 1479
9931 1269
9931 1479
9931 2719
9932 1480
9933 1256
9933 1480
9934 1480
9934 2773
9935 1481
9935 2218
9936 1481
9937 1481
9937 1670
9937 10153
9938 1482
9938 1483
9938 2193
9939 437
9939 1482
9940 1483
9941 320
9941 1483
9942 124
9942 1484
9943 1484
9944 901
9944 1484
9945 1484
9945 12843
9946 388
9946 1485
9947 1485
9948 1485
9948 1836
9948 2475
9949 799
9949 1485
9950 1486
9950 3119
9950 9991
9951 1486
9952 1486
9952 1691
9953 1487
9954 1487
9954 1760
9954 1784
9954 1873
9954 2644
9954 2832
9955 176
9955 1487
9956 471
9956 1488
9957 1311
9957 1488
9957 2798
9958 1488
9958 1505
9959 1488
9959 1859
9959 2424
9959 2560
9959 2798
9960 1488
9961 1489
9962 1490
9963 1492
9964 1342
9964 1492
9964 2989
9965 76
9965 1492
9966 1493
9966 1567
9966 1617
9967 1493
9968 1299
9968 1493
9969 701
9969 1493
9970 1494
9971 1494
9971 1914
9971 1916
9972 1494
9972 2676
9973 1494
9973 2286
9973 2329
9973 2676
9974 44
9974 1495
9975 1496
9975 1508
9975 1561
9976 1497
9977 472
9977 1497
9978 1498
9978 2110
9979 1498
9980 1499
9981 1500
9981 2645
9982 1500
9983 1501
9983 2291
9983 2464
9984 1501
9985 1167
9985 1502
9986 1502
9987 1503
9987 1898
9987 2957
9988 1503
9989 363
9989 1503
9989 1770
9990 1504
9990 6396
9991 1504
9991 5254
9991 9950
9992 1505
9992 1791
9992 2252
9993 1505
9994 1506
9995 54
9995 1506
9996 1507
9997 1507
9997 1634
9997 1951
9998 76
9998 86
9998 1508
9999 721
9999 1508
10000 1508
10001 1509
10002 840
10002 1509
10002 1644
10003 1509
10003 1644
10004 840
10004 1509
10005 1510
10005 1873
10005 2281
10005 3000
10006 1510
10007 1511
10008 452
10008 1511
10008 2733
10009 338
10009 1512
10009 1551
10010 1512
10011 1513
10012 308
10012 719
10012 1513
10012 2152
10013 592
10013 1513
10013 6645
10014 1513
10014 2771
10015 473
10015 1514
10016 1514
10017 974
10017 1514
10018 1060
10018 1514
10019 1037
10019 1514
10020 728
10020 1515
10021 1515
10022 1515
10022 2300
10023 72
10023 1515
10024 523
10024 1515
10025 591
10025 1516
10026 1085
10026 1516
10027 1516
10028 319
10028 1516
10029 1517
10030 933
10030 1517
10031 1517
10031 1933
10032 557
10032 1518
10033 1518
10034 423
10034 1518
10035 1518
10035 12844
10036 1519
10036 12845
10037 1519
10038 1520
10039 665
10039 1520
10040 1522
10041 727
10041 1522
10042 1522
10042 2337
10043 1523
10044 1524
10045 500
10045 1525
10046 1525
10046 3272
10047 672
10047 1525
10048 1525
10048 2136
10048 3274
10049 1525
10050 715
10050 1525
10051 1526
10052 363
10052 1526
10053 452
10053 1526
10053 2484
10054 1526
10054 2405
10054 3042
10055 1106
10055 6277
10055 12846
10056 12847
10057 9249
10057 12846
10058 77
10058 1552
10058 12847
10059 760
10059 12847
10060 1121
10060 1527
10061 88
10061 576
10061 1527
10062 576
10062 12527
10063 679
10063 12752
10064 1528
10064 2316
10065 1228
10065 1267
10065 1528
10066 1529
10067 1529
10067 6413
10068 1529
10068 2697
10068 3046
10069 1530
10070 1124
10070 1530
10071 1124
10071 1530
10071 1845
10072 1531
10072 2341
10072 12848
10073 77
10073 1531
10074 1531
10074 1651
10074 2717
10074 2793
10074 3288
10074 3327
10075 564
10075 1531
10076 503
10076 1532
10077 1532
10078 422
10078 1533
10079 1533
10080 1533
10080 2455
10081 1534
10082 1534
10082 1753
10083 346
10083 1534
10084 1535
10085 1535
10085 2225
10085 5545
10086 1535
10086 2225
10086 3158
10086 5545
10087 1536
10087 3242
10088 1537
10088 1899
10089 1537
10089 1899
10089 2704
10090 1538
10091 967
10091 1538
10092 1538
10092 2248
10092 2302
10093 429
10093 1539
10094 1539
10095 65
10095 1539
10095 2904
10096 1540
10096 1704
10096 2009
10097 1540
10097 1704
10097 1723
10097 2411
10097 2482
10098 1540
10099 1092
10099 1540
10100 1435
10100 1540
10100 2380
10101 1367
10101 1541
10102 1542
10103 266
10103 1542
10104 1542
10104 2703
10105 268
10105 1542
10106 640
10106 1542
10107 1543
10108 1543
10108 7807
10109 1543
10109 2169
10109 6397
10109 6405
10110 355
10110 1543
10111 1544
10112 1544
10112 1546
10112 1548
10113 1545
10114 74
10114 1545
10115 1545
10115 1897
10115 2989
10116 1546
10116 2564
10117 1546
10118 1290
10118 1547
10119 1548
10119 1992
10119 8315
10120 1548
10120 3298
10121 542
10121 1080
10121 1548
10122 554
10122 1548
10122 2690
10122 6009
10123 1549
10123 2674
10124 380
10124 1550
10125 1550
10126 1550
10126 2927
10127 1551
10128 1551
10128 1775
10128 3050
10129 1551
10129 8866
10129 11813
10129 12849
10130 916
10130 1551
10131 916
10131 1006
10131 1551
10131 2126
10132 1551
10132 3050
10133 413
10133 1552
10134 1552
10135 77
10135 548
10135 1552
10135 2894
10136 77
10136 1552
10136 2815
10137 1553
10138 1554
10139 1555
10140 1555
10140 1945
10140 2631
10141 841
10141 1556
10141 2455
10142 1556
10143 1556
10143 1637
10143 1814
10144 377
10144 1557
10145 1557
10146 751
10146 1557
10147 1558
10148 454
10148 1558
10148 2680
10149 1559
10149 2265
10150 624
10150 1559
10151 1559
10152 1548
10152 1560
10152 1810
10153 1563
10153 9937
10153 12489
10153 12850
10154 1563
10154 2249
10155 1563
10156 1563
10156 2440
10156 6218
10157 787
10157 1564
10158 1564
10159 1564
10159 3304
10160 1564
10160 1580
10160 9165
10161 1565
10162 1565
10162 6424
10163 1566
10164 1330
10164 1567
10164 1621
10165 1567
10166 1568
10167 1568
10167 2526
10168 1569
10168 2939
10169 1569
10170 347
10170 1570
10171 1570
10172 1570
10172 2591
10172 3219
10173 1571
10174 326
10174 1571
10175 755
10175 1572
10176 1572
10177 1573
10177 1941
10177 2008
10178 1573
10179 1104
10179 1573
10180 1059
10180 1574
10181 1455
10181 1574
10181 2213
10182 1059
10182 1574
10182 2187
10183 1574
10184 12620
10185 1576
10185 2250
10185 2715
10186 1576
10186 3067
10187 1576
10187 1943
10187 1968
10187 2103
10188 634
10188 1576
10189 1577
10190 1577
10190 3286
10190 12620
10191 1023
10191 1579
10192 1580
10192 1614
10192 2592
10193 1580
10193 1614
10193 9165
10194 1580
10194 6406
10195 1059
10195 1581
10196 1581
10196 2509
10197 1581
10198 959
10198 1581
10198 1764
10199 1581
10199 2239
10199 2756
10200 454
10200 1582
10200 2680
10201 1582
10202 1582
10202 2680
10203 454
10203 1558
10203 1582
10204 369
10204 1582
10204 2728
10205 885
10205 1583
10206 1583
10207 1583
10207 1670
10207 2634
10208 1584
10208 1717
10208 2115
10209 1584
10209 3984
10209 9838
10209 9841
10210 1584
10211 1584
10211 12852
10212 1584
10212 2439
10213 473
10213 1585
10214 280
10214 1585
10215 1585
10216 1586
10217 380
10217 1587
10218 1587
10218 1607
10218 5004
10219 1587
10220 1588
10221 1260
10221 1588
10222 1260
10222 1588
10222 2835
10223 334
10223 1260
10223 1588
10224 795
10224 1589
10225 1589
10226 1590
10227 1590
10227 1724
10227 1800
10228 1591
10229 1592
10229 1913
10229 1980
10229 2124
10230 1592
10231 904
10231 1593
10231 2171
10231 2745
10232 1593
10232 5247
10233 1594
10233 2731
10234 1594
10234 1704
10234 1802
10234 2482
10235 1542
10235 1594
10236 1595
10236 1992
10236 2084
10236 2085
10237 1595
10237 2649
10238 1595
10238 2084
10238 2498
10238 2647
10238 2649
10239 780
10239 1595
10240 1595
10240 8332
10240 9168
10241 1596
10241 2535
10242 525
10242 1596
10243 1596
10243 2369
10243 2687
10244 1435
10244 1597
10244 1599
10245 1597
10245 1704
10246 1598
10247 1598
10247 1948
10247 2075
10248 1599
10249 1599
10249 1654
10249 2634
10250 1600
10251 1600
10251 1880
10251 2332
10252 1601
10252 2401
10252 2499
10252 2501
10252 2965
10253 1601
10253 2501
10254 1602
10255 1602
10255 1655
10255 1785
10256 1602
10256 1858
10257 12776
10258 1604
10259 1060
10259 1604
10259 1740
10260 1605
10260 1954
10260 2159
10261 1605
10261 2081
10261 2159
10261 2269
10262 1605
10263 1181
10263 1606
10264 1606
10264 2868
10265 1606
10266 1607
10267 853
10267 1608
10268 1503
10268 1608
10268 2168
10269 949
10269 1608
10270 1608
10270 1749
10270 1867
10270 2051
10270 2168
10270 2834
10271 1608
10272 1609
10272 3277
10273 1609
10274 1609
10274 2022
10274 2319
10275 1610
10275 3136
10276 1610
10276 1703
10276 2796
10277 1610
10278 1611
10279 95
10279 1611
10279 2921
10280 1611
10280 1621
10281 1336
10281 1612
10282 1612
10283 65
10283 1612
10284 1613
10285 1613
10285 1974
10286 1614
10287 617
10287 1614
10288 1615
10289 468
10289 1615
10290 1615
10290 2185
10290 2808
10291 1616
10292 1616
10292 2743
10293 1617
10293 2310
10293 2375
10293 2613
10294 1617
10294 2030
10294 2601
10294 2719
10294 3572
10295 1618
10295 2600
10295 12853
10296 1618
10296 4343
10296 5411
10297 1619
10297 1879
10297 3184
10298 1620
10299 742
10299 1620
10300 1620
10300 2362
10300 6645
10301 1620
10301 2462
10302 1621
10303 1622
10304 1622
10304 2899
10305 1072
10305 1622
10306 1623
10307 401
10307 1623
10308 1624
10308 2922
10309 1624
10310 1624
10310 2100
10310 2582
10311 1625
10311 2631
10312 1625
10313 1626
10314 1627
10315 72
10315 1627
10316 1627
10316 2174
10317 1628
10318 1628
10318 2096
10319 742
10319 1629
10320 1629
10320 2182
10320 4202
10320 7562
10321 1629
10322 1630
10323 1630
10323 6402
10324 1155
10324 1630
10325 1631
10326 418
10326 1631
10327 1114
10327 1631
10328 1114
10328 1304
10328 1631
10329 333
10329 1631
10329 1749
10330 556
10330 1631
10331 1632
10331 2765
10332 1632
10333 628
10333 1632
10334 627
10334 1632
10335 1632
10335 1902
10335 2708
10336 738
10336 1633
10337 1633
10337 2620
10338 1633
10338 2088
10338 2620
10339 1403
10339 1634
10339 1758
10340 1634
10341 1635
10342 734
10342 1635
10343 1636
10344 318
10344 1636
10345 1636
10345 1661
10345 1958
10346 1325
10346 1636
10346 5229
10347 1636
10347 1783
10348 897
10348 1637
10348 1652
10348 2125
10348 2331
10349 1637
10350 1637
10350 1648
10351 1638
10351 2764
10352 1639
10352 2408
10352 2544
10353 1641
10353 1797
10353 1799
10354 1642
10355 1642
10355 2151
10355 2540
10356 1429
10356 1643
10357 920
10357 1643
10357 1682
10358 1643
10358 5281
10359 1643
10360 1644
10360 2353
10361 1513
10361 1644
10362 1644
10363 1645
10364 1645
10364 3302
10365 1646
10366 1646
10366 2071
10367 455
10367 1646
10368 1647
10368 8738
10368 10370
10369 1647
10370 1647
10370 10368
10371 306
10371 1647
10371 1733
10372 1043
10372 1647
10373 1648
10374 635
10374 1648
10375 320
10375 1649
10376 1649
10377 1649
10377 1856
10377 1857
10378 1649
10378 3701
10379 1632
10379 1650
10380 628
10380 1650
10381 1374
10381 1376
10381 1650
10382 1650
10383 496
10383 752
10383 1651
10383 2656
10383 2958
10384 496
10384 1651
10385 413
10385 1247
10385 1652
10386 878
10386 1653
10387 1654
10388 550
10388 1654
10389 1654
10389 2634
10389 2861
10390 1655
10390 2579
10391 1655
10392 1656
10392 2525
10393 1656
10394 1657
10395 844
10395 1657
10396 96
10396 1657
10397 1657
10397 2304
10398 1657
10398 1684
10398 2813
10399 1658
10400 1658
10400 1659
10400 8027
10401 680
10401 1366
10401 1658
10402 1659
10403 1659
10403 2243
10404 1540
10404 1659
10404 2186
10405 1660
10406 1265
10406 1660
10406 2228
10407 1661
10408 1535
10408 1661
10408 1881
10409 1662
10410 1662
10410 2059
10410 2198
10410 2600
10411 1663
10411 1791
10411 3321
10412 1663
10413 1769
10413 2448
10413 12633
10414 12633
10415 1665
10416 1664
10416 1666
10416 3335
10417 1666
10417 2824
10418 1666
10419 827
10419 1666
10420 1667
10421 1667
10421 2324
10422 1159
10422 1667
10422 1951
10423 497
10423 1667
10424 1668
10424 3105
10424 5468
10425 1668
10425 10657
10426 1669
10427 1669
10427 1670
10427 1672
10428 1542
10428 1669
10429 1158
10429 1669
10430 1597
10430 1670
10431 1670
10432 542
10432 1080
10432 1670
10433 640
10433 1259
10433 1670
10434 1671
10435 1671
10435 3050
10436 1672
10437 1673
10438 1676
10439 204
10439 1676
10440 530
10440 1677
10441 1677
10441 1822
10441 1839
10442 1677
10442 2125
10443 1678
10444 1678
10444 1698
10444 2396
10445 1679
10445 1778
10445 2867
10446 738
10446 1427
10446 1679
10447 1679
10447 2334
10448 1679
10449 1679
10449 1778
10449 2263
10449 2401
10450 1680
10451 1681
10452 656
10452 1681
10453 1681
10453 3071
10454 1485
10454 1681
10454 1758
10455 1682
10456 1683
10457 1683
10457 8954
10457 11799
10458 1684
10459 1685
10460 1685
10460 3423
10461 1685
10461 1928
10461 3152
10462 1685
10462 1857
10462 1910
10462 1928
10463 1686
10463 1846
10464 1686
10465 1686
10465 2119
10465 3083
10466 1687
10467 1687
10467 1880
10467 2100
10468 1688
10468 2631
10469 1688
10470 1688
10470 2950
10470 3312
10471 1340
10471 1689
10472 1689
10473 1690
10474 1691
10475 354
10475 1468
10475 1691
10475 2131
10476 1692
10477 1693
10478 1694
10479 661
10479 1695
10479 2376
10480 1696
10480 2417
10480 2601
10480 3103
10480 4820
10481 1696
10481 2896
10482 524
10482 1697
10483 1698
10483 2384
10484 1699
10485 364
10485 455
10485 1699
10486 455
10486 1699
10487 1700
10488 629
10488 1700
10489 381
10489 1701
10490 1701
10491 417
10491 1701
10491 1862
10492 1703
10492 2630
10492 2723
10493 1704
10493 3221
10494 1705
10494 2616
10494 7429
10495 1706
10496 1707
10497 1707
10497 2454
10497 2691
10498 1708
10499 1709
10499 2268
10499 2274
10499 2449
10499 2885
10500 1709
10500 2437
10500 2449
10501 1709
10502 429
10502 1710
10503 1710
10504 1645
10504 1710
10505 453
10505 1710
10506 944
10506 1711
10507 12624
10508 2598
10508 12624
10509 359
10509 12624
10510 1712
10511 1298
10511 1392
10511 1712
10512 1712
10512 2201
10512 2431
10512 3096
10513 693
10513 1712
10514 714
10514 1712
10515 1392
10515 1712
10516 1713
10517 1713
10517 2020
10517 12513
10518 65
10518 1713
10519 1713
10519 4419
10520 1714
10521 1714
10521 3315
10522 1715
10523 1715
10523 1903
10524 1715
10524 1903
10524 4624
10525 1716
10526 1716
10526 2188
10526 2306
10527 1716
10527 2306
10528 1717
10529 1719
10530 1719
10530 2684
10530 3334
10531 1720
10531 2702
10531 3338
10532 1720
10533 77
10533 548
10533 1720
10534 1721
10534 12855
10535 818
10535 1721
10536 1721
10536 1788
10536 2266
10537 1721
10538 1097
10538 1722
10539 1722
10540 965
10540 1722
10540 2319
10541 1723
10542 1724
10542 2511
10542 2918
10543 1724
10544 1725
10545 1725
10545 2256
10545 3100
10545 3120
10546 1726
10547 624
10547 1726
10548 1209
10548 1726
10548 1986
10549 1726
10549 1986
10550 1726
10550 1986
10550 2695
10551 1727
10552 1727
10552 1937
10552 2841
10553 1244
10553 1340
10553 1727
10554 202
10554 1728
10555 1728
10556 1728
10556 2701
10556 4637
10557 623
10557 1729
10558 340
10558 1729
10558 2720
10559 54
10559 1729
10560 707
10560 1730
10561 1730
10561 11905
10562 1730
10563 1730
10563 2097
10563 2545
10564 1731
10565 1731
10565 2357
10566 1732
10567 74
10567 1732
10568 74
10568 438
10568 1732
10569 1733
10570 1734
10571 1734
10571 2402
10572 75
10572 1734
10573 1735
10574 181
10574 1735
10575 74
10575 1735
10575 2773
10576 1736
10577 1736
10577 1737
10577 2076
10578 361
10578 1737
10578 1935
10578 1936
10579 679
10579 1737
10580 1737
10580 1935
10580 2625
10580 3334
10581 381
10581 1737
10582 1737
10582 1935
10583 1737
10584 1738
10585 360
10585 1738
10586 93
10586 1738
10587 837
10587 1738
10588 1738
10588 12856
10589 1060
10589 1740
10589 1750
10590 1740
10590 2963
10590 12857
10591 1741
10591 2504
10591 3037
10592 1112
10592 1742
10593 1742
10594 1742
10594 2190
10594 2266
10594 2367
10595 1743
10595 1962
10595 2264
10595 2960
10596 1744
10597 738
10597 1427
10597 1744
10597 2334
10597 2401
10597 2931
10597 2946
10598 1745
10599 1746
10600 65
10600 1747
10600 3286
10601 1747
10602 1748
10603 403
10603 1748
10604 422
10604 1748
10605 1749
10605 1865
10606 1749
10607 188
10607 935
10607 1749
10608 1749
10608 1865
10608 1867
10609 1750
10609 2355
10610 1060
10610 1750
10611 595
10611 1751
10612 1751
10612 2167
10612 2512
10612 2536
10612 2537
10613 1751
10613 1852
10613 2254
10613 2318
10614 281
10614 1751
10615 1752
10615 12858
10616 1752
10617 1753
10618 1046
10618 1753
10619 1753
10619 11296
10620 1754
10621 1755
10621 1885
10621 2048
10621 2379
10621 2517
10621 2716
10621 3087
10621 3088
10622 555
10622 1755
10623 1755
10624 901
10624 1755
10625 330
10625 1755
10626 1756
10627 194
10627 240
10627 1756
10628 1756
10628 1882
10629 1568
10629 1756
10630 1757
10630 10633
10631 1757
10631 1932
10631 2270
10632 1757
10633 1757
10633 8628
10633 8629
10633 10630
10633 12859
10634 1758
10635 1758
10635 2819
10636 1759
10637 1759
10637 2735
10638 55
10638 1760
10639 1761
10639 3343
10640 1762
10641 1069
10641 1763
10642 1763
10643 1764
10644 624
10644 1726
10644 1764
10645 1765
10646 928
10646 1765
10647 1765
10647 1944
10647 9161
10648 1581
10648 1765
10648 1815
10649 1766
10650 288
10650 1766
10651 1766
10651 1800
10651 2569
10652 1766
10652 1818
10653 1767
10654 693
10654 1767
10655 1767
10655 1889
10656 1768
10657 1768
10657 5382
10657 10425
10658 1768
10658 12860
10659 419
10659 1768
10659 4640
10659 4642
10660 1769
10661 1770
10662 1771
10663 1772
10663 1781
10664 1772
10665 1686
10665 1772
10666 62
10666 1773
10666 1994
10666 1996
10667 1773
10668 630
10668 1774
10669 1774
10669 2812
10670 1774
10671 1774
10671 1907
10671 2114
10672 1775
10672 2481
10673 1775
10674 1775
10674 2077
10674 2397
10675 1775
10675 1869
10675 2397
10675 2416
10676 497
10676 1776
10677 1776
10678 1663
10678 1776
10678 2252
10679 1777
10680 1778
10680 12605
10681 1778
10681 2263
10682 1778
10683 1778
10683 2263
10683 2334
10683 2401
10683 2866
10683 2867
10684 1779
10685 1780
10685 8658
10686 1780
10687 1781
10688 1781
10688 6416
10689 1781
10689 2141
10689 3231
10689 11209
10690 1782
10690 2763
10691 1052
10691 1782
10692 1600
10692 1782
10692 2708
10693 1782
10694 627
10694 1782
10695 1783
10695 3151
10696 1783
10697 843
10697 1783
10698 55
10698 1784
10698 1900
10698 3123
10699 1784
10700 1367
10700 1784
10701 1677
10701 1785
10702 1785
10703 1786
10704 944
10704 1786
10705 1787
10706 1787
10706 2026
10707 1788
10708 1789
10709 1790
10710 1791
10711 335
10711 1792
10712 1792
10713 666
10713 1792
10714 44
10714 1793
10715 1793
10716 1794
10717 1794
10718 1794
10718 2262
10718 2396
10719 1795
10719 2858
10720 1795
10721 1796
10721 7145
10722 1796
10723 1797
10724 1798
10725 556
10725 1798
10725 1822
10726 1799
10727 1800
10727 1806
10728 1800
10729 1801
10730 1801
10730 3062
10731 431
10731 1801
10732 1802
10733 662
10733 1803
10734 1525
10734 1803
10735 1056
10735 1803
10735 2539
10736 1804
10736 4782
10736 12861
10737 1804
10738 1805
10738 2623
10739 608
10739 1805
10740 1806
10741 1806
10741 12862
10742 1806
10742 2018
10743 1807
10744 1808
10745 1809
10746 1810
10747 1810
10747 2004
10747 2320
10747 2321
10748 1098
10748 1811
10749 1811
10750 1811
10750 2136
10751 1812
10752 1813
10752 2437
10753 1813
10754 1814
10755 1814
10755 1836
10756 76
10756 1814
10756 1886
10757 1815
10758 454
10758 1815
10759 1816
10760 1817
10760 3282
10760 3310
10761 1817
10762 1818
10763 1144
10763 1818
10764 76
10764 1818
10765 1819
10766 581
10766 1819
10767 993
10767 1820
10768 1820
10769 482
10769 1820
10770 1820
10770 2198
10770 2267
10771 330
10771 1821
10772 1822
10773 952
10773 1822
10774 1823
10775 1823
10775 3123
10776 55
10776 1823
10776 2000
10777 1824
10778 455
10778 1824
10779 1825
10780 1826
10780 2428
10780 2635
10781 1828
10781 2029
10781 2303
10781 3308
10782 1828
10782 2008
10782 2565
10783 1829
10784 1829
10784 2661
10785 1829
10785 2661
10785 12863
10786 1829
10786 1909
10786 2650
10786 2661
10786 3016
10787 1830
10788 1832
10789 841
10789 1832
10790 1834
10790 2143
10790 2339
10790 3037
10791 1835
10792 293
10792 1218
10792 1835
10793 1218
10793 1835
10794 769
10794 1835
10795 1836
10796 1836
10796 2125
10796 3237
10797 1836
10797 2230
10798 1837
10799 338
10799 1838
10800 1838
10801 1839
10802 1842
10803 808
10803 1842
10804 1843
10804 3626
10804 4314
10805 1844
10806 1845
10807 784
10807 1846
10808 916
10808 1846
10808 2157
10808 2689
10809 916
10809 1846
10810 1846
10811 1846
10811 1848
10811 2152
10812 1846
10812 2703
10813 1847
10814 1124
10814 1847
10815 1847
10815 2136
10816 1848
10816 2056
10817 1848
10818 1846
10818 1848
10819 1848
10819 2056
10819 3047
10820 1850
10821 561
10821 1850
10822 1850
10822 12620
10823 1851
10824 170
10824 1851
10825 624
10825 1851
10826 1027
10826 1852
10827 1852
10828 1852
10828 2022
10829 1852
10829 3095
10829 3976
10829 3977
10829 3978
10830 1852
10830 2254
10830 2257
10830 2309
10831 1853
10832 1853
10832 2210
10833 1853
10833 12845
10834 464
10834 1853
10835 170
10835 1853
10836 702
10836 1854
10837 1854
10838 1855
10838 2455
10839 1146
10839 1855
10839 2272
10840 1856
10841 1856
10841 1857
10841 12865
10842 1857
10843 1858
10844 1858
10844 1859
10844 2252
10845 1859
10846 1860
10847 1861
10848 1861
10848 2257
10849 338
10849 1862
10850 1862
10850 3025
10851 1300
10851 1862
10852 1862
10853 824
10853 1863
10854 1863
10854 3424
10855 1863
10856 554
10856 1863
10857 965
10857 1864
10858 425
10858 1864
10859 1864
10860 1864
10860 3012
10861 1865
10862 817
10862 1865
10863 1865
10863 1867
10864 1866
10865 1866
10865 2384
10866 837
10866 1866
10867 837
10867 1866
10867 1868
10868 403
10868 1866
10868 1991
10868 2384
10869 623
10869 1867
10870 1867
10871 1867
10871 2272
10872 1868
10872 2332
10873 1868
10874 1869
10874 1983
10874 1986
10874 2818
10875 1869
10876 1869
10876 3049
10877 1870
10878 1870
10878 2515
10878 2891
10879 1020
10879 1870
10880 1871
10880 2412
10880 2413
10880 2415
10880 7311
10881 512
10881 1871
10882 1871
10883 85
10883 1872
10884 1872
10885 1154
10885 1872
10886 1174
10886 1874
10887 1875
10887 2295
10888 1875
10889 1876
10890 187
10890 1877
10890 2551
10890 3317
10891 1878
10892 1880
10892 1999
10892 9703
10892 11087
10893 1880
10894 1881
10895 763
10895 1881
10896 1882
10897 1882
10897 12867
10898 1883
10899 74
10899 1883
10900 989
10900 1433
10900 1883
10901 1155
10901 1883
10902 1884
10903 1885
10903 1921
10903 1969
10903 2577
10904 1885
10904 3076
10905 1005
10905 1885
10905 2278
10906 1885
10907 1886
10908 76
10908 1886
10908 1993
10909 1888
10910 1366
10910 1888
10911 1888
10911 2277
10911 5281
10912 1889
10913 1890
10914 1891
10915 640
10915 1891
10916 1892
10917 1892
10917 2079
10917 2181
10917 2355
10917 2835
10918 1892
10918 2079
10918 2664
10919 1893
10920 1133
10920 1894
10921 1895
10922 1896
10923 484
10923 1896
10924 1896
10924 2807
10925 1313
10925 1896
10926 1896
10926 2807
10926 9162
10927 1897
10927 2119
10927 6265
10928 1897
10929 1198
10929 1898
10930 1898
10930 2710
10931 1899
10931 2022
10931 2024
10931 2582
10932 1391
10932 1899
10933 1900
10934 466
10934 1900
10934 2641
10935 1902
10936 1902
10936 3054
10937 628
10937 1902
10938 1903
10938 6404
10939 1903
10940 1044
10940 1903
10941 1904
10942 1904
10942 1972
10943 66
10943 1906
10944 1906
10945 431
10945 1906
10946 269
10946 1906
10947 1907
10948 1907
10948 2028
10949 1908
10949 1923
10949 2022
10949 2313
10950 1909
10950 2735
10950 3268
10950 3270
10951 1910
10952 1685
10952 1910
10953 1911
10954 1911
10954 4238
10955 1911
10955 1923
10955 1971
10955 2398
10956 1912
10957 1913
10958 1914
10959 1914
10959 1916
10959 2676
10959 3199
10960 1915
10961 1916
10962 1917
10963 1917
10963 2918
10963 3832
10964 1918
10965 1919
10965 6262
10965 12716
10966 1919
10967 1919
10967 2395
10967 2446
10967 3318
10968 2458
10968 2479
10968 2514
10968 5821
10968 11738
10968 11739
10969 11407
10969 12868
10970 1923
10970 2003
10970 6649
10970 10971
10971 1922
10971 1923
10971 1924
10971 10970
10972 1922
10972 2691
10973 1922
10974 1922
10974 2691
10974 6264
10975 1923
10976 2119
10976 2232
10976 4017
10976 11266
10977 11266
10978 1925
10978 2199
10979 1925
10980 1926
10981 1927
10982 1928
10983 1928
10983 2416
10983 3050
10983 12620
10984 1775
10984 1928
10985 341
10985 1928
10986 1929
10986 2270
10986 3116
10986 3117
10987 1929
10987 1930
10987 1931
10987 1932
10988 1930
10988 2357
10988 4524
10989 1930
10990 1930
10990 5536
10990 9497
10991 1931
10991 12870
10992 1931
10993 1757
10993 1932
10994 1932
10994 3116
10994 3117
10995 1933
10996 1934
10997 1935
10998 1936
10999 1938
10999 2393
10999 3058
10999 3059
11000 1940
11001 1940
11001 2117
11001 2287
11002 1940
11002 2117
11002 2287
11002 3026
11003 647
11003 1941
11003 2008
11003 2072
11004 1941
11005 1941
11005 2008
11005 2050
11005 2336
11006 1942
11007 1576
11007 1943
11008 1943
11009 1944
11010 1945
11010 1946
11010 3157
11010 3290
11011 1945
11012 348
11012 558
11012 1945
11012 2241
11013 1946
11014 1946
11014 3154
11015 1947
11015 2221
11016 604
11016 1948
11016 2075
11016 3246
11017 1949
11018 1950
11019 1952
11020 1716
11020 1953
11020 4014
11021 1954
11021 2081
11021 2159
11021 2953
11022 607
11022 1954
11022 2269
11023 1955
11023 2245
11023 2531
11023 3359
11024 1955
11025 1956
11026 1956
11026 2735
11027 1958
11028 1960
11028 2113
11028 2115
11028 3692
11029 947
11029 1960
11030 1964
11030 4642
11031 1964
11032 1964
11032 2051
11032 2813
11032 6887
11033 1965
11033 12871
11034 1965
11035 1965
11035 2812
11036 1966
11037 1967
11038 1967
11038 2407
11038 2873
11039 1968
11039 1970
11039 2715
11040 1968
11041 1969
11042 1576
11042 1943
11042 1968
11042 1970
11043 1970
11044 1971
11044 2427
11045 1971
11046 1972
11046 2669
11047 1972
11048 1972
11048 2069
11048 2076
11048 2267
11049 12619
11050 9153
11050 12619
11051 1974
11052 1974
11052 12872
11053 759
11053 1974
11054 1975
11054 2179
11054 2372
11054 2967
11055 335
11055 1976
11055 1977
11055 1979
11056 1977
11057 1978
11058 422
11058 1979
11059 1979
11060 1980
11060 2109
11061 1980
11062 1981
11062 3061
11063 1981
11064 1982
11065 1982
11065 2985
11066 1983
11067 1218
11067 1983
11068 1984
11069 1984
11069 4624
11070 1985
11071 427
11071 1985
11072 1986
11073 875
11073 1987
11073 2102
11073 2138
11074 1987
11075 417
11075 1988
11076 1988
11077 1988
11077 4352
11078 1989
11079 1990
11080 1991
11081 1991
11081 2372
11081 3025
11082 1994
11083 1994
11083 2827
11084 1997
11085 1997
11085 3339
11086 1999
11086 2089
11086 2167
11086 2627
11087 1999
11087 9164
11087 10892
11088 2001
11089 2002
11090 542
11090 1080
11090 2002
11091 2002
11091 2282
11091 2423
11092 2003
11093 2004
11094 2005
11095 2005
11095 2250
11095 2363
11095 3052
11096 62
11096 2006
11097 2008
11098 1065
11098 2009
11099 2009
11100 2010
11100 11100
11101 2010
11102 2011
11103 1902
11103 2011
11104 201
11104 2011
11105 2012
11106 2012
11106 2378
11106 2625
11106 2663
11107 2012
11107 2378
11108 1868
11108 2014
11109 2014
11110 2015
11111 2015
11111 2058
11111 2111
11111 2612
11112 66
11112 2015
11113 571
11113 2015
11114 424
11114 2015
11115 2016
11115 2155
11116 2016
11116 2155
11116 2177
11116 6404
11117 2015
11117 2017
11117 2018
11117 2020
11118 2017
11118 2425
11119 2018
11120 2019
11121 2020
11122 2021
11123 2022
11124 1296
11124 2022
11125 2022
11125 2313
11126 945
11126 2023
11127 2023
11128 2023
11128 2353
11129 346
11129 2024
11130 2024
11130 2665
11130 6554
11131 2025
11132 2025
11132 2084
11132 2342
11133 2026
11134 2026
11134 3271
11135 1667
11135 2027
11136 2027
11137 2028
11138 2029
11139 2030
11139 2542
11139 2599
11139 3134
11140 1617
11140 2030
11140 2601
11140 3572
11141 2030
11142 2031
11143 2031
11143 2578
11143 3045
11143 3221
11144 2032
11145 1276
11145 2033
11146 2035
11146 2054
11146 2055
11146 3875
11147 2037
11147 2196
11147 2284
11147 4423
11148 2038
11148 2040
11148 2042
11148 2997
11149 2038
11150 2038
11150 9160
11151 2039
11152 2040
11153 2041
11153 2481
11154 2041
11155 239
11155 2042
11156 2042
11157 2044
11158 2044
11158 2046
11159 335
11159 2045
11160 2045
11161 1981
11161 2045
11162 2046
11163 419
11163 2046
11164 415
11164 2046
11165 794
11165 2047
11166 327
11166 1807
11166 2048
11166 2049
11167 81
11167 2048
11167 5030
11167 12873
11168 2037
11168 2048
11168 2196
11168 2222
11169 2048
11169 2379
11170 2049
11170 2160
11171 2049
11172 2050
11173 2050
11173 3277
11174 1140
11174 2050
11175 655
11175 2051
11176 2051
11177 2052
11177 2247
11177 2508
11177 4233
11178 2057
11179 472
11179 2057
11180 1114
11180 2057
11181 2058
11182 1038
11182 2058
11183 2059
11184 2059
11184 3100
11185 1882
11185 2059
11186 2060
11187 977
11187 2061
11188 2061
11189 2062
11190 2063
11191 1955
11191 2063
11191 2136
11191 2932
11192 1903
11192 2063
11193 531
11193 692
11193 1469
11193 2063
11194 189
11194 2064
11195 2064
11195 2249
11196 2064
11197 2065
11197 2635
11198 565
11198 2065
11199 456
11199 2070
11200 2070
11201 2070
11201 2922
11202 2071
11202 12804
11203 865
11203 2071
11204 2071
11205 2072
11206 769
11206 2072
11206 2648
11207 604
11207 2072
11208 647
11208 2072
11209 2073
11209 2239
11209 3947
11209 10689
11210 2075
11211 2076
11211 2197
11211 2198
11211 2199
11212 2076
11213 2076
11213 12874
11214 2078
11214 2465
11215 2078
11216 2079
11217 2080
11218 2080
11218 3024
11219 2081
11219 11221
11220 2081
11221 2081
11221 11219
11221 12875
11222 2082
11223 587
11223 2082
11224 2083
11225 2083
11225 2561
11226 2083
11226 2334
11226 2335
11226 2867
11227 2083
11227 2501
11227 6261
11228 1528
11228 2084
11229 747
11229 2085
11230 2086
11230 2276
11231 738
11231 2086
11232 380
11232 2087
11233 2087
11234 2088
11235 2089
11236 2089
11236 2257
11236 2290
11236 2610
11237 2091
11238 412
11238 541
11238 840
11238 2091
11239 528
11239 2092
11240 2092
11240 2144
11240 3657
11240 5924
11241 2093
11241 2209
11241 2388
11241 2753
11242 187
11242 2096
11243 2096
11244 2097
11244 2722
11244 2788
11244 3568
11245 905
11245 2097
11246 2098
11247 843
11247 2098
11248 2099
11248 3580
11249 2099
11250 308
11250 2099
11251 355
11251 2099
11252 2099
11252 2588
11252 5281
11253 2100
11253 2458
11253 2479
11253 2514
11253 2615
11254 2101
11255 2102
11256 12831
11257 2104
11258 2105
11259 2106
11260 2107
11260 2835
11261 2109
11262 2111
11262 12876
11263 2115
11264 269
11264 2115
11265 2116
11266 2119
11266 4232
11266 10976
11266 10977
11267 2119
11268 2119
11268 5824
11268 12878
11269 625
11269 2120
11270 2120
11271 2121
11272 2123
11273 2124
11274 397
11274 2126
11275 2127
11276 455
11276 2128
11277 2129
11278 2130
11279 2131
11280 2132
11281 1938
11281 2132
11281 2312
11281 2330
11282 2133
11283 2134
11284 2135
11285 513
11285 2135
11286 2136
11287 910
11287 2136
11288 308
11288 2136
11289 1313
11289 2136
11290 2137
11291 2138
11291 2275
11292 2138
11293 380
11293 2138
11294 2139
11294 2155
11294 2177
11294 6269
11295 2139
11296 2139
11296 10619
11297 979
11297 2140
11298 2140
11299 2141
11299 11303
11299 11904
11299 12429
11300 2141
11301 2141
11301 2481
11301 9908
11302 978
11302 2141
11303 2141
11303 2244
11303 11299
11304 122
11304 2141
11305 2142
11306 515
11306 2144
11307 2144
11308 2144
11308 2194
11308 6408
11309 2145
11310 2146
11311 2146
11311 3283
11312 2148
11313 2149
11314 1869
11314 2149
11315 661
11315 2150
11316 2152
11316 2293
11317 355
11317 2152
11318 2152
11319 2153
11320 2153
11320 12620
11321 2153
11321 2492
11322 2154
11322 12645
11323 2155
11323 2177
11324 2157
11325 2157
11325 5281
11326 2157
11326 12620
11327 2158
11327 2918
11328 2158
11329 594
11329 2158
11330 2158
11330 2918
11330 3158
11331 2159
11332 360
11332 2160
11333 2160
11334 2162
11335 953
11335 2162
11336 2163
11337 2164
11338 326
11338 2164
11339 736
11339 2165
11340 1164
11340 2165
11341 1972
11341 2166
11342 2166
11343 1882
11343 2166
11344 2166
11344 2409
11344 5387
11345 2167
11346 2168
11347 946
11347 2169
11348 308
11348 719
11348 2169
11349 2169
11350 595
11350 2170
11351 2170
11352 2170
11352 2615
11352 2706
11352 9723
11353 2171
11353 2544
11353 9700
11354 1633
11354 2171
11355 2171
11356 2172
11357 2174
11357 3145
11358 2176
11359 2176
11359 2186
11360 2177
11361 2180
11362 1161
11362 2180
11363 2181
11364 2182
11365 2183
11366 2183
11366 2369
11366 2687
11366 2714
11367 2185
11368 2185
11368 3896
11369 2186
11370 2187
11371 2188
11372 818
11372 2188
11373 1855
11373 2189
11374 2191
11375 2192
11376 688
11376 2192
11377 1601
11377 2192
11378 853
11378 2192
11379 2193
11380 1167
11380 2193
11381 2194
11382 2195
11383 2196
11383 3075
11384 2196
11385 2197
11386 2198
11387 1455
11387 2199
11387 3075
11388 2199
11389 2200
11389 2491
11389 2493
11389 2494
11389 5386
11390 2200
11391 2200
11391 2493
11392 2202
11392 2738
11393 2203
11394 2205
11395 2206
11396 2207
11396 2208
11397 2207
11397 2208
11397 2561
11397 2562
11397 2966
11398 2207
11399 2208
11400 2208
11400 2562
11401 894
11401 2209
11402 2209
11403 2210
11404 793
11404 2210
11405 2211
11406 2212
11407 2212
11407 2357
11407 6423
11407 10969
11408 2213
11408 2371
11408 3284
11409 2213
11410 736
11410 2213
11411 2214
11412 841
11412 2214
11413 1688
11413 2215
11414 2215
11415 578
11415 2215
11416 359
11416 2215
11417 2216
11417 2292
11418 2217
11418 3206
11419 2218
11420 2219
11421 1401
11421 2219
11421 3225
11422 2220
11423 2220
11423 2223
11424 1157
11424 2220
11425 2221
11425 2934
11425 2961
11426 2221
11426 2987
11427 905
11427 2222
11428 2222
11428 2888
11429 2222
11429 3195
11429 3290
11430 2223
11431 878
11431 2194
11431 2223
11432 2224
11433 919
11433 2224
11434 2225
11435 2225
11435 2486
11436 397
11436 2225
11437 2226
11438 2228
11438 2998
11439 1817
11439 2228
11439 3310
11440 2230
11441 2231
11442 66
11442 2231
11443 204
11443 2231
11444 2235
11444 2694
11445 713
11445 2236
11446 424
11446 2236
11447 2236
11448 2237
11449 840
11449 2238
11450 2238
11451 2238
11451 2439
11452 2239
11452 3562
11453 2239
11454 2240
11454 3727
11455 2240
11456 2240
11456 2296
11456 2677
11456 2683
11457 1134
11457 2240
11457 2296
11457 2677
11457 2683
11458 1072
11458 2241
11459 2241
11460 1330
11460 2241
11461 2241
11461 2972
11462 2242
11463 2243
11464 578
11464 2243
11465 2244
11466 2245
11467 2246
11468 2246
11468 2265
11468 2583
11469 2247
11470 2249
11471 2250
11472 2250
11472 3052
11473 2250
11473 2698
11473 12880
11474 456
11474 2250
11475 2251
11476 2255
11477 1114
11477 2255
11478 2256
11479 2257
11480 2257
11480 7802
11481 2257
11481 2309
11481 2868
11482 2258
11483 1617
11483 2030
11483 2258
11483 2446
11484 776
11484 2259
11485 1582
11485 2260
11486 2260
11487 2261
11488 2261
11488 2319
11489 2262
11490 747
11490 2262
11491 2262
11491 2482
11491 2563
11492 1118
11492 2265
11493 2265
11494 2266
11494 3058
11495 2268
11495 2642
11495 3031
11496 607
11496 2269
11496 3316
11497 2269
11498 2270
11499 2271
11499 2895
11500 474
11500 2272
11501 2273
11502 652
11502 2273
11503 452
11503 2273
11504 2274
11504 2885
11505 2274
11506 2275
11507 12655
11508 2277
11509 451
11509 2277
11510 928
11510 2277
11511 2277
11511 3568
11512 189
11512 2278
11513 2278
11514 2279
11515 2280
11516 361
11516 2280
11517 2282
11518 2283
11519 2284
11520 2285
11521 2286
11522 2287
11523 2289
11524 2290
11525 2290
11525 2715
11526 2291
11526 3248
11527 2293
11528 2294
11529 892
11529 2294
11530 2295
11531 2296
11531 2610
11532 2297
11532 6362
11533 2298
11534 2299
11535 659
11535 2299
11536 210
11536 630
11536 2299
11536 2618
11536 2619
11537 2300
11537 2538
11538 2300
11539 247
11539 2300
11540 2301
11541 96
11541 2304
11542 2304
11543 367
11543 657
11543 2305
11544 2305
11545 2305
11545 12881
11546 2306
11547 447
11547 2307
11548 2307
11549 2308
11550 2309
11551 2257
11551 2309
11552 2310
11553 2310
11553 3143
11553 9072
11554 1391
11554 2310
11554 2614
11555 2311
11555 2312
11556 2311
11557 1111
11557 2311
11558 2312
11559 2313
11560 1971
11560 2313
11561 2314
11562 270
11562 2314
11563 1158
11563 2314
11564 2315
11565 2316
11566 2317
11567 2317
11567 2991
11568 2318
11569 2319
11570 2320
11570 12852
11571 1546
11571 2320
11572 2320
11573 2321
11573 12674
11574 2321
11575 2322
11576 2322
11576 3406
11577 1016
11577 2322
11578 2324
11579 2325
11580 2325
11580 2756
11581 2326
11581 2975
11582 2326
11583 1126
11583 2326
11584 2327
11585 2329
11586 2329
11586 6411
11587 2331
11588 611
11588 2332
11589 2333
11590 280
11590 2333
11591 904
11591 2334
11592 427
11592 2337
11593 2337
11593 2354
11594 2340
11595 2341
11596 1174
11596 2341
11597 2342
11598 451
11598 2343
11599 2343
11600 1348
11600 2343
11601 2344
11601 2858
11602 187
11602 2345
11602 2428
11602 2456
11602 2457
11603 2345
11604 2346
11605 2348
11606 2350
11607 2352
11608 2353
11609 2354
11610 2355
11611 2356
11612 2357
11613 2359
11614 2360
11615 2361
11616 2361
11616 4600
11617 2362
11618 2363
11618 12882
11619 456
11619 2363
11620 634
11620 2363
11621 688
11621 2364
11621 2456
11622 688
11622 2364
11623 2364
11624 1261
11624 2364
11625 2365
11626 2366
11627 2368
11628 2370
11629 2370
11629 2529
11630 2371
11631 2371
11631 6410
11632 2373
11632 6408
11633 2373
11634 2375
11634 2880
11635 335
11635 2376
11636 2376
11637 335
11637 2376
11637 3029
11638 1869
11638 2376
11639 2378
11639 2440
11640 2379
11641 2379
11641 3332
11642 2380
11643 1704
11643 2380
11644 911
11644 2380
11645 2381
11645 2726
11646 2382
11647 2383
11648 187
11648 2383
11649 2384
11650 2385
11651 2386
11652 400
11652 2386
11653 2387
11654 2388
11655 2389
11656 2389
11656 4732
11657 2390
11658 2391
11659 2391
11659 6876
11660 2392
11661 2393
11662 2394
11663 2394
11663 2842
11664 2395
11665 2396
11666 1411
11666 2396
11667 2397
11667 3049
11668 451
11668 2397
11669 2398
11670 2398
11670 6421
11671 1911
11671 2398
11672 707
11672 2399
11673 2400
11674 338
11674 2400
11675 2403
11676 2403
11676 3253
11677 2404
11678 2405
11679 2405
11679 3055
11680 2407
11681 2408
11682 2413
11683 2414
11683 2610
11683 2611
11683 2612
11683 3014
11684 2416
11685 2418
11686 849
11686 2418
11687 76
11687 2419
11688 2419
11689 77
11689 2420
11690 2420
11691 2421
11691 3092
11692 2422
11692 12754
11693 2426
11694 2427
11695 608
11695 2427
11696 2428
11697 2429
11698 2429
11698 2636
11699 2430
11700 2431
11701 1596
11701 2431
11702 1902
11702 2431
11703 2432
11704 2433
11705 2434
11706 424
11706 2434
11707 2436
11708 450
11708 2436
11709 2437
11710 2439
11711 1543
11711 2439
11712 2440
11713 677
11713 2440
11714 2443
11714 2445
11714 2446
11714 3190
11714 4031
11715 2446
11716 1118
11716 2447
11717 2447
11718 387
11718 2448
11719 1062
11719 2448
11720 2448
11721 451
11721 2448
11722 2449
11723 2450
11724 2450
11724 12883
11725 2450
11725 2762
11726 1624
11726 2451
11727 2451
11728 2452
11729 2389
11729 2452
11730 2453
11731 2453
11731 2531
11731 2810
11732 2454
11733 570
11733 2455
11734 2455
11735 2456
11736 2456
11736 6261
11737 688
11737 2456
11738 2458
11738 2479
11738 2514
11738 5821
11738 10968
11739 2458
11739 2479
11739 5821
11739 10968
11740 2460
11741 2461
11742 450
11742 2461
11743 2462
11744 2464
11745 2465
11746 2465
11746 3080
11747 2466
11748 2469
11749 2470
11750 2470
11750 3257
11751 2471
11751 2510
11752 2471
11753 2472
11754 2472
11754 2897
11755 12763
11756 2474
11756 2968
11757 270
11757 2476
11758 2476
11759 2477
11760 2059
11760 2477
11761 78
11761 2477
11762 2479
11762 5821
11762 12884
11763 2480
11764 498
11764 2480
11765 2481
11766 291
11766 2481
11767 2484
11768 2485
11769 409
11769 2485
11770 478
11770 2489
11771 2489
11772 406
11772 2489
11773 2489
11773 3210
11774 2491
11775 1973
11775 2491
11776 2492
11777 2494
11777 5386
11778 2494
11778 12885
11779 2495
11779 2821
11780 2495
11780 2553
11780 3317
11781 2495
11781 2551
11781 2553
11781 2554
11781 2860
11782 2495
11783 2496
11783 3108
11784 2496
11785 2497
11786 2498
11787 2499
11788 2500
11789 490
11789 2500
11790 738
11790 2501
11791 2501
11792 2502
11792 3032
11793 2502
11793 2503
11793 2505
11794 2503
11795 2506
11795 6203
11796 2506
11796 12886
11797 2506
11798 398
11798 2506
11798 2615
11799 2507
11799 10457
11800 2509
11801 2510
11802 781
11802 2510
11803 2511
11804 2515
11805 1869
11805 2515
11806 377
11806 2515
11807 2516
11808 2517
11809 2518
11810 2519
11810 11811
11811 2519
11811 6650
11811 11810
11811 12887
11812 2519
11813 2520
11813 10129
11814 2521
11815 2522
11816 2523
11817 2524
11818 1155
11818 2524
11819 2526
11820 2071
11820 2526
11821 2527
11822 2528
11823 577
11823 2529
11824 2530
11825 2530
11825 3151
11826 2531
11827 2531
11827 2810
11828 2531
11828 2583
11828 2584
11828 2585
11828 2810
11829 2533
11830 2534
11831 2535
11832 2538
11833 1088
11833 2538
11834 2539
11835 2541
11835 2549
11835 8764
11836 963
11836 2542
11837 2542
11838 2542
11838 2719
11839 2543
11840 2544
11841 2545
11842 2546
11843 1048
11843 1151
11843 2547
11844 2547
11845 2548
11846 2548
11846 4065
11847 2551
11848 2552
11849 187
11849 2553
11850 2556
11850 2658
11850 2710
11850 2724
11850 2960
11851 2561
11852 2563
11853 2564
11854 2565
11855 2566
11856 326
11856 2566
11857 2568
11858 2569
11859 1331
11859 2569
11860 2570
11861 2570
11861 2831
11861 9157
11862 2571
11863 2573
11864 2574
11865 2574
11865 2606
11866 2575
11867 2578
11868 2578
11868 2633
11869 1238
11869 2580
11869 2581
11870 2580
11871 1624
11871 2582
11872 2582
11873 2583
11874 2584
11875 892
11875 2584
11876 2584
11876 2983
11877 2585
11878 2585
11878 2865
11879 2586
11880 2587
11881 2587
11881 3704
11882 1129
11882 2587
11883 368
11883 2587
11884 2099
11884 2588
11885 1335
11885 2588
11886 2588
11887 2589
11888 2590
11888 12888
11889 2590
11890 119
11890 2591
11891 2591
11892 2592
11893 604
11893 2592
11894 2593
11894 3115
11895 2596
11896 1374
11896 2234
11896 2597
11896 3830
11896 3937
11896 7120
11896 7121
11896 7122
11896 7123
11896 7124
11897 2598
11898 2599
11899 1330
11899 2599
11900 1617
11900 2030
11900 2599
11900 2719
11900 2864
11901 2602
11902 2603
11903 2605
11904 2605
11904 2666
11904 3232
11904 9809
11904 11299
11905 2606
11905 10561
11906 2606
11907 2606
11907 2795
11908 2608
11909 1336
11909 2608
11910 2609
11910 3157
11911 2611
11912 2615
11913 2616
11914 897
11914 2617
11915 2617
11916 630
11916 2618
11917 2618
11917 2980
11918 340
11918 2620
11919 2620
11920 340
11920 2621
11921 701
11921 2624
11922 1759
11922 2626
11923 2628
11923 3032
11923 3095
11924 2629
11924 9163
11925 2629
11926 2630
11926 2723
11927 2631
11928 2633
11929 2634
11929 3044
11930 2634
11931 2635
11931 3387
11932 2635
11933 2636
11934 2639
11934 2657
11935 2640
11936 2641
11937 2641
11937 3096
11938 2642
11938 3031
11939 2642
11940 2644
11941 657
11941 2644
11942 2645
11942 2905
11943 542
11943 1080
11943 2646
11944 2647
11945 2647
11945 2666
11946 77
11946 2648
11947 12682
11948 2651
11949 447
11949 2651
11950 12589
11951 96
11951 2652
11952 2653
11952 12890
11953 2653
11954 2654
11955 2655
11956 2656
11957 77
11957 2656
11958 2657
11959 2658
11960 2658
11960 2696
11961 2662
11962 1009
11962 2665
11963 2667
11964 654
11964 2667
11965 2668
11966 2668
11966 7027
11966 12891
11967 2669
11968 2670
11969 377
11969 2670
11970 1569
11970 2671
11971 2671
11972 2672
11973 1065
11973 2673
11974 2675
11975 736
11975 2675
11976 2675
11976 12146
11977 2677
11977 2705
11978 2678
11979 2679
11980 2680
11981 2681
11982 2682
11983 2683
11984 2684
11985 2688
11986 2690
11987 2691
11988 2692
11989 2692
11989 2929
11990 2693
11991 2695
11992 2695
11992 3423
11993 2696
11994 2697
11995 807
11995 2697
11996 2698
11997 2699
11998 2703
11999 2704
12000 2705
12001 2707
12001 3186
12002 2707
12003 976
12003 2708
12004 2708
12005 2709
12006 2692
12006 2710
12007 308
12007 2711
12008 2711
12009 400
12009 2712
12010 2712
12010 6987
12011 2713
12012 2715
12013 2715
12013 12892
12014 2716
12015 2716
12015 4540
12016 578
12016 2716
12017 1016
12017 2718
12018 2718
12019 2720
12020 2721
12020 3568
12021 2721
12021 3242
12021 3568
12022 2723
12023 1036
12023 2723
12024 2723
12024 2856
12024 2933
12025 2724
12026 2724
12026 3003
12027 2725
12028 2727
12028 6418
12028 9154
12029 595
12029 2727
12030 2727
12031 2728
12032 2731
12033 925
12033 2736
12034 361
12034 2740
12035 2744
12036 2744
12036 12311
12037 2745
12038 12601
12039 895
12039 2747
12040 2748
12041 2749
12042 2749
12042 3234
12043 2274
12043 2751
12044 2752
12045 2754
12046 711
12046 2755
12047 2755
12048 2756
12049 2758
12050 382
12050 2762
12051 2762
12052 193
12052 2763
12053 2764
12054 2765
12055 2766
12055 2963
12056 2766
12057 2767
12058 2768
12059 2770
12060 2771
12061 2772
12062 2772
12062 2779
12062 2780
12063 2772
12063 2779
12064 2774
12065 2775
12066 2305
12066 2775
12067 2775
12067 2813
12068 2776
12069 2776
12069 3328
12070 2777
12070 3839
12071 2778
12072 2779
12073 2780
12074 2781
12074 3144
12075 2782
12076 2786
12077 2787
12078 2788
12079 2789
12080 2791
12081 2792
12082 2795
12083 2795
12083 3242
12084 2796
12084 8039
12085 2796
12086 2799
12087 2800
12088 2801
12089 2802
12090 849
12090 2802
12091 2803
12091 2855
12091 2876
12092 2803
12092 12744
12093 2803
12094 464
12094 2807
12095 1167
12095 2808
12096 2808
12097 2809
12098 2809
12098 3010
12099 2810
12100 2812
12101 2813
12102 2814
12103 2816
12104 2817
12105 2818
12106 2819
12107 925
12107 2820
12108 1862
12108 2820
12109 2823
12110 776
12110 2823
12111 2824
12112 1085
12112 2824
12113 2825
12114 65
12114 2825
12115 2826
12116 2827
12117 2828
12118 2829
12119 455
12119 2831
12120 2832
12121 2833
12122 2834
12123 2835
12124 2840
12125 2841
12126 2842
12127 2843
12128 2844
12129 2845
12130 2845
12130 3233
12131 2846
12132 733
12132 2846
12133 2847
12134 2848
12135 711
12135 2848
12136 2850
12137 1330
12137 2850
12138 417
12138 2851
12139 2851
12139 2981
12140 2852
12141 2854
12142 2855
12143 900
12143 2856
12144 2857
12145 2858
12146 2859
12146 11976
12146 12893
12147 2859
12148 1136
12148 2860
12148 8916
12149 2862
12149 9150
12149 9151
12150 2865
12151 1112
12151 2867
12152 2869
12153 2870
12153 12720
12154 2871
12155 2873
12156 2875
12156 5388
12157 2875
12158 78
12158 2876
12159 2876
12160 2878
12161 2879
12162 693
12162 2879
12163 2880
12164 2882
12165 2886
12166 2887
12167 2887
12167 7302
12168 2888
12169 2889
12170 2890
12171 976
12171 2890
12172 1152
12172 2890
12173 2891
12174 2894
12175 2896
12175 12894
12176 65
12176 2897
12177 2897
12178 2897
12178 2914
12179 2898
12180 2899
12181 2900
12182 2900
12182 9007
12183 2900
12183 3358
12184 1869
12184 2901
12185 2901
12186 365
12186 2901
12187 1801
12187 2901
12188 2902
12189 2903
12190 2904
12191 2905
12192 2907
12193 2908
12194 2909
12195 2910
12196 2911
12197 2912
12198 2913
12199 2914
12200 1072
12200 2914
12201 867
12201 2914
12202 2915
12203 2916
12204 680
12204 2918
12205 2918
12206 2920
12207 2921
12208 377
12208 2921
12209 2921
12209 12648
12210 2922
12211 456
12211 2922
12212 2239
12212 2923
12213 2923
12214 643
12214 2930
12215 2930
12216 2933
12217 74
12217 2940
12218 2940
12219 2941
12220 2942
12220 8173
12221 2942
12222 2944
12223 2945
12224 2948
12225 2949
12226 2950
12227 442
12227 2951
12228 2952
12229 2954
12230 2954
12230 3831
12230 7429
12231 2955
12232 2958
12233 2961
12234 2962
12235 2963
12236 2964
12237 742
12237 2964
12238 814
12238 2964
12239 2965
12240 2967
12240 3418
12241 2968
12242 2970
12243 2971
12243 6404
12244 2971
12245 2972
12246 2971
12246 2972
12247 2974
12247 3544
12248 2976
12249 2977
12250 2978
12251 2979
12252 2981
12252 6678
12253 2982
12254 2983
12255 12639
12256 2985
12257 2986
12258 2987
12259 319
12259 2987
12260 2989
12261 2989
12261 6273
12262 2990
12263 1074
12263 2990
12264 2991
12265 2992
12266 2993
12267 2994
12268 2995
12269 2996
12270 2997
12270 3295
12271 2998
12272 2999
12272 9223
12273 3000
12274 1410
12274 3004
12274 3262
12275 3004
12276 3005
12277 3006
12277 3572
12278 3006
12279 3008
12280 1685
12280 3010
12281 3010
12282 3011
12283 78
12283 3012
12284 3015
12285 3018
12285 3019
12286 3018
12287 3019
12288 3023
12289 3025
12290 3026
12290 3027
12291 3027
12292 3033
12293 3035
12294 3036
12295 3039
12296 3040
12296 6416
12297 3042
12297 3139
12298 3042
12299 3043
12300 3044
12301 3046
12301 6421
12302 502
12302 3046
12303 3047
12303 5821
12303 12895
12304 1551
12304 1775
12304 3048
12305 3050
12306 3050
12306 6277
12307 3051
12308 3052
12309 3053
12310 3054
12311 7
12311 6296
12311 12036
12312 3058
12313 3061
12314 3062
12315 3064
12315 3202
12315 4275
12316 3067
12317 3074
12318 3075
12319 3076
12320 3077
12321 3078
12321 3133
12322 3080
12323 3081
12324 3083
12325 979
12325 3083
12326 3085
12327 3086
12328 3087
12329 3088
12330 3089
12331 3091
12331 6394
12332 758
12332 3094
12333 3094
12334 3096
12335 3097
12336 60
12336 3098
12337 3099
12338 1391
12338 3101
12339 3103
12340 3104
12341 3105
12342 773
12342 3105
12343 3105
12343 4524
12344 3108
12345 3109
12346 3110
12347 3111
12348 455
12348 3111
12349 3112
12350 3114
12351 1643
12351 3114
12352 3115
12353 3117
12354 3118
12355 3119
12356 3120
12356 3275
12357 3121
12358 3122
12359 3123
12360 3131
12361 3132
12362 3133
12363 3135
12364 3136
12365 3137
12366 3138
12367 3142
12368 3143
12369 3144
12370 3145
12371 3149
12372 3150
12373 3151
12374 3152
12375 3155
12376 3156
12377 3158
12378 3159
12379 3160
12380 3162
12381 3165
12381 6647
12381 6648
12381 6649
12382 3165
12383 3167
12384 3168
12385 3169
12385 3314
12386 3169
12387 3170
12388 3172
12389 3174
12390 3176
12391 899
12391 3176
12392 3178
12392 7321
12392 9834
12393 3180
12394 3181
12395 3181
12395 12896
12396 3182
12397 1118
12397 3182
12398 3183
12399 976
12399 3186
12400 3187
12401 2154
12401 3187
12402 3188
12403 1152
12403 3189
12404 1101
12404 3193
12405 3195
12406 3199
12407 3202
12408 3204
12409 735
12409 3205
12410 3205
12411 3207
12412 3209
12413 3209
12413 3318
12414 3210
12415 3213
12416 3214
12416 12897
12417 3214
12417 6412
12418 3214
12419 3215
12420 3219
12421 3220
12422 3221
12423 3222
12424 3224
12425 3226
12426 3228
12427 3229
12428 3230
12429 3231
12429 11299
12430 3233
12431 3234
12432 3237
12433 3238
12434 3240
12435 3241
12436 3242
12437 3243
12438 1157
12438 3243
12439 945
12439 3243
12440 3245
12441 3248
12442 3249
12443 3250
12444 3251
12445 3253
12446 3254
12447 12545
12448 3265
12449 3266
12450 3267
12451 3268
12452 3269
12453 3270
12454 3271
12455 635
12455 3272
12456 3275
12457 3277
12458 3279
12459 3280
12460 1335
12460 3280
12461 3281
12461 3686
12461 9158
12462 3283
12463 3284
12464 3285
12465 3286
12466 3291
12467 170
12467 3291
12468 3292
12469 3293
12469 3562
12470 3293
12471 3296
12472 3299
12473 1931
12473 3300
12474 3300
12475 3301
12476 3303
12477 3214
12477 3304
12478 3304
12479 3305
12480 3306
12481 3307
12482 3310
12483 3312
12484 3312
12484 12759
12485 3315
12486 3316
12487 3322
12488 3323
12489 3324
12489 10153
12490 3324
12491 3328
12492 3329
12493 3330
12494 3331
12494 4236
12495 3331
12496 3332
12497 3333
12497 4066
12498 3333
12499 3334
12500 3340
12501 3357
12502 3358
12503 3359
12504 3360
12505 3418
12506 3421
12507 3423
12508 3464
12509 3470
12510 3471
12511 3491
12512 3492
12513 3517
12513 10517
12514 3538
12515 3546
12516 3554
12516 4639
12517 3558
12518 3561
12518 12899
12519 3562
12520 3565
12521 3565
12521 3569
12522 3566
12523 3568
12524 3569
12525 3580
12526 3585
12527 3601
12527 10062
12527 12901
12528 3660
12528 6881
12529 3685
12530 3686
12531 3689
12532 3695
12533 3696
12534 3698
12535 3701
12536 3702
12536 5820
12536 5822
12537 3703
12538 3704
12539 3705
12540 3706
12541 3707
12542 3708
12543 3710
12544 3711
12545 3731
12545 4862
12545 12447
12546 3831
12547 1780
12547 3832
12548 3832
12549 3833
12549 4828
12550 3835
12551 3860
12552 3863
12553 3882
12553 4525
12553 4526
12553 7189
12553 7483
12554 3887
12554 8753
12555 3896
12556 3914
12556 5130
12557 3934
12557 5359
12558 3939
12558 8957
12558 8959
12559 3945
12560 3958
12561 3963
12561 8541
12562 3979
12563 1206
12563 3979
12563 9609
12564 3979
12564 12905
12565 3980
12566 4005
12567 4032
12568 4054
12569 4066
12570 4067
12571 4129
12571 12907
12572 4130
12573 4139
12573 12909
12574 4159
12575 4173
12576 4196
12577 4235
12577 12910
12578 4235
12578 5385
12579 4236
12579 12911
12580 4236
12581 4237
12582 4237
12582 12912
12583 4238
12583 12913
12584 4238
12585 4239
12585 9064
12586 4234
12586 4239
12587 4240
12588 4240
12588 4785
12589 4271
12589 9210
12589 11950
12590 4289
12590 7067
12591 4295
12591 4693
12592 4351
12593 4380
12594 4419
12595 4472
12596 183
12597 4485
12598 4491
12599 4523
12599 7480
12599 7481
12599 7681
12600 4524
12601 4536
12601 12038
12602 4540
12603 4588
12603 7555
12604 4599
12604 5842
12605 4639
12605 6268
12605 10680
12606 4641
12606 5825
12607 4642
12608 249
12609 4644
12610 4648
12610 5899
12611 4657
12611 4663
12612 4732
12613 4785
12614 4791
12614 12917
12615 255
12616 4825
12617 97
12618 4826
12619 4836
12619 11049
12619 11050
12620 4839
12620 10184
12620 10190
12620 10822
12620 10983
12620 11320
12620 11326
12621 4840
12621 12921
12622 4892
12622 12922
12623 4893
12623 12924
12624 4899
12624 10507
12624 10508
12624 10509
12625 5045
12626 153
12627 5051
12628 5093
12628 5306
12629 5164
12630 5281
12631 5287
12631 5511
12632 5351
12632 8590
12632 8591
12632 8592
12632 8593
12633 5365
12633 10413
12633 10414
12634 5377
12634 7920
12635 5383
12636 5386
12637 5413
12638 5457
12638 12928
12639 5524
12639 12255
12640 5527
12641 5537
12642 5545
12643 371
12644 5692
12645 5704
12645 7412
12645 11322
12645 12929
12646 256
12647 5705
12648 5752
12648 12209
12649 5821
12649 12930
12650 5821
12651 5823
12652 5824
12652 6737
12653 5826
12653 6898
12654 5860
12655 5874
12655 6609
12655 6610
12655 11507
12656 5925
12657 5933
12658 5981
12659 6006
12660 6009
12661 6058
12662 6186
12662 12932
12663 6197
12663 8031
12664 6199
12664 12934
12665 6200
12665 12935
12666 6201
12666 12936
12667 6202
12667 12937
12668 6203
12668 12938
12669 6262
12669 6409
12670 6262
12671 6263
12672 6264
12672 12939
12673 6267
12674 6267
12674 8408
12674 11573
12675 6269
12676 6270
12676 12940
12677 6271
12677 6272
12677 9092
12678 6282
12679 6283
12680 6292
12680 12941
12681 6305
12681 12943
12682 6308
12682 11947
12683 6390
12684 1882
12684 6390
12685 12754
12686 12947
12687 1931
12687 12945
12688 9168
12688 12946
12689 12870
12690 6395
12691 6395
12691 12947
12692 6397
12693 6397
12693 6405
12694 6398
12695 6398
12695 9820
12696 6399
12697 12778
12698 624
12698 12760
12699 6403
12700 6403
12700 9358
12701 6393
12701 6404
12702 6404
12703 6405
12704 6406
12705 6407
12706 1129
12706 6407
12707 12804
12708 6410
12708 9162
12709 12759
12710 6411
12711 12888
12712 6414
12713 6415
12714 6416
12715 6419
12716 534
12716 10965
12717 6422
12717 8936
12718 6422
12719 6423
12720 6423
12720 12153
12721 6398
12721 6424
12722 6424
12722 8365
12723 6424
12724 6425
12725 6553
12726 6562
12726 12948
12727 6645
12728 6649
12729 6670
12729 12949
12730 373
12731 6671
12732 6675
12732 12950
12733 432
12734 6688
12735 6698
12735 7801
12735 12952
12736 6699
12737 6710
12737 7313
12738 6733
12738 12953
12739 6781
12740 6785
12741 6788
12741 12954
12742 6801
12743 6803
12743 12955
12744 6815
12744 12092
12744 12957
12745 6876
12746 6878
12747 6900
12747 12958
12748 433
12749 6906
12750 6952
12750 12960
12751 7034
12751 12961
12752 7034
12752 10063
12752 12962
12753 7107
12753 12963
12754 7115
12754 11692
12754 12685
12755 1796
12755 7116
12756 7117
12757 7145
12758 7183
12758 12966
12759 7185
12759 12484
12759 12709
12760 7270
12760 12698
12760 12968
12761 7314
12761 12969
12762 7326
12762 7327
12763 7357
12763 11755
12764 7388
12764 12970
12765 7413
12766 748
12767 7434
12768 7454
12769 7472
12769 12971
12770 7515
12771 7593
12771 8883
12771 12972
12772 7624
12772 12973
12773 7690
12773 12974
12774 582
12775 7725
12776 7732
12776 10257
12777 7776
12778 7791
12778 12697
12779 7802
12780 7807
12781 7809
12782 7981
12783 7983
12783 12975
12784 8027
12785 8028
12786 8123
12787 8168
12788 8201
12788 12976
12789 8229
12790 8315
12791 8465
12792 8469
12793 257
12794 8620
12795 8627
12795 12977
12796 8658
12797 8684
12797 12978
12798 8721
12798 12979
12799 8750
12800 8764
12801 8769
12801 12980
12802 8939
12803 8940
12804 8971
12804 11202
12804 12707
12805 790
12806 9118
12807 9150
12808 12848
12809 9152
12810 9153
12811 9155
12812 9157
12813 9158
12814 9160
12815 9161
12816 9162
12817 9163
12818 9164
12819 0
12819 9166
12820 9167
12821 9168
12822 9170
12823 9283
12824 9338
12825 9353
12825 9354
12826 9359
12826 12982
12827 9425
12828 1149
12829 9563
12830 9632
12831 9647
12831 11256
12832 9658
12832 12983
12833 9664
12834 9738
12834 12984
12835 9741
12835 12985
12836 9749
12837 9767
12838 9809
12839 9820
12840 9857
12841 9902
12842 1200
12843 9945
12844 10035
12845 10036
12845 10833
12846 10055
12846 10057
12846 12986
12847 10056
12847 10058
12847 10059
12848 10072
12848 12808
12849 10129
12850 10153
12851 1448
12852 10211
12852 11570
12853 10295
12854 1091
12855 10534
12856 10588
12856 12988
12857 10590
12858 10615
12859 10633
12860 10658
12861 10736
12862 10741
12862 12989
12863 10785
12864 130
12865 10841
12866 1394
12867 10897
12867 12990
12868 10969
12869 1326
12870 10991
12870 12689
12871 11033
12872 11052
12872 12991
12873 11167
12874 11213
12875 11221
12876 11262
12876 12992
12877 1924
12878 11268
12879 372
12880 11473
12881 11545
12881 12993
12882 11618
12883 6198
12883 11724
12884 11762
12885 11778
12886 11796
12887 11811
12888 11888
12888 12711
12889 699
12890 11952
12891 11966
12892 12013
12892 12994
12893 12146
12894 12175
12895 12303
12896 12395
12897 12416
12898 2984
12899 12518
12900 1527
12901 12527
12902 3263
12903 236
12904 1150
12905 12564
12906 1603
12907 12571
12908 2103
12909 12573
12910 12577
12911 12579
12912 12582
12913 12583
12914 2652
12915 791
12916 2746
12917 12614
12918 1973
12919 1576
12920 2473
12921 12621
12922 12622
12923 750
12924 12623
12925 1711
12926 1056
12927 1664
12928 12638
12929 12645
12930 12649
12930 12995
12931 2276
12932 12662
12933 490
12934 12664
12935 12665
12936 12666
12937 12667
12938 12668
12939 12672
12940 12676
12941 12680
12942 1274
12943 12681
12944 2650
12945 12687
12945 12996
12946 12688
12946 12997
12947 12686
12947 12691
12948 12726
12949 12729
12950 12732
12951 6402
12952 12735
12953 12738
12954 12741
12955 12743
12956 6409
12957 12744
12958 12747
12959 6412
12960 12750
12961 12751
12962 12752
12963 12753
12964 6392
12965 6394
12966 12758
12967 6410
12968 12760
12969 12761
12970 12764
12971 12769
12972 12771
12973 12772
12974 12773
12975 12783
12976 12788
12977 12795
12978 12797
12979 12798
12980 12801
12981 9151
12982 12826
12983 12832
12984 12834
12985 12835
12986 12846
12987 6393
12988 12856
12989 12862
12990 12867
12991 12872
12992 12876
12993 12881
12994 12892
12995 12930
12996 12945
12997 12946
