0 0
0 1
0 2
0 3
0 4
0 5
0 6
0 7
0 10
0 12
0 15
0 16
0 18
0 19
0 20
0 21
0 22
0 27
0 28
0 35
0 37
0 38
0 41
0 42
0 43
0 44
0 48
0 49
0 50
0 51
0 52
0 53
0 54
0 56
0 57
0 58
0 59
0 60
0 61
0 62
0 63
0 64
0 65
0 66
0 68
0 70
0 72
0 73
0 74
0 75
0 76
0 77
0 78
0 79
0 81
0 82
0 83
0 84
0 85
0 86
0 87
0 88
0 89
0 90
0 91
0 92
0 93
0 94
0 95
0 96
0 97
0 98
0 99
0 100
0 101
0 102
0 103
0 104
0 105
0 106
0 107
0 108
0 109
0 110
0 111
0 112
0 113
0 114
0 115
0 116
0 117
0 118
0 119
0 120
0 121
0 122
0 123
0 124
0 125
0 126
0 127
0 128
0 129
0 130
0 131
0 132
0 133
0 134
0 135
0 136
0 137
0 138
0 139
0 140
0 141
0 142
0 143
0 144
0 145
0 146
0 147
0 148
0 149
0 150
0 151
0 152
0 153
0 154
0 155
0 156
0 157
0 159
0 160
0 161
0 162
0 163
0 165
0 166
0 167
0 168
0 169
0 170
0 172
0 173
0 174
0 175
0 176
0 177
0 178
0 179
0 180
0 181
0 182
0 183
0 184
0 185
0 186
0 187
0 189
0 190
0 191
0 192
0 193
0 194
0 195
0 197
0 198
0 199
0 200
0 201
0 202
0 204
0 207
0 208
0 209
0 210
0 211
0 212
0 214
0 215
0 216
0 217
0 218
0 219
0 220
0 221
0 222
0 223
0 224
0 225
0 226
0 227
0 228
0 229
0 230
0 231
0 232
0 233
0 235
0 236
0 237
0 238
0 239
0 240
0 241
0 242
0 243
0 244
0 245
0 246
0 248
0 249
0 251
0 252
0 253
0 254
0 255
0 256
0 257
0 258
0 259
0 260
0 261
0 262
0 263
0 264
0 265
0 266
0 268
0 270
0 271
0 272
0 274
0 275
0 276
0 277
0 280
0 281
0 282
0 283
0 284
0 285
0 286
0 289
0 290
0 293
0 294
0 296
0 297
0 298
0 299
0 300
0 303
0 304
0 305
0 306
0 307
0 309
0 310
0 311
0 312
0 313
0 314
0 316
0 317
0 318
0 319
0 320
0 321
0 324
0 326
0 327
0 329
0 330
0 331
0 332
0 333
0 334
0 335
0 337
0 338
0 339
0 340
0 342
0 344
0 345
0 346
0 347
0 348
0 350
0 351
0 352
0 354
0 357
0 358
0 359
0 360
0 361
0 362
0 363
0 364
0 365
0 366
0 368
0 371
0 372
0 373
0 374
0 377
0 378
0 379
0 381
0 383
0 384
0 386
0 389
0 390
0 391
0 393
0 394
0 395
0 396
0 397
0 398
0 399
0 400
0 401
0 403
0 405
0 406
0 407
0 408
0 409
0 410
0 416
0 419
0 420
0 421
0 422
0 423
0 424
0 425
0 426
0 427
0 428
0 429
0 430
0 431
0 432
0 435
0 436
0 437
0 438
0 439
0 440
0 441
0 442
0 443
0 446
0 450
0 453
0 454
0 456
0 457
0 460
0 461
0 462
0 464
0 465
0 466
0 467
0 468
0 470
0 475
0 476
0 478
0 480
0 481
0 482
0 484
0 486
0 487
0 490
0 491
0 492
0 494
0 496
0 498
0 499
0 500
0 502
0 505
0 507
0 509
0 511
0 513
0 514
0 515
0 516
0 517
0 518
0 519
0 520
0 521
0 522
0 523
0 525
0 526
0 528
0 529
0 530
0 531
0 533
0 535
0 536
0 538
0 539
0 542
0 545
0 546
0 547
0 551
0 552
0 554
0 555
0 556
0 557
0 558
0 559
0 560
0 563
0 566
0 567
0 569
0 575
0 576
0 577
0 578
0 580
0 582
0 583
0 588
0 589
1 0
1 1
1 2
1 3
1 4
1 5
1 6
1 7
1 8
1 10
1 11
1 12
1 13
1 14
1 15
1 16
1 17
1 18
1 19
1 20
1 21
1 22
1 23
1 25
1 26
1 27
1 28
1 31
1 34
1 35
1 36
1 37
1 38
1 39
1 40
1 41
1 42
1 43
1 44
1 48
1 49
1 50
1 51
1 52
1 53
1 54
1 55
1 56
1 57
1 58
1 59
1 60
1 61
1 62
1 63
1 64
1 65
1 66
1 67
1 68
1 69
1 70
1 71
1 72
1 73
1 74
1 75
1 76
1 77
1 78
1 79
1 81
1 82
1 83
1 84
1 85
1 86
1 87
1 88
1 89
1 90
1 91
1 92
1 93
1 94
1 95
1 96
1 97
1 98
1 99
1 100
1 101
1 102
1 103
1 104
1 105
1 107
1 108
1 109
1 110
1 111
1 112
1 113
1 114
1 115
1 116
1 117
1 118
1 119
1 120
1 121
1 122
1 123
1 124
1 125
1 126
1 127
1 128
1 129
1 130
1 131
1 132
1 133
1 134
1 135
1 136
1 137
1 138
1 139
1 140
1 141
1 142
1 144
1 145
1 146
1 147
1 148
1 149
1 150
1 151
1 152
1 153
1 154
1 155
1 156
1 157
1 158
1 159
1 160
1 161
1 162
1 163
1 164
1 165
1 166
1 167
1 168
1 169
1 170
1 171
1 172
1 173
1 174
1 175
1 176
1 177
1 178
1 179
1 180
1 181
1 182
1 183
1 184
1 185
1 186
1 187
1 188
1 189
1 190
1 191
1 192
1 193
1 194
1 195
1 196
1 197
1 198
1 199
1 200
1 201
1 202
1 203
1 204
1 205
1 206
1 207
1 208
1 209
1 210
1 211
1 212
1 213
1 214
1 215
1 216
1 217
1 218
1 219
1 220
1 221
1 222
1 223
1 224
1 225
1 226
1 227
1 228
1 229
1 230
1 231
1 232
1 233
1 234
1 235
1 236
1 237
1 238
1 239
1 240
1 241
1 242
1 243
1 244
1 245
1 246
1 248
1 249
1 250
1 251
1 252
1 253
1 254
1 255
1 256
1 257
1 258
1 259
1 260
1 261
1 262
1 263
1 264
1 265
1 266
1 267
1 268
1 269
1 270
1 271
1 272
1 273
1 274
1 275
1 276
1 277
1 278
1 279
1 280
1 281
1 282
1 283
1 284
1 285
1 286
1 287
1 288
1 289
1 290
1 291
1 292
1 293
1 294
1 295
1 296
1 297
1 298
1 299
1 300
1 301
1 302
1 303
1 304
1 305
1 306
1 307
1 308
1 309
1 310
1 311
1 312
1 313
1 314
1 315
1 316
1 317
1 318
1 319
1 320
1 321
1 322
1 323
1 325
1 326
1 327
1 328
1 329
1 330
1 331
1 332
1 333
1 334
1 335
1 336
1 337
1 338
1 339
1 340
1 341
1 342
1 344
1 345
1 346
1 347
1 348
1 349
1 350
1 351
1 352
1 354
1 356
1 357
1 358
1 359
1 360
1 361
1 362
1 363
1 364
1 365
1 366
1 368
1 369
1 371
1 372
1 373
1 374
1 376
1 377
1 378
1 379
1 380
1 382
1 383
1 384
1 385
1 386
1 387
1 388
1 389
1 390
1 391
1 392
1 393
1 394
1 395
1 396
1 397
1 398
1 400
1 401
1 402
1 403
1 404
1 405
1 406
1 407
1 408
1 409
1 410
1 411
1 412
1 414
1 415
1 416
1 418
1 419
1 420
1 421
1 422
1 423
1 424
1 425
1 426
1 427
1 428
1 429
1 430
1 431
1 432
1 436
1 437
1 438
1 439
1 440
1 441
1 442
1 443
1 446
1 450
1 451
1 452
1 453
1 454
1 456
1 458
1 459
1 460
1 461
1 462
1 464
1 465
1 467
1 468
1 469
1 470
1 471
1 472
1 473
1 476
1 478
1 480
1 481
1 483
1 484
1 485
1 486
1 487
1 489
1 491
1 493
1 494
1 495
1 496
1 497
1 498
1 499
1 501
1 502
1 503
1 504
1 505
1 506
1 507
1 509
1 510
1 511
1 512
1 513
1 514
1 515
1 516
1 517
1 518
1 519
1 521
1 522
1 523
1 525
1 526
1 527
1 528
1 530
1 532
1 533
1 534
1 535
1 536
1 537
1 538
1 539
1 542
1 543
1 544
1 546
1 547
1 548
1 551
1 552
1 553
1 554
1 555
1 556
1 557
1 558
1 560
1 561
1 562
1 563
1 564
1 566
1 567
1 568
1 569
1 570
1 572
1 573
1 575
1 576
1 577
1 578
1 580
1 581
1 582
1 583
1 584
1 585
1 586
1 588
1 589
2 0
2 1
2 2
2 3
2 4
2 5
2 6
2 7
2 8
2 10
2 11
2 14
2 15
2 17
2 18
2 19
2 20
2 21
2 22
2 23
2 24
2 25
2 26
2 28
2 30
2 31
2 33
2 35
2 36
2 37
2 38
2 39
2 40
2 41
2 42
2 43
2 44
2 46
2 47
2 48
2 49
2 50
2 51
2 52
2 53
2 54
2 55
2 56
2 57
2 58
2 59
2 60
2 61
2 62
2 63
2 64
2 65
2 66
2 68
2 69
2 70
2 71
2 72
2 73
2 74
2 75
2 76
2 77
2 78
2 79
2 81
2 82
2 83
2 84
2 85
2 86
2 87
2 88
2 89
2 90
2 91
2 92
2 93
2 94
2 96
2 97
2 98
2 99
2 100
2 101
2 102
2 105
2 107
2 108
2 109
2 110
2 111
2 112
2 113
2 114
2 116
2 118
2 119
2 120
2 121
2 122
2 123
2 124
2 125
2 126
2 127
2 128
2 129
2 132
2 133
2 134
2 136
2 137
2 138
2 139
2 140
2 141
2 142
2 143
2 144
2 145
2 146
2 147
2 148
2 149
2 150
2 151
2 152
2 153
2 154
2 155
2 156
2 157
2 159
2 161
2 162
2 163
2 165
2 166
2 167
2 168
2 169
2 170
2 171
2 172
2 173
2 174
2 175
2 176
2 178
2 179
2 180
2 181
2 182
2 183
2 184
2 185
2 186
2 187
2 188
2 189
2 190
2 191
2 192
2 193
2 194
2 195
2 196
2 197
2 198
2 199
2 200
2 201
2 202
2 203
2 204
2 205
2 206
2 207
2 208
2 209
2 210
2 211
2 212
2 213
2 214
2 215
2 216
2 217
2 218
2 219
2 220
2 221
2 222
2 223
2 224
2 225
2 226
2 227
2 228
2 229
2 230
2 231
2 233
2 234
2 235
2 236
2 237
2 238
2 239
2 240
2 241
2 242
2 243
2 244
2 245
2 246
2 247
2 248
2 249
2 250
2 251
2 252
2 253
2 254
2 255
2 256
2 257
2 258
2 259
2 260
2 261
2 262
2 263
2 264
2 265
2 266
2 267
2 268
2 269
2 270
2 271
2 272
2 273
2 274
2 275
2 276
2 277
2 278
2 279
2 280
2 281
2 282
2 283
2 284
2 285
2 286
2 287
2 288
2 289
2 290
2 291
2 292
2 293
2 294
2 295
2 296
2 297
2 298
2 299
2 300
2 301
2 302
2 303
2 304
2 305
2 306
2 307
2 308
2 309
2 310
2 312
2 313
2 314
2 315
2 316
2 318
2 319
2 320
2 321
2 322
2 323
2 324
2 325
2 326
2 327
2 329
2 330
2 331
2 332
2 333
2 334
2 335
2 337
2 338
2 339
2 340
2 342
2 344
2 345
2 346
2 347
2 348
2 349
2 350
2 351
2 353
2 354
2 356
2 357
2 358
2 359
2 361
2 362
2 363
2 364
2 365
2 366
2 367
2 368
2 369
2 371
2 372
2 373
2 376
2 377
2 378
2 379
2 380
2 381
2 382
2 383
2 384
2 385
2 386
2 387
2 388
2 389
2 390
2 391
2 392
2 393
2 394
2 395
2 396
2 397
2 398
2 401
2 402
2 403
2 404
2 405
2 406
2 407
2 408
2 409
2 410
2 411
2 412
2 414
2 415
2 417
2 418
2 419
2 420
2 421
2 422
2 424
2 425
2 427
2 428
2 429
2 430
2 431
2 432
2 434
2 436
2 437
2 438
2 439
2 440
2 441
2 442
2 443
2 444
2 445
2 446
2 447
2 450
2 451
2 452
2 453
2 454
2 457
2 459
2 461
2 462
2 463
2 464
2 465
2 466
2 467
2 468
2 469
2 470
2 471
2 473
2 476
2 478
2 480
2 481
2 483
2 485
2 486
2 491
2 494
2 495
2 496
2 497
2 499
2 500
2 501
2 502
2 503
2 505
2 509
2 510
2 511
2 512
2 514
2 515
2 516
2 518
2 519
2 520
2 522
2 523
2 524
2 525
2 526
2 527
2 528
2 529
2 530
2 533
2 535
2 536
2 537
2 538
2 539
2 540
2 542
2 543
2 544
2 545
2 547
2 548
2 551
2 552
2 555
2 556
2 557
2 560
2 562
2 563
2 565
2 566
2 567
2 568
2 570
2 571
2 572
2 573
2 576
2 577
2 578
2 579
2 580
2 581
2 582
2 583
2 584
2 585
2 586
2 589
3 0
3 1
3 2
3 3
3 4
3 5
3 6
3 7
3 10
3 11
3 12
3 13
3 14
3 15
3 16
3 18
3 19
3 20
3 21
3 22
3 23
3 24
3 25
3 26
3 27
3 28
3 35
3 36
3 37
3 38
3 39
3 40
3 41
3 42
3 43
3 44
3 48
3 49
3 50
3 51
3 52
3 53
3 54
3 55
3 57
3 58
3 59
3 60
3 61
3 62
3 63
3 65
3 66
3 68
3 69
3 70
3 71
3 72
3 73
3 74
3 75
3 76
3 77
3 78
3 79
3 82
3 83
3 84
3 85
3 86
3 87
3 88
3 89
3 90
3 91
3 92
3 93
3 96
3 97
3 99
3 102
3 105
3 108
3 109
3 110
3 112
3 114
3 116
3 118
3 119
3 120
3 121
3 122
3 123
3 124
3 125
3 126
3 128
3 129
3 132
3 133
3 134
3 136
3 137
3 138
3 139
3 140
3 141
3 142
3 143
3 145
3 146
3 147
3 148
3 149
3 150
3 151
3 152
3 154
3 155
3 157
3 158
3 161
3 162
3 165
3 167
3 168
3 169
3 170
3 172
3 174
3 176
3 177
3 178
3 179
3 180
3 181
3 183
3 184
3 185
3 186
3 187
3 188
3 189
3 190
3 191
3 192
3 194
3 195
3 196
3 197
3 198
3 199
3 200
3 201
3 202
3 204
3 205
3 206
3 207
3 209
3 210
3 211
3 214
3 215
3 216
3 217
3 218
3 219
3 220
3 223
3 224
3 227
3 228
3 229
3 230
3 233
3 234
3 235
3 236
3 237
3 238
3 239
3 240
3 241
3 242
3 243
3 244
3 245
3 246
3 248
3 249
3 251
3 252
3 253
3 254
3 255
3 256
3 257
3 258
3 259
3 260
3 261
3 262
3 263
3 264
3 265
3 266
3 267
3 268
3 269
3 270
3 271
3 272
3 273
3 274
3 275
3 276
3 277
3 278
3 279
3 280
3 281
3 282
3 283
3 284
3 285
3 286
3 287
3 288
3 289
3 290
3 291
3 293
3 296
3 297
3 298
3 299
3 300
3 302
3 303
3 304
3 305
3 306
3 308
3 309
3 310
3 312
3 313
3 314
3 315
3 316
3 318
3 319
3 320
3 321
3 322
3 323
3 324
3 325
3 326
3 327
3 328
3 329
3 330
3 331
3 332
3 333
3 334
3 335
3 336
3 337
3 338
3 339
3 340
3 341
3 342
3 343
3 344
3 345
3 346
3 347
3 348
3 349
3 350
3 351
3 352
3 353
3 354
3 355
3 356
3 357
3 358
3 359
3 360
3 361
3 362
3 363
3 364
3 365
3 366
3 367
3 368
3 371
3 372
3 374
3 376
3 377
3 378
3 379
3 381
3 382
3 384
3 385
3 388
3 389
3 390
3 392
3 393
3 394
3 395
3 396
3 398
3 400
3 401
3 402
3 404
3 405
3 406
3 407
3 408
3 409
3 410
3 411
3 412
3 414
3 416
3 417
3 419
3 420
3 422
3 423
3 424
3 425
3 426
3 427
3 428
3 429
3 432
3 436
3 437
3 438
3 439
3 440
3 441
3 442
3 443
3 446
3 447
3 450
3 451
3 452
3 453
3 456
3 459
3 461
3 462
3 463
3 465
3 467
3 468
3 469
3 471
3 473
3 474
3 476
3 478
3 481
3 483
3 485
3 486
3 489
3 490
3 494
3 496
3 500
3 501
3 502
3 503
3 504
3 505
3 507
3 509
3 512
3 514
3 515
3 516
3 518
3 519
3 520
3 522
3 527
3 532
3 533
3 534
3 535
3 536
3 538
3 539
3 542
3 543
3 544
3 546
3 547
3 551
3 554
3 555
3 556
3 557
3 560
3 563
3 566
3 567
3 569
3 570
3 572
3 573
3 575
3 576
3 577
3 579
3 581
3 582
3 583
3 584
3 585
3 588
3 589
4 0
4 1
4 2
4 3
4 4
4 5
4 6
4 7
4 8
4 10
4 11
4 12
4 16
4 18
4 19
4 20
4 21
4 22
4 23
4 25
4 27
4 28
4 31
4 33
4 34
4 37
4 38
4 39
4 40
4 41
4 42
4 43
4 44
4 47
4 48
4 49
4 50
4 51
4 52
4 53
4 54
4 56
4 57
4 58
4 59
4 60
4 61
4 62
4 63
4 65
4 66
4 68
4 69
4 70
4 71
4 72
4 73
4 74
4 75
4 76
4 77
4 78
4 79
4 81
4 83
4 84
4 85
4 86
4 87
4 88
4 89
4 90
4 91
4 92
4 93
4 96
4 102
4 105
4 108
4 109
4 110
4 112
4 114
4 118
4 119
4 120
4 121
4 122
4 123
4 124
4 125
4 126
4 127
4 128
4 130
4 132
4 133
4 134
4 137
4 138
4 140
4 142
4 143
4 144
4 145
4 146
4 147
4 148
4 149
4 150
4 151
4 152
4 154
4 155
4 157
4 158
4 161
4 163
4 165
4 166
4 167
4 168
4 169
4 170
4 172
4 174
4 176
4 178
4 180
4 181
4 182
4 183
4 184
4 185
4 186
4 187
4 188
4 189
4 190
4 191
4 192
4 194
4 195
4 197
4 199
4 201
4 203
4 204
4 205
4 206
4 207
4 210
4 211
4 212
4 213
4 214
4 215
4 216
4 217
4 218
4 219
4 220
4 221
4 222
4 223
4 224
4 227
4 228
4 229
4 230
4 231
4 233
4 234
4 235
4 236
4 237
4 238
4 239
4 240
4 241
4 242
4 243
4 244
4 245
4 248
4 249
4 251
4 252
4 253
4 254
4 255
4 256
4 257
4 258
4 259
4 261
4 262
4 263
4 265
4 266
4 269
4 270
4 271
4 272
4 273
4 275
4 276
4 279
4 280
4 281
4 283
4 284
4 286
4 287
4 288
4 289
4 291
4 293
4 294
4 295
4 296
4 297
4 298
4 299
4 300
4 302
4 303
4 304
4 305
4 306
4 307
4 308
4 309
4 310
4 311
4 312
4 314
4 316
4 317
4 318
4 319
4 320
4 321
4 322
4 323
4 325
4 326
4 327
4 329
4 330
4 331
4 332
4 334
4 336
4 337
4 338
4 339
4 340
4 341
4 342
4 343
4 344
4 345
4 347
4 348
4 350
4 351
4 356
4 357
4 358
4 362
4 363
4 364
4 366
4 367
4 368
4 369
4 370
4 371
4 372
4 373
4 374
4 375
4 376
4 377
4 378
4 379
4 380
4 381
4 382
4 383
4 384
4 385
4 386
4 387
4 388
4 389
4 390
4 391
4 392
4 393
4 394
4 395
4 396
4 397
4 398
4 399
4 400
4 401
4 402
4 403
4 405
4 406
4 407
4 409
4 411
4 414
4 415
4 416
4 417
4 418
4 419
4 422
4 423
4 424
4 425
4 427
4 429
4 430
4 434
4 436
4 438
4 439
4 440
4 441
4 442
4 443
4 445
4 447
4 450
4 452
4 454
4 456
4 460
4 462
4 463
4 464
4 465
4 468
4 469
4 470
4 471
4 474
4 475
4 478
4 481
4 483
4 486
4 489
4 492
4 493
4 496
4 499
4 502
4 505
4 509
4 511
4 512
4 514
4 520
4 522
4 523
4 525
4 526
4 530
4 533
4 537
4 538
4 539
4 541
4 542
4 543
4 544
4 546
4 547
4 548
4 551
4 552
4 555
4 556
4 558
4 559
4 560
4 561
4 562
4 565
4 566
4 567
4 570
4 577
4 580
4 581
4 582
4 589
5 0
5 1
5 2
5 3
5 4
5 5
5 6
5 10
5 14
5 15
5 19
5 20
5 21
5 22
5 26
5 27
5 28
5 29
5 34
5 35
5 36
5 37
5 38
5 39
5 41
5 42
5 43
5 45
5 49
5 50
5 53
5 54
5 57
5 58
5 59
5 60
5 61
5 63
5 64
5 66
5 68
5 70
5 71
5 73
5 74
5 75
5 76
5 77
5 78
5 79
5 82
5 83
5 84
5 86
5 87
5 88
5 89
5 90
5 91
5 92
5 96
5 99
5 102
5 108
5 109
5 112
5 114
5 118
5 119
5 123
5 125
5 126
5 128
5 132
5 133
5 137
5 140
5 141
5 142
5 144
5 146
5 148
5 149
5 150
5 151
5 152
5 154
5 155
5 157
5 158
5 161
5 165
5 167
5 170
5 174
5 176
5 179
5 181
5 183
5 184
5 187
5 189
5 191
5 192
5 194
5 195
5 199
5 207
5 211
5 212
5 214
5 215
5 216
5 217
5 218
5 222
5 223
5 226
5 227
5 228
5 229
5 230
5 233
5 235
5 236
5 238
5 239
5 240
5 241
5 242
5 243
5 244
5 245
5 248
5 253
5 254
5 255
5 256
5 259
5 261
5 262
5 263
5 272
5 275
5 279
5 284
5 286
5 287
5 288
5 289
5 290
5 299
5 301
5 304
5 312
5 313
5 316
5 318
5 319
5 320
5 321
5 323
5 324
5 326
5 327
5 330
5 332
5 336
5 337
5 338
5 341
5 342
5 343
5 344
5 345
5 346
5 350
5 351
5 356
5 357
5 358
5 361
5 363
5 364
5 365
5 367
5 368
5 369
5 370
5 371
5 372
5 373
5 374
5 375
5 376
5 380
5 385
5 386
5 390
5 395
5 398
5 400
5 402
5 403
5 404
5 405
5 406
5 407
5 408
5 409
5 410
5 412
5 414
5 415
5 422
5 441
5 460
5 461
5 463
5 465
5 472
5 473
5 480
5 481
5 483
5 492
5 499
5 502
5 505
5 510
5 525
5 526
5 527
5 528
5 532
5 533
5 537
5 538
5 539
5 546
5 549
5 558
5 560
5 563
5 573
5 582
5 583
5 584
5 589
6 0
6 1
6 2
6 3
6 4
6 5
6 6
6 7
6 8
6 12
6 13
6 15
6 17
6 19
6 20
6 22
6 23
6 24
6 25
6 26
6 27
6 28
6 33
6 34
6 38
6 39
6 40
6 43
6 44
6 48
6 51
6 52
6 54
6 55
6 58
6 59
6 61
6 62
6 63
6 65
6 66
6 68
6 70
6 71
6 72
6 73
6 74
6 75
6 76
6 77
6 78
6 83
6 84
6 85
6 86
6 87
6 88
6 89
6 90
6 91
6 92
6 94
6 96
6 108
6 109
6 112
6 120
6 123
6 125
6 130
6 132
6 133
6 140
6 142
6 144
6 145
6 146
6 148
6 149
6 151
6 152
6 154
6 158
6 161
6 165
6 167
6 168
6 169
6 170
6 174
6 181
6 184
6 187
6 189
6 190
6 192
6 194
6 195
6 197
6 198
6 199
6 209
6 211
6 215
6 216
6 217
6 218
6 220
6 222
6 223
6 227
6 228
6 229
6 233
6 234
6 235
6 239
6 240
6 241
6 242
6 249
6 255
6 256
6 258
6 259
6 261
6 271
6 280
6 281
6 282
6 288
6 289
6 291
6 313
6 316
6 318
6 319
6 320
6 321
6 323
6 326
6 329
6 330
6 336
6 337
6 338
6 340
6 342
6 344
6 347
6 348
6 350
6 356
6 357
6 363
6 364
6 367
6 368
6 369
6 370
6 371
6 372
6 373
6 374
6 375
6 376
6 377
6 378
6 379
6 382
6 383
6 386
6 387
6 389
6 390
6 391
6 395
6 398
6 399
6 400
6 401
6 402
6 403
6 411
6 412
6 413
6 414
6 415
6 416
6 417
6 418
6 422
6 427
6 429
6 436
6 438
6 439
6 443
6 451
6 458
6 460
6 463
6 464
6 470
6 474
6 475
6 483
6 502
6 503
6 514
6 522
6 529
6 530
6 539
6 543
6 547
6 554
6 560
6 562
6 569
6 582
6 589
7 0
7 1
7 2
7 3
7 4
7 6
7 8
7 12
7 15
7 16
7 20
7 21
7 22
7 31
7 33
7 34
7 37
7 39
7 40
7 41
7 42
7 43
7 44
7 47
7 48
7 49
7 50
7 51
7 52
7 53
7 54
7 58
7 61
7 62
7 63
7 66
7 68
7 69
7 70
7 71
7 74
7 75
7 76
7 78
7 83
7 84
7 85
7 86
7 87
7 88
7 89
7 90
7 91
7 92
7 93
7 102
7 120
7 124
7 126
7 132
7 136
7 140
7 142
7 143
7 144
7 145
7 146
7 150
7 152
7 155
7 167
7 172
7 178
7 181
7 187
7 203
7 205
7 206
7 210
7 217
7 218
7 223
7 227
7 238
7 239
7 240
7 241
7 248
7 249
7 252
7 253
7 256
7 258
7 259
7 260
7 263
7 270
7 271
7 273
7 275
7 276
7 281
7 287
7 288
7 289
7 290
7 292
7 295
7 297
7 304
7 321
7 338
7 341
7 349
7 367
7 368
7 369
7 370
7 371
7 372
7 373
7 374
7 375
7 378
7 384
7 389
7 394
7 403
7 412
7 413
7 414
7 415
7 416
7 417
7 418
7 419
7 420
7 421
7 422
7 423
7 425
7 428
7 429
7 430
7 432
7 436
7 440
7 441
7 443
7 461
7 467
7 471
7 472
7 482
7 483
7 492
7 499
7 501
7 502
7 509
7 522
7 526
7 533
7 534
7 539
7 551
7 552
7 553
7 558
7 565
7 575
7 582
8 1
8 2
8 4
8 6
8 7
8 33
8 34
8 50
8 58
8 61
8 62
8 63
8 66
8 68
8 70
8 71
8 73
8 74
8 76
8 78
8 84
8 87
8 89
8 91
8 92
8 108
8 142
8 144
8 150
8 155
8 181
8 186
8 187
8 194
8 207
8 218
8 222
8 223
8 227
8 238
8 239
8 241
8 255
8 281
8 288
8 321
8 367
8 368
8 369
8 370
8 371
8 372
8 373
8 374
8 375
8 385
8 406
8 413
8 414
8 415
8 416
8 417
8 418
8 426
8 441
8 464
8 502
8 526
8 539
8 552
8 567
8 573
9 44
9 54
9 67
9 74
9 75
9 78
9 91
9 131
9 136
9 140
9 146
9 186
9 197
9 206
9 210
9 219
9 220
9 304
9 328
9 378
9 419
9 420
9 421
9 422
9 423
9 424
9 425
9 426
9 427
9 428
9 429
9 430
9 431
9 432
9 435
9 436
9 437
9 438
9 439
9 440
9 441
9 442
9 443
9 461
9 504
9 522
9 534
10 0
10 1
10 2
10 3
10 4
10 5
10 16
10 19
10 20
10 48
10 58
10 71
10 74
10 77
10 84
10 87
10 91
10 92
10 125
10 151
10 167
10 181
10 185
10 187
10 189
10 195
10 211
10 218
10 228
10 238
10 239
10 289
10 318
10 319
10 320
10 323
10 336
10 337
10 350
10 351
10 356
10 405
10 414
10 560
11 1
11 2
11 3
11 4
11 33
11 34
11 50
11 58
11 61
11 62
11 63
11 66
11 68
11 70
11 71
11 72
11 75
11 76
11 78
11 84
11 85
11 87
11 89
11 90
11 91
11 92
11 118
11 137
11 140
11 142
11 144
11 150
11 155
11 157
11 171
11 187
11 194
11 197
11 210
11 218
11 222
11 223
11 227
11 229
11 230
11 238
11 239
11 241
11 249
11 255
11 281
11 288
11 321
11 356
11 367
11 368
11 369
11 370
11 371
11 372
11 373
11 374
11 375
11 383
11 387
11 403
11 406
11 413
11 414
11 415
11 416
11 417
11 418
11 430
11 445
11 460
11 464
11 496
11 501
11 502
11 526
11 538
11 539
12 0
12 1
12 3
12 4
12 6
12 7
12 19
12 20
12 21
12 22
12 23
12 25
12 27
12 28
12 33
12 57
12 58
12 59
12 62
12 70
12 84
12 87
12 91
12 132
12 142
12 146
12 155
12 185
12 189
12 196
12 199
12 229
12 249
12 289
12 321
12 347
12 356
12 386
12 416
12 417
12 418
12 460
12 468
12 470
12 474
12 475
12 479
12 481
13 1
13 3
13 6
13 14
13 15
13 16
13 19
13 22
13 31
13 35
13 36
13 37
13 38
13 39
13 40
13 41
13 42
13 43
13 44
13 45
13 46
13 47
13 48
13 49
13 50
13 51
13 52
13 53
13 54
13 58
13 63
13 65
13 69
13 74
13 78
13 79
13 80
13 81
13 82
13 83
13 85
13 86
13 88
13 89
13 90
13 91
13 92
13 102
13 128
13 131
13 132
13 136
13 137
13 140
13 143
13 145
13 146
13 147
13 148
13 155
13 176
13 186
13 199
13 203
13 209
13 217
13 220
13 229
13 237
13 240
13 258
13 259
13 269
13 282
13 287
13 291
13 295
13 316
13 321
13 332
13 341
13 343
13 345
13 348
13 353
13 358
13 388
13 389
13 411
13 412
13 415
13 422
13 447
13 450
13 452
13 454
13 461
13 480
13 487
13 489
13 492
13 493
13 505
13 508
13 510
13 513
13 518
13 520
13 527
13 535
13 550
13 565
14 1
14 2
14 3
14 5
14 13
14 14
14 16
14 17
14 19
14 20
14 21
14 22
14 25
14 31
14 35
14 36
14 37
14 38
14 39
14 40
14 41
14 42
14 43
14 44
14 45
14 46
14 47
14 48
14 49
14 50
14 51
14 52
14 53
14 54
14 58
14 59
14 61
14 68
14 69
14 71
14 72
14 73
14 74
14 78
14 79
14 80
14 81
14 82
14 83
14 85
14 86
14 87
14 88
14 89
14 90
14 91
14 92
14 102
14 128
14 131
14 132
14 140
14 145
14 146
14 147
14 148
14 149
14 150
14 155
14 157
14 166
14 180
14 186
14 199
14 205
14 220
14 222
14 223
14 224
14 234
14 235
14 237
14 238
14 239
14 240
14 254
14 258
14 259
14 265
14 269
14 280
14 281
14 282
14 287
14 291
14 295
14 297
14 302
14 316
14 322
14 324
14 328
14 332
14 341
14 343
14 344
14 345
14 350
14 353
14 366
14 371
14 374
14 376
14 384
14 388
14 389
14 411
14 412
14 422
14 425
14 444
14 445
14 446
14 447
14 450
14 454
14 459
14 461
14 472
14 483
14 487
14 489
14 492
14 493
14 505
14 507
14 510
14 520
14 527
14 530
14 550
14 556
14 563
14 565
14 582
15 0
15 1
15 2
15 3
15 5
15 6
15 7
15 13
15 17
15 22
15 23
15 25
15 31
15 35
15 36
15 37
15 38
15 39
15 40
15 41
15 42
15 43
15 44
15 45
15 46
15 47
15 48
15 49
15 50
15 51
15 52
15 53
15 54
15 55
15 58
15 63
15 65
15 68
15 69
15 71
15 72
15 73
15 74
15 78
15 79
15 80
15 81
15 82
15 83
15 84
15 85
15 86
15 88
15 89
15 90
15 91
15 92
15 108
15 128
15 132
15 140
15 143
15 145
15 146
15 147
15 148
15 149
15 150
15 152
15 155
15 157
15 158
15 176
15 182
15 186
15 199
15 202
15 203
15 207
15 210
15 213
15 217
15 220
15 229
15 237
15 238
15 239
15 240
15 244
15 249
15 253
15 258
15 259
15 269
15 280
15 282
15 286
15 291
15 295
15 304
15 321
15 322
15 324
15 332
15 335
15 336
15 341
15 343
15 353
15 385
15 389
15 411
15 419
15 424
15 429
15 436
15 444
15 446
15 447
15 448
15 449
15 452
15 454
15 459
15 461
15 467
15 475
15 487
15 489
15 492
15 493
15 498
15 501
15 510
15 512
15 518
15 530
15 533
15 535
15 550
15 563
15 565
15 569
16 0
16 1
16 3
16 4
16 7
16 10
16 13
16 14
16 35
16 36
16 37
16 38
16 39
16 40
16 41
16 42
16 43
16 44
16 45
16 46
16 47
16 48
16 49
16 50
16 51
16 52
16 53
16 54
16 57
16 58
16 59
16 66
16 69
16 72
16 74
16 79
16 80
16 81
16 82
16 83
16 84
16 85
16 86
16 88
16 89
16 90
16 91
16 92
16 126
16 128
16 132
16 140
16 143
16 146
16 147
16 148
16 154
16 155
16 157
16 171
16 186
16 187
16 203
16 220
16 237
16 258
16 259
16 260
16 265
16 269
16 280
16 282
16 295
16 321
16 322
16 332
16 335
16 341
16 343
16 353
16 389
16 411
16 430
16 431
16 449
16 450
16 467
16 475
16 481
16 487
16 489
16 493
16 510
16 535
16 550
16 565
16 582
17 1
17 2
17 6
17 14
17 15
17 21
17 35
17 36
17 37
17 38
17 39
17 40
17 41
17 42
17 43
17 44
17 45
17 46
17 47
17 48
17 49
17 50
17 51
17 52
17 53
17 54
17 57
17 58
17 65
17 68
17 69
17 72
17 74
17 79
17 80
17 81
17 82
17 83
17 85
17 86
17 88
17 89
17 90
17 91
17 92
17 128
17 132
17 143
17 146
17 147
17 182
17 203
17 220
17 237
17 240
17 251
17 258
17 259
17 265
17 269
17 282
17 295
17 332
17 341
17 343
17 353
17 389
17 392
17 411
17 431
17 449
17 487
17 489
17 493
17 510
17 515
17 550
17 565
17 572
18 0
18 1
18 2
18 3
18 4
18 18
18 20
18 23
18 28
18 37
18 38
18 46
18 48
18 50
18 51
18 53
18 54
18 55
18 56
18 57
18 58
18 59
18 60
18 61
18 62
18 63
18 64
18 65
18 66
18 67
18 68
18 69
18 70
18 71
18 72
18 73
18 74
18 75
18 76
18 77
18 78
18 79
18 80
18 81
18 82
18 83
18 84
18 85
18 86
18 87
18 88
18 89
18 90
18 91
18 92
18 102
18 125
18 128
18 132
18 136
18 137
18 140
18 142
18 144
18 146
18 150
18 155
18 157
18 166
18 176
18 180
18 181
18 182
18 183
18 187
18 194
18 195
18 196
18 197
18 199
18 204
18 207
18 210
18 212
18 217
18 220
18 221
18 222
18 229
18 233
18 238
18 239
18 240
18 241
18 242
18 249
18 254
18 255
18 258
18 263
18 265
18 280
18 289
18 291
18 293
18 321
18 322
18 333
18 334
18 335
18 338
18 347
18 348
18 350
18 356
18 362
18 373
18 380
18 382
18 385
18 386
18 388
18 403
18 407
18 414
18 415
18 417
18 418
18 419
18 424
18 428
18 441
18 451
18 452
18 453
18 469
18 483
18 486
18 492
18 504
18 505
18 511
18 520
18 521
18 526
18 539
18 552
18 561
18 563
19 0
19 1
19 2
19 3
19 4
19 5
19 6
19 10
19 12
19 13
19 14
19 20
19 21
19 22
19 27
19 28
19 33
19 35
19 36
19 38
19 40
19 42
19 43
19 44
19 48
19 49
19 50
19 51
19 52
19 53
19 54
19 55
19 56
19 57
19 58
19 59
19 60
19 61
19 62
19 63
19 64
19 65
19 66
19 67
19 68
19 69
19 70
19 71
19 72
19 73
19 74
19 75
19 76
19 77
19 78
19 79
19 80
19 81
19 82
19 83
19 84
19 85
19 86
19 87
19 88
19 89
19 90
19 91
19 92
19 93
19 94
19 102
19 108
19 110
19 118
19 125
19 128
19 129
19 132
19 140
19 141
19 142
19 144
19 145
19 146
19 148
19 149
19 150
19 154
19 155
19 157
19 166
19 167
19 171
19 174
19 176
19 177
19 180
19 181
19 182
19 183
19 186
19 187
19 188
19 190
19 194
19 195
19 197
19 199
19 203
19 204
19 206
19 207
19 209
19 210
19 212
19 217
19 218
19 219
19 220
19 221
19 222
19 223
19 224
19 227
19 229
19 233
19 234
19 238
19 239
19 240
19 241
19 242
19 249
19 250
19 251
19 252
19 254
19 255
19 256
19 258
19 259
19 260
19 261
19 263
19 265
19 266
19 280
19 282
19 291
19 293
19 296
19 304
19 320
19 321
19 323
19 324
19 332
19 333
19 334
19 335
19 338
19 341
19 347
19 348
19 350
19 351
19 356
19 362
19 364
19 371
19 372
19 373
19 374
19 379
19 380
19 382
19 385
19 386
19 388
19 389
19 403
19 405
19 407
19 411
19 412
19 413
19 414
19 415
19 416
19 417
19 418
19 419
19 423
19 424
19 428
19 430
19 432
19 434
19 442
19 446
19 450
19 451
19 452
19 453
19 454
19 455
19 456
19 457
19 458
19 459
19 460
19 461
19 462
19 463
19 464
19 465
19 469
19 473
19 474
19 475
19 476
19 478
19 481
19 482
19 483
19 486
19 488
19 491
19 494
19 495
19 496
19 503
19 505
19 506
19 507
19 509
19 511
19 512
19 517
19 522
19 523
19 524
19 526
19 527
19 528
19 530
19 534
19 542
19 548
19 550
19 554
19 556
19 557
19 558
19 563
19 568
20 0
20 1
20 2
20 3
20 4
20 5
20 6
20 7
20 10
20 12
20 14
20 18
20 19
20 20
20 21
20 22
20 23
20 27
20 28
20 33
20 34
20 36
20 37
20 38
20 40
20 41
20 42
20 43
20 44
20 48
20 49
20 50
20 51
20 52
20 53
20 54
20 55
20 56
20 57
20 58
20 59
20 60
20 61
20 62
20 63
20 64
20 65
20 66
20 67
20 68
20 69
20 70
20 71
20 72
20 73
20 74
20 75
20 76
20 77
20 78
20 79
20 80
20 81
20 82
20 83
20 84
20 85
20 86
20 87
20 88
20 89
20 90
20 91
20 92
20 93
20 108
20 118
20 120
20 123
20 124
20 125
20 126
20 128
20 129
20 132
20 137
20 140
20 141
20 142
20 143
20 144
20 145
20 146
20 147
20 148
20 150
20 154
20 155
20 157
20 166
20 167
20 170
20 171
20 174
20 176
20 177
20 180
20 181
20 182
20 183
20 184
20 186
20 187
20 190
20 194
20 195
20 197
20 199
20 201
20 203
20 204
20 206
20 207
20 209
20 210
20 212
20 213
20 217
20 218
20 219
20 220
20 221
20 222
20 223
20 224
20 229
20 230
20 233
20 234
20 235
20 237
20 238
20 239
20 240
20 241
20 242
20 249
20 251
20 252
20 253
20 254
20 255
20 256
20 258
20 259
20 261
20 263
20 265
20 269
20 270
20 273
20 275
20 276
20 280
20 281
20 282
20 289
20 291
20 292
20 293
20 296
20 297
20 298
20 316
20 320
20 321
20 322
20 324
20 333
20 334
20 335
20 338
20 347
20 348
20 350
20 353
20 356
20 362
20 366
20 367
20 369
20 371
20 372
20 373
20 380
20 382
20 385
20 386
20 387
20 388
20 389
20 392
20 396
20 403
20 407
20 411
20 412
20 413
20 414
20 415
20 416
20 417
20 418
20 424
20 425
20 427
20 428
20 430
20 432
20 434
20 441
20 442
20 443
20 446
20 451
20 452
20 453
20 454
20 457
20 458
20 459
20 460
20 462
20 464
20 465
20 466
20 467
20 468
20 469
20 470
20 471
20 472
20 473
20 474
20 475
20 476
20 478
20 480
20 483
20 486
20 488
20 491
20 492
20 494
20 495
20 498
20 501
20 502
20 503
20 505
20 509
20 511
20 514
20 516
20 517
20 519
20 524
20 525
20 538
20 539
20 547
20 548
20 554
20 555
20 558
20 563
20 564
20 567
20 569
21 0
21 1
21 2
21 3
21 4
21 5
21 7
21 12
21 14
21 17
21 19
21 20
21 21
21 22
21 27
21 28
21 33
21 34
21 35
21 36
21 37
21 42
21 44
21 46
21 48
21 49
21 50
21 51
21 52
21 53
21 54
21 55
21 56
21 57
21 58
21 59
21 60
21 61
21 62
21 63
21 64
21 65
21 66
21 67
21 68
21 69
21 70
21 71
21 72
21 73
21 74
21 75
21 76
21 77
21 78
21 79
21 80
21 81
21 82
21 83
21 84
21 85
21 86
21 87
21 88
21 89
21 90
21 91
21 92
21 108
21 120
21 124
21 125
21 126
21 128
21 132
21 137
21 140
21 141
21 142
21 144
21 146
21 148
21 150
21 154
21 155
21 157
21 169
21 171
21 172
21 176
21 177
21 180
21 181
21 182
21 183
21 184
21 186
21 187
21 194
21 195
21 197
21 199
21 202
21 203
21 204
21 205
21 206
21 207
21 210
21 212
21 217
21 218
21 220
21 221
21 222
21 223
21 224
21 229
21 233
21 234
21 235
21 237
21 238
21 239
21 240
21 241
21 242
21 244
21 249
21 251
21 254
21 255
21 256
21 258
21 259
21 261
21 265
21 269
21 271
21 273
21 280
21 281
21 282
21 289
21 291
21 293
21 296
21 301
21 302
21 313
21 318
21 319
21 321
21 322
21 324
21 333
21 334
21 335
21 336
21 338
21 345
21 347
21 348
21 356
21 362
21 367
21 369
21 371
21 372
21 373
21 376
21 380
21 382
21 385
21 386
21 387
21 388
21 389
21 392
21 403
21 406
21 407
21 413
21 414
21 415
21 416
21 417
21 418
21 428
21 432
21 439
21 441
21 442
21 445
21 446
21 447
21 452
21 454
21 456
21 457
21 458
21 459
21 465
21 470
21 472
21 473
21 474
21 475
21 476
21 477
21 478
21 479
21 480
21 481
21 482
21 483
21 484
21 485
21 486
21 487
21 488
21 489
21 490
21 491
21 492
21 493
21 494
21 495
21 496
21 497
21 498
21 499
21 500
21 501
21 502
21 503
21 504
21 505
21 511
21 521
21 525
21 526
21 527
21 530
21 539
21 541
21 547
21 549
21 550
21 552
21 556
21 557
21 558
21 561
21 562
21 563
22 0
22 1
22 2
22 3
22 4
22 5
22 6
22 7
22 12
22 13
22 14
22 15
22 19
22 20
22 21
22 22
22 23
22 24
22 27
22 28
22 33
22 34
22 35
22 36
22 37
22 38
22 39
22 42
22 43
22 44
22 46
22 47
22 48
22 50
22 51
22 52
22 53
22 54
22 55
22 56
22 57
22 58
22 59
22 60
22 61
22 62
22 63
22 64
22 65
22 66
22 67
22 68
22 69
22 70
22 71
22 72
22 73
22 74
22 75
22 76
22 77
22 78
22 79
22 80
22 81
22 82
22 83
22 84
22 85
22 86
22 87
22 88
22 89
22 90
22 91
22 92
22 108
22 118
22 119
22 124
22 125
22 126
22 128
22 129
22 132
22 137
22 139
22 140
22 141
22 142
22 144
22 145
22 146
22 148
22 150
22 151
22 154
22 155
22 157
22 163
22 167
22 169
22 171
22 176
22 177
22 180
22 181
22 182
22 183
22 186
22 187
22 188
22 189
22 190
22 193
22 194
22 195
22 197
22 199
22 202
22 203
22 204
22 205
22 206
22 207
22 209
22 210
22 211
22 212
22 213
22 214
22 215
22 217
22 218
22 219
22 220
22 221
22 222
22 223
22 224
22 226
22 227
22 228
22 229
22 231
22 233
22 234
22 235
22 236
22 238
22 239
22 240
22 241
22 242
22 243
22 244
22 249
22 254
22 255
22 256
22 259
22 260
22 262
22 263
22 265
22 266
22 269
22 271
22 272
22 275
22 279
22 280
22 281
22 282
22 284
22 286
22 287
22 288
22 289
22 291
22 293
22 296
22 298
22 299
22 301
22 304
22 310
22 313
22 316
22 318
22 319
22 320
22 321
22 322
22 323
22 326
22 327
22 329
22 331
22 333
22 334
22 335
22 336
22 337
22 338
22 339
22 344
22 347
22 348
22 350
22 351
22 356
22 362
22 367
22 368
22 369
22 370
22 371
22 372
22 373
22 374
22 375
22 379
22 380
22 382
22 383
22 385
22 386
22 388
22 389
22 396
22 403
22 407
22 408
22 412
22 413
22 414
22 415
22 416
22 417
22 418
22 419
22 422
22 425
22 427
22 428
22 432
22 442
22 446
22 450
22 453
22 456
22 457
22 460
22 464
22 465
22 466
22 468
22 469
22 470
22 473
22 474
22 475
22 478
22 483
22 485
22 490
22 493
22 500
22 502
22 505
22 506
22 507
22 508
22 509
22 510
22 511
22 512
22 514
22 516
22 517
22 518
22 519
22 520
22 521
22 522
22 523
22 525
22 526
22 528
22 529
22 530
22 538
22 539
22 541
22 547
22 550
22 552
22 553
22 554
22 555
22 557
22 558
22 560
22 561
22 563
22 565
22 567
22 568
22 571
22 573
22 582
23 1
23 2
23 3
23 4
23 6
23 12
23 15
23 18
23 20
23 22
23 24
23 27
23 28
23 33
23 34
23 37
23 38
23 41
23 43
23 50
23 51
23 52
23 55
23 56
23 57
23 58
23 59
23 60
23 61
23 62
23 63
23 64
23 65
23 66
23 67
23 68
23 69
23 70
23 71
23 72
23 73
23 74
23 75
23 76
23 77
23 78
23 79
23 80
23 81
23 82
23 83
23 84
23 85
23 86
23 87
23 88
23 89
23 90
23 91
23 92
23 93
23 125
23 128
23 132
23 140
23 142
23 144
23 150
23 155
23 157
23 176
23 177
23 180
23 181
23 182
23 183
23 194
23 195
23 196
23 197
23 199
23 203
23 204
23 211
23 212
23 218
23 220
23 221
23 222
23 223
23 224
23 227
23 229
23 230
23 233
23 234
23 238
23 239
23 240
23 241
23 242
23 249
23 251
23 254
23 258
23 265
23 280
23 287
23 288
23 291
23 293
23 321
23 324
23 333
23 334
23 335
23 338
23 344
23 347
23 348
23 350
23 356
23 362
23 367
23 368
23 369
23 370
23 371
23 372
23 373
23 374
23 375
23 380
23 382
23 385
23 386
23 388
23 403
23 406
23 407
23 414
23 415
23 416
23 417
23 418
23 428
23 446
23 451
23 463
23 465
23 470
23 474
23 475
23 491
23 495
23 502
23 505
23 511
23 521
23 526
23 539
23 548
23 558
23 562
24 2
24 3
24 6
24 22
24 23
24 34
24 36
24 37
24 43
24 48
24 50
24 51
24 52
24 53
24 54
24 55
24 56
24 57
24 58
24 59
24 60
24 61
24 62
24 63
24 64
24 65
24 66
24 67
24 68
24 69
24 70
24 71
24 72
24 73
24 74
24 75
24 76
24 77
24 78
24 79
24 80
24 81
24 82
24 83
24 84
24 85
24 86
24 87
24 88
24 89
24 90
24 91
24 92
24 109
24 120
24 125
24 128
24 132
24 137
24 139
24 140
24 142
24 144
24 146
24 148
24 150
24 151
24 155
24 157
24 176
24 180
24 181
24 182
24 183
24 184
24 187
24 189
24 194
24 195
24 197
24 199
24 202
24 203
24 204
24 205
24 206
24 207
24 211
24 212
24 213
24 216
24 217
24 218
24 220
24 221
24 222
24 223
24 227
24 228
24 229
24 230
24 233
24 235
24 238
24 239
24 240
24 241
24 242
24 244
24 249
24 254
24 255
24 256
24 258
24 265
24 280
24 288
24 289
24 291
24 293
24 296
24 318
24 319
24 320
24 321
24 323
24 332
24 333
24 334
24 335
24 336
24 337
24 338
24 343
24 345
24 347
24 348
24 350
24 351
24 356
24 362
24 367
24 368
24 369
24 370
24 371
24 372
24 373
24 374
24 375
24 380
24 382
24 385
24 386
24 388
24 403
24 407
24 414
24 415
24 417
24 418
24 424
24 428
24 440
24 443
24 446
24 452
24 456
24 463
24 464
24 465
24 473
24 502
24 505
24 511
24 518
24 524
24 537
24 538
24 539
24 540
24 541
24 542
24 543
24 544
24 545
24 546
24 547
24 548
24 549
24 550
24 551
24 552
24 553
24 554
24 557
24 560
25 1
25 2
25 3
25 4
25 6
25 12
25 14
25 15
25 27
25 28
25 33
25 34
25 36
25 39
25 41
25 42
25 44
25 48
25 50
25 51
25 52
25 53
25 54
25 55
25 56
25 57
25 58
25 59
25 60
25 61
25 62
25 63
25 64
25 65
25 66
25 67
25 68
25 69
25 70
25 71
25 72
25 73
25 74
25 75
25 76
25 77
25 78
25 79
25 80
25 81
25 82
25 83
25 84
25 85
25 86
25 87
25 88
25 89
25 90
25 91
25 92
25 108
25 109
25 123
25 125
25 128
25 132
25 133
25 140
25 141
25 142
25 143
25 144
25 146
25 148
25 149
25 150
25 155
25 157
25 158
25 161
25 163
25 165
25 170
25 176
25 180
25 181
25 182
25 183
25 187
25 188
25 190
25 194
25 195
25 197
25 199
25 203
25 204
25 207
25 210
25 212
25 213
25 216
25 217
25 218
25 220
25 221
25 222
25 223
25 227
25 229
25 233
25 234
25 238
25 239
25 240
25 241
25 242
25 244
25 249
25 254
25 255
25 256
25 257
25 258
25 259
25 260
25 265
25 280
25 281
25 282
25 288
25 291
25 293
25 296
25 310
25 321
25 322
25 324
25 330
25 332
25 333
25 334
25 335
25 338
25 343
25 347
25 348
25 350
25 351
25 356
25 362
25 367
25 368
25 369
25 370
25 371
25 372
25 373
25 374
25 375
25 380
25 381
25 382
25 384
25 385
25 386
25 388
25 390
25 395
25 403
25 406
25 407
25 412
25 413
25 414
25 415
25 416
25 417
25 418
25 422
25 428
25 438
25 439
25 451
25 452
25 457
25 474
25 475
25 490
25 498
25 501
25 502
25 505
25 511
25 523
25 526
25 532
25 538
25 539
25 548
25 555
25 556
25 557
25 558
25 559
25 560
25 561
25 562
25 563
25 564
25 565
25 566
25 567
25 568
25 569
25 570
25 582
26 1
26 2
26 3
26 5
26 6
26 33
26 34
26 55
26 56
26 57
26 58
26 59
26 60
26 61
26 62
26 63
26 64
26 65
26 66
26 67
26 68
26 69
26 70
26 71
26 72
26 73
26 75
26 76
26 77
26 78
26 79
26 80
26 81
26 82
26 83
26 84
26 85
26 86
26 87
26 88
26 89
26 90
26 91
26 92
26 108
26 125
26 128
26 132
26 140
26 142
26 144
26 148
26 150
26 151
26 155
26 176
26 177
26 180
26 181
26 182
26 183
26 189
26 194
26 195
26 197
26 204
26 211
26 212
26 218
26 220
26 221
26 222
26 223
26 227
26 228
26 233
26 238
26 239
26 240
26 241
26 242
26 244
26 249
26 254
26 255
26 257
26 265
26 280
26 281
26 288
26 289
26 291
26 293
26 296
26 318
26 319
26 320
26 321
26 323
26 333
26 334
26 335
26 336
26 337
26 338
26 347
26 348
26 350
26 356
26 362
26 367
26 368
26 369
26 370
26 371
26 372
26 373
26 374
26 375
26 380
26 382
26 385
26 386
26 388
26 403
26 407
26 413
26 414
26 415
26 416
26 417
26 418
26 428
26 484
26 491
26 495
26 499
26 501
26 502
26 505
26 511
26 516
26 539
26 552
26 557
26 560
27 0
27 1
27 3
27 4
27 5
27 6
27 12
27 19
27 20
27 21
27 22
27 23
27 25
27 27
27 28
27 33
27 55
27 56
27 57
27 58
27 59
27 60
27 61
27 62
27 63
27 64
27 65
27 66
27 67
27 68
27 69
27 70
27 71
27 72
27 73
27 75
27 76
27 77
27 78
27 79
27 80
27 81
27 82
27 83
27 84
27 85
27 86
27 87
27 88
27 90
27 91
27 92
27 118
27 125
27 128
27 140
27 142
27 144
27 150
27 155
27 176
27 180
27 181
27 182
27 183
27 194
27 195
27 196
27 197
27 199
27 204
27 205
27 212
27 220
27 221
27 222
27 233
27 238
27 239
27 240
27 241
27 242
27 249
27 254
27 265
27 280
27 291
27 293
27 321
27 333
27 334
27 335
27 338
27 347
27 348
27 350
27 356
27 362
27 373
27 380
27 382
27 385
27 386
27 388
27 403
27 406
27 407
27 414
27 415
27 416
27 417
27 418
27 428
27 470
27 474
27 475
27 505
27 511
27 553
28 0
28 1
28 2
28 3
28 4
28 5
28 6
28 12
28 18
28 19
28 20
28 21
28 22
28 23
28 25
28 27
28 28
28 33
28 55
28 56
28 57
28 58
28 59
28 60
28 61
28 62
28 63
28 64
28 65
28 66
28 67
28 68
28 69
28 70
28 71
28 72
28 73
28 74
28 75
28 76
28 77
28 78
28 79
28 80
28 81
28 82
28 83
28 84
28 85
28 86
28 87
28 88
28 89
28 90
28 91
28 92
28 110
28 118
28 125
28 128
28 139
28 140
28 142
28 144
28 150
28 155
28 176
28 180
28 181
28 182
28 183
28 187
28 194
28 195
28 196
28 197
28 199
28 204
28 205
28 210
28 212
28 218
28 220
28 221
28 222
28 223
28 233
28 238
28 239
28 240
28 241
28 242
28 249
28 254
28 265
28 280
28 291
28 293
28 321
28 333
28 334
28 335
28 338
28 347
28 348
28 356
28 362
28 373
28 380
28 382
28 385
28 386
28 388
28 403
28 407
28 414
28 415
28 416
28 417
28 418
28 428
28 467
28 470
28 474
28 475
28 505
28 511
28 539
28 547
28 554
29 5
29 35
29 36
29 37
29 38
29 39
29 40
29 41
29 42
29 43
29 44
29 46
29 47
29 48
29 49
29 50
29 51
29 52
29 53
29 55
29 56
29 57
29 58
29 59
29 60
29 61
29 62
29 63
29 64
29 65
29 66
29 67
29 68
29 69
29 70
29 71
29 72
29 73
29 75
29 76
29 77
29 78
29 79
29 80
29 81
29 82
29 83
29 84
29 85
29 86
29 87
29 88
29 89
29 90
29 91
29 92
29 125
29 128
29 140
29 142
29 144
29 147
29 150
29 155
29 176
29 180
29 181
29 182
29 183
29 194
29 195
29 197
29 204
29 212
29 220
29 221
29 222
29 233
29 237
29 238
29 239
29 240
29 241
29 242
29 249
29 254
29 258
29 259
29 265
29 269
29 280
29 291
29 293
29 295
29 321
29 332
29 333
29 334
29 335
29 338
29 341
29 343
29 347
29 348
29 353
29 356
29 362
29 373
29 380
29 382
29 385
29 386
29 388
29 389
29 403
29 407
29 411
29 414
29 415
29 417
29 418
29 428
29 487
29 489
29 493
29 505
29 510
29 511
29 550
29 565
30 2
30 31
30 35
30 36
30 37
30 38
30 39
30 40
30 41
30 42
30 43
30 44
30 45
30 46
30 47
30 48
30 49
30 50
30 51
30 52
30 53
30 54
30 55
30 56
30 57
30 58
30 59
30 60
30 61
30 62
30 63
30 64
30 65
30 66
30 67
30 68
30 69
30 70
30 71
30 72
30 73
30 74
30 75
30 76
30 77
30 78
30 79
30 80
30 81
30 82
30 83
30 84
30 85
30 86
30 87
30 88
30 89
30 90
30 91
30 92
30 94
30 125
30 128
30 132
30 140
30 142
30 144
30 146
30 147
30 148
30 150
30 155
30 176
30 180
30 181
30 182
30 183
30 194
30 195
30 197
30 204
30 212
30 220
30 221
30 222
30 229
30 233
30 234
30 237
30 238
30 239
30 240
30 241
30 242
30 249
30 254
30 258
30 259
30 265
30 269
30 280
30 291
30 293
30 295
30 321
30 332
30 333
30 334
30 335
30 338
30 341
30 343
30 347
30 348
30 353
30 356
30 362
30 373
30 380
30 382
30 385
30 386
30 388
30 389
30 403
30 407
30 411
30 414
30 415
30 417
30 418
30 427
30 428
30 444
30 452
30 475
30 487
30 489
30 493
30 505
30 510
30 511
30 550
30 565
31 1
31 2
31 4
31 7
31 13
31 14
31 15
31 30
31 35
31 36
31 37
31 38
31 39
31 40
31 41
31 42
31 43
31 44
31 45
31 46
31 47
31 48
31 49
31 50
31 51
31 52
31 53
31 54
31 55
31 56
31 57
31 58
31 59
31 60
31 61
31 62
31 63
31 64
31 65
31 66
31 67
31 68
31 69
31 70
31 71
31 72
31 73
31 74
31 75
31 76
31 77
31 78
31 79
31 80
31 81
31 82
31 83
31 84
31 85
31 86
31 87
31 88
31 89
31 90
31 91
31 92
31 125
31 126
31 128
31 132
31 140
31 142
31 143
31 144
31 146
31 147
31 148
31 149
31 150
31 155
31 157
31 171
31 176
31 180
31 181
31 182
31 183
31 194
31 195
31 197
31 199
31 204
31 209
31 212
31 213
31 220
31 221
31 222
31 229
31 233
31 237
31 238
31 239
31 240
31 241
31 242
31 249
31 254
31 258
31 259
31 265
31 269
31 280
31 282
31 287
31 289
31 291
31 293
31 295
31 316
31 321
31 322
31 324
31 332
31 333
31 334
31 335
31 338
31 341
31 343
31 347
31 348
31 353
31 356
31 362
31 373
31 376
31 380
31 382
31 385
31 386
31 388
31 389
31 392
31 403
31 407
31 411
31 414
31 415
31 417
31 418
31 428
31 444
31 447
31 448
31 475
31 487
31 489
31 493
31 498
31 505
31 510
31 511
31 518
31 527
31 550
31 565
32 35
32 36
32 37
32 38
32 39
32 40
32 41
32 42
32 43
32 44
32 45
32 46
32 47
32 48
32 49
32 50
32 51
32 52
32 53
32 54
32 55
32 56
32 57
32 58
32 59
32 60
32 61
32 62
32 63
32 64
32 65
32 66
32 67
32 68
32 69
32 70
32 71
32 72
32 73
32 74
32 75
32 76
32 77
32 78
32 79
32 80
32 81
32 82
32 83
32 84
32 86
32 87
32 88
32 89
32 90
32 91
32 92
32 94
32 125
32 128
32 132
32 140
32 142
32 144
32 146
32 147
32 148
32 150
32 155
32 157
32 176
32 180
32 181
32 182
32 183
32 184
32 194
32 195
32 197
32 203
32 204
32 207
32 212
32 220
32 221
32 222
32 229
32 233
32 237
32 238
32 239
32 240
32 241
32 242
32 249
32 254
32 258
32 259
32 265
32 269
32 280
32 291
32 293
32 295
32 313
32 321
32 332
32 333
32 334
32 335
32 338
32 341
32 343
32 347
32 348
32 353
32 356
32 362
32 373
32 376
32 380
32 382
32 385
32 386
32 388
32 389
32 403
32 407
32 411
32 414
32 415
32 417
32 418
32 428
32 448
32 472
32 487
32 489
32 493
32 496
32 497
32 505
32 510
32 511
32 532
32 550
32 556
32 565
32 571
32 572
32 573
33 2
33 4
33 6
33 7
33 8
33 11
33 12
33 19
33 20
33 21
33 22
33 23
33 25
33 26
33 27
33 28
33 34
33 54
33 55
33 56
33 57
33 58
33 59
33 60
33 61
33 62
33 63
33 64
33 65
33 66
33 67
33 68
33 69
33 70
33 71
33 72
33 73
33 75
33 76
33 77
33 78
33 79
33 80
33 81
33 82
33 83
33 84
33 85
33 86
33 87
33 88
33 90
33 91
33 92
33 125
33 128
33 140
33 142
33 144
33 150
33 155
33 176
33 180
33 181
33 182
33 183
33 184
33 188
33 194
33 195
33 196
33 197
33 199
33 204
33 212
33 218
33 220
33 221
33 222
33 223
33 233
33 238
33 239
33 240
33 241
33 242
33 249
33 254
33 265
33 280
33 291
33 292
33 293
33 321
33 333
33 334
33 335
33 338
33 347
33 348
33 356
33 362
33 367
33 370
33 373
33 380
33 382
33 385
33 386
33 388
33 392
33 403
33 407
33 414
33 415
33 416
33 417
33 418
33 428
33 450
33 470
33 474
33 475
33 502
33 505
33 511
34 1
34 4
34 5
34 6
34 7
34 8
34 11
34 20
34 21
34 22
34 23
34 24
34 25
34 26
34 33
34 49
34 55
34 56
34 57
34 58
34 59
34 60
34 61
34 62
34 63
34 64
34 65
34 66
34 67
34 68
34 69
34 70
34 71
34 72
34 73
34 75
34 76
34 77
34 78
34 79
34 80
34 81
34 82
34 83
34 84
34 85
34 86
34 87
34 88
34 90
34 91
34 92
34 108
34 125
34 128
34 140
34 142
34 144
34 150
34 155
34 176
34 180
34 181
34 182
34 183
34 188
34 194
34 195
34 197
34 204
34 212
34 218
34 220
34 221
34 222
34 223
34 227
34 233
34 238
34 239
34 240
34 241
34 242
34 249
34 254
34 265
34 280
34 281
34 288
34 291
34 292
34 293
34 321
34 333
34 334
34 335
34 338
34 347
34 348
34 350
34 356
34 362
34 367
34 368
34 369
34 370
34 371
34 372
34 373
34 374
34 375
34 380
34 382
34 385
34 386
34 388
34 403
34 407
34 413
34 414
34 415
34 416
34 417
34 418
34 428
34 501
34 502
34 505
34 511
34 538
34 539
34 547
35 0
35 1
35 2
35 3
35 5
35 13
35 14
35 15
35 16
35 17
35 19
35 21
35 22
35 29
35 30
35 31
35 32
35 35
35 36
35 37
35 38
35 39
35 40
35 41
35 42
35 43
35 44
35 45
35 46
35 47
35 48
35 49
35 50
35 51
35 52
35 53
35 54
35 60
35 63
35 69
35 74
35 78
35 79
35 80
35 81
35 82
35 83
35 85
35 86
35 88
35 89
35 90
35 91
35 92
35 128
35 131
35 132
35 137
35 139
35 143
35 146
35 147
35 148
35 155
35 182
35 186
35 195
35 201
35 217
35 220
35 237
35 240
35 254
35 258
35 259
35 269
35 282
35 291
35 295
35 316
35 322
35 324
35 328
35 332
35 336
35 341
35 343
35 345
35 353
35 366
35 388
35 389
35 411
35 419
35 422
35 425
35 444
35 447
35 449
35 451
35 454
35 467
35 480
35 487
35 489
35 493
35 510
35 520
35 527
35 531
35 550
35 565
35 574
35 575
36 1
36 2
36 3
36 5
36 13
36 14
36 15
36 16
36 17
36 19
36 20
36 21
36 22
36 24
36 25
36 29
36 30
36 31
36 32
36 35
36 36
36 37
36 38
36 39
36 40
36 41
36 42
36 43
36 44
36 45
36 46
36 47
36 48
36 49
36 50
36 51
36 52
36 53
36 54
36 59
36 61
36 68
36 69
36 71
36 74
36 76
36 79
36 80
36 81
36 82
36 83
36 85
36 86
36 89
36 90
36 91
36 92
36 102
36 111
36 116
36 126
36 128
36 132
36 136
36 140
36 143
36 146
36 147
36 148
36 155
36 157
36 180
36 194
36 199
36 220
36 235
36 237
36 239
36 254
36 258
36 259
36 269
36 280
36 282
36 287
36 295
36 332
36 341
36 343
36 348
36 353
36 358
36 371
36 384
36 389
36 411
36 419
36 422
36 442
36 444
36 445
36 446
36 447
36 449
36 450
36 454
36 459
36 472
36 486
36 487
36 489
36 493
36 494
36 503
36 510
36 518
36 520
36 531
36 532
36 547
36 550
36 563
36 565
36 569
36 574
36 575
36 582
37 0
37 1
37 2
37 3
37 4
37 5
37 7
37 13
37 14
37 15
37 16
37 17
37 18
37 20
37 21
37 22
37 23
37 24
37 29
37 30
37 31
37 32
37 35
37 36
37 37
37 38
37 39
37 40
37 41
37 42
37 43
37 44
37 45
37 46
37 47
37 48
37 49
37 50
37 51
37 52
37 53
37 54
37 56
37 59
37 61
37 69
37 71
37 74
37 79
37 80
37 81
37 82
37 83
37 85
37 86
37 87
37 89
37 90
37 91
37 92
37 126
37 128
37 132
37 140
37 143
37 146
37 147
37 148
37 152
37 155
37 166
37 191
37 199
37 206
37 217
37 220
37 237
37 239
37 240
37 248
37 251
37 254
37 258
37 259
37 269
37 282
37 287
37 289
37 290
37 291
37 293
37 295
37 304
37 324
37 328
37 332
37 341
37 343
37 344
37 345
37 353
37 374
37 376
37 384
37 386
37 388
37 389
37 392
37 411
37 415
37 422
37 425
37 444
37 445
37 446
37 447
37 449
37 454
37 487
37 489
37 493
37 505
37 510
37 518
37 531
37 550
37 558
37 565
37 569
37 574
37 575
37 582
38 0
38 1
38 2
38 3
38 4
38 5
38 6
38 13
38 14
38 15
38 16
38 17
38 18
38 19
38 20
38 22
38 23
38 29
38 30
38 31
38 32
38 35
38 36
38 37
38 38
38 39
38 40
38 41
38 42
38 43
38 44
38 45
38 46
38 47
38 48
38 49
38 50
38 51
38 52
38 53
38 54
38 58
38 65
38 71
38 74
38 76
38 80
38 81
38 82
38 83
38 85
38 86
38 89
38 90
38 91
38 92
38 128
38 132
38 140
38 143
38 146
38 147
38 148
38 149
38 150
38 152
38 155
38 202
38 206
38 220
38 237
38 240
38 254
38 258
38 259
38 269
38 282
38 286
38 287
38 295
38 304
38 332
38 341
38 343
38 350
38 353
38 389
38 411
38 417
38 419
38 424
38 444
38 449
38 454
38 487
38 489
38 492
38 493
38 505
38 510
38 518
38 527
38 531
38 547
38 550
38 556
38 565
38 569
38 574
38 575
39 1
39 2
39 3
39 4
39 5
39 6
39 7
39 13
39 14
39 15
39 16
39 17
39 22
39 25
39 29
39 30
39 31
39 32
39 35
39 36
39 37
39 38
39 39
39 40
39 41
39 42
39 43
39 44
39 45
39 46
39 47
39 48
39 49
39 50
39 51
39 52
39 53
39 54
39 69
39 74
39 79
39 80
39 81
39 82
39 83
39 85
39 86
39 89
39 90
39 92
39 109
39 123
39 126
39 128
39 132
39 140
39 145
39 146
39 147
39 149
39 152
39 158
39 161
39 165
39 170
39 199
39 210
39 216
39 220
39 237
39 253
39 258
39 259
39 269
39 282
39 295
39 316
39 322
39 324
39 330
39 332
39 341
39 342
39 343
39 353
39 389
39 390
39 411
39 427
39 444
39 447
39 448
39 449
39 454
39 461
39 483
39 487
39 489
39 493
39 510
39 512
39 522
39 531
39 532
39 533
39 550
39 565
39 574
39 575
39 582
40 1
40 2
40 3
40 4
40 6
40 7
40 13
40 14
40 15
40 16
40 17
40 19
40 20
40 29
40 30
40 31
40 32
40 35
40 36
40 37
40 38
40 39
40 41
40 42
40 43
40 44
40 45
40 46
40 47
40 48
40 49
40 50
40 51
40 52
40 53
40 57
40 74
40 80
40 81
40 82
40 83
40 85
40 89
40 90
40 91
40 92
40 128
40 132
40 143
40 146
40 147
40 204
40 206
40 210
40 220
40 237
40 240
40 258
40 259
40 269
40 282
40 291
40 295
40 332
40 341
40 343
40 353
40 389
40 411
40 425
40 444
40 449
40 454
40 487
40 489
40 493
40 510
40 515
40 531
40 550
40 565
40 569
40 574
40 575
41 0
41 1
41 2
41 3
41 4
41 5
41 7
41 13
41 14
41 15
41 16
41 17
41 20
41 23
41 25
41 29
41 30
41 31
41 32
41 35
41 36
41 37
41 38
41 39
41 40
41 42
41 43
41 44
41 45
41 46
41 47
41 48
41 49
41 50
41 51
41 52
41 53
41 54
41 63
41 74
41 80
41 81
41 82
41 83
41 85
41 89
41 90
41 91
41 92
41 132
41 146
41 147
41 149
41 155
41 157
41 158
41 199
41 220
41 237
41 249
41 258
41 259
41 269
41 295
41 321
41 332
41 341
41 343
41 353
41 389
41 411
41 444
41 449
41 452
41 454
41 458
41 467
41 472
41 475
41 476
41 478
41 487
41 489
41 493
41 510
41 531
41 550
41 553
41 558
41 565
41 574
41 575
42 0
42 1
42 2
42 3
42 4
42 5
42 7
42 13
42 14
42 15
42 16
42 17
42 19
42 20
42 21
42 22
42 25
42 29
42 30
42 31
42 32
42 35
42 36
42 37
42 38
42 39
42 40
42 41
42 42
42 43
42 44
42 45
42 46
42 47
42 48
42 49
42 50
42 51
42 52
42 53
42 54
42 69
42 74
42 79
42 80
42 81
42 82
42 83
42 84
42 85
42 87
42 89
42 90
42 91
42 92
42 102
42 126
42 128
42 131
42 132
42 140
42 145
42 146
42 147
42 152
42 166
42 203
42 207
42 220
42 223
42 224
42 237
42 253
42 258
42 259
42 260
42 269
42 280
42 291
42 293
42 295
42 324
42 332
42 335
42 341
42 343
42 353
42 366
42 374
42 380
42 389
42 397
42 411
42 412
42 419
42 425
42 444
42 449
42 450
42 454
42 459
42 487
42 489
42 493
42 510
42 511
42 516
42 531
42 547
42 550
42 554
42 563
42 565
42 574
42 575
43 0
43 1
43 2
43 3
43 4
43 5
43 6
43 7
43 13
43 14
43 15
43 16
43 17
43 19
43 20
43 22
43 23
43 24
43 29
43 30
43 31
43 32
43 35
43 36
43 37
43 38
43 39
43 40
43 41
43 42
43 43
43 44
43 45
43 46
43 47
43 48
43 49
43 50
43 51
43 52
43 53
43 54
43 59
43 63
43 65
43 68
43 69
43 71
43 74
43 78
43 79
43 80
43 81
43 82
43 83
43 85
43 86
43 88
43 89
43 90
43 91
43 92
43 112
43 122
43 128
43 132
43 145
43 146
43 147
43 149
43 152
43 158
43 166
43 184
43 186
43 197
43 199
43 201
43 203
43 206
43 207
43 217
43 220
43 224
43 237
43 240
43 251
43 258
43 259
43 269
43 280
43 291
43 293
43 295
43 304
43 328
43 332
43 335
43 341
43 343
43 345
43 353
43 362
43 380
43 388
43 389
43 391
43 411
43 419
43 431
43 444
43 446
43 447
43 449
43 450
43 454
43 463
43 466
43 467
43 487
43 489
43 492
43 493
43 496
43 502
43 510
43 511
43 518
43 531
43 550
43 563
43 565
43 569
43 574
43 575
43 583
43 584
44 0
44 1
44 2
44 3
44 4
44 6
44 7
44 9
44 13
44 14
44 15
44 16
44 17
44 19
44 20
44 21
44 22
44 25
44 29
44 30
44 31
44 32
44 35
44 36
44 37
44 38
44 39
44 40
44 41
44 42
44 43
44 45
44 46
44 47
44 48
44 49
44 50
44 51
44 52
44 53
44 54
44 61
44 74
44 79
44 80
44 81
44 82
44 83
44 84
44 85
44 86
44 88
44 89
44 90
44 92
44 93
44 126
44 128
44 132
44 140
44 146
44 147
44 148
44 166
44 182
44 203
44 212
44 220
44 237
44 244
44 258
44 259
44 269
44 283
44 293
44 295
44 324
44 332
44 341
44 343
44 353
44 376
44 389
44 411
44 420
44 422
44 423
44 427
44 429
44 444
44 449
44 450
44 454
44 478
44 487
44 489
44 493
44 501
44 505
44 510
44 530
44 531
44 550
44 565
44 574
44 575
44 586
45 5
45 13
45 14
45 15
45 16
45 17
45 30
45 31
45 32
45 35
45 36
45 37
45 38
45 39
45 40
45 41
45 42
45 43
45 44
45 46
45 47
45 48
45 49
45 50
45 51
45 52
45 53
45 55
45 56
45 57
45 58
45 59
45 60
45 61
45 62
45 63
45 64
45 65
45 66
45 67
45 68
45 69
45 70
45 71
45 72
45 73
45 75
45 76
45 77
45 78
45 79
45 80
45 81
45 82
45 83
45 84
45 85
45 86
45 87
45 88
45 89
45 90
45 91
45 92
45 125
45 128
45 140
45 142
45 144
45 147
45 150
45 155
45 176
45 180
45 181
45 182
45 183
45 194
45 195
45 197
45 204
45 212
45 220
45 221
45 222
45 233
45 237
45 238
45 239
45 240
45 241
45 242
45 249
45 254
45 258
45 259
45 265
45 269
45 280
45 291
45 293
45 295
45 321
45 332
45 333
45 334
45 335
45 338
45 341
45 343
45 347
45 348
45 353
45 356
45 362
45 373
45 380
45 382
45 385
45 386
45 388
45 389
45 403
45 407
45 411
45 414
45 415
45 417
45 418
45 428
45 444
45 449
45 454
45 487
45 489
45 493
45 505
45 510
45 511
45 531
45 550
45 565
45 574
45 575
46 2
46 13
46 14
46 15
46 16
46 17
46 18
46 21
46 22
46 29
46 30
46 31
46 32
46 35
46 36
46 37
46 38
46 39
46 40
46 41
46 42
46 43
46 44
46 45
46 46
46 47
46 48
46 49
46 50
46 51
46 52
46 53
46 54
46 55
46 56
46 57
46 58
46 59
46 60
46 61
46 62
46 63
46 64
46 65
46 66
46 67
46 68
46 69
46 70
46 71
46 72
46 73
46 74
46 75
46 76
46 77
46 78
46 79
46 80
46 81
46 82
46 83
46 84
46 85
46 86
46 87
46 88
46 89
46 90
46 91
46 92
46 125
46 128
46 140
46 142
46 144
46 147
46 150
46 155
46 176
46 180
46 181
46 182
46 183
46 194
46 195
46 197
46 204
46 212
46 220
46 221
46 222
46 229
46 233
46 234
46 237
46 238
46 239
46 240
46 241
46 242
46 249
46 254
46 258
46 259
46 265
46 269
46 280
46 291
46 293
46 295
46 321
46 332
46 333
46 334
46 335
46 338
46 341
46 343
46 347
46 348
46 353
46 356
46 362
46 373
46 380
46 382
46 385
46 386
46 388
46 389
46 403
46 407
46 411
46 414
46 415
46 417
46 418
46 428
46 444
46 449
46 452
46 454
46 487
46 489
46 493
46 505
46 510
46 511
46 531
46 550
46 565
46 574
46 575
47 2
47 4
47 7
47 13
47 14
47 15
47 16
47 17
47 22
47 29
47 30
47 31
47 32
47 35
47 36
47 37
47 38
47 39
47 40
47 41
47 42
47 43
47 44
47 45
47 46
47 48
47 49
47 50
47 51
47 52
47 53
47 54
47 55
47 56
47 57
47 58
47 59
47 60
47 61
47 62
47 63
47 64
47 65
47 66
47 67
47 68
47 69
47 70
47 71
47 72
47 73
47 74
47 75
47 76
47 77
47 78
47 79
47 80
47 81
47 82
47 83
47 84
47 85
47 86
47 87
47 88
47 89
47 90
47 91
47 92
47 125
47 126
47 128
47 132
47 140
47 142
47 144
47 147
47 149
47 150
47 155
47 176
47 180
47 181
47 182
47 183
47 194
47 195
47 197
47 204
47 205
47 212
47 220
47 221
47 222
47 233
47 237
47 238
47 239
47 240
47 241
47 242
47 248
47 249
47 254
47 258
47 259
47 265
47 269
47 280
47 290
47 291
47 293
47 295
47 321
47 332
47 333
47 334
47 335
47 338
47 341
47 343
47 347
47 348
47 353
47 356
47 362
47 373
47 380
47 382
47 385
47 386
47 388
47 389
47 403
47 407
47 411
47 414
47 415
47 417
47 418
47 428
47 444
47 449
47 454
47 487
47 489
47 493
47 498
47 505
47 510
47 511
47 531
47 550
47 565
47 574
47 575
48 0
48 1
48 2
48 3
48 4
48 6
48 7
48 10
48 13
48 14
48 15
48 16
48 17
48 18
48 19
48 20
48 21
48 22
48 24
48 25
48 29
48 30
48 31
48 32
48 35
48 36
48 37
48 38
48 39
48 40
48 41
48 42
48 43
48 44
48 45
48 46
48 47
48 49
48 50
48 51
48 52
48 53
48 54
48 57
48 59
48 65
48 69
48 71
48 72
48 74
48 79
48 80
48 81
48 82
48 83
48 85
48 86
48 88
48 89
48 90
48 91
48 92
48 126
48 128
48 132
48 146
48 147
48 155
48 166
48 182
48 186
48 187
48 203
48 206
48 210
48 220
48 237
48 253
48 258
48 259
48 260
48 265
48 269
48 280
48 282
48 291
48 293
48 295
48 322
48 324
48 332
48 335
48 341
48 343
48 353
48 376
48 389
48 397
48 411
48 419
48 431
48 444
48 447
48 448
48 449
48 450
48 454
48 467
48 481
48 483
48 487
48 489
48 492
48 493
48 505
48 510
48 531
48 535
48 550
48 563
48 565
48 574
48 575
48 582
49 0
49 1
49 2
49 3
49 4
49 5
49 7
49 13
49 14
49 15
49 16
49 17
49 19
49 20
49 21
49 29
49 30
49 31
49 32
49 34
49 35
49 36
49 37
49 38
49 39
49 40
49 41
49 42
49 43
49 44
49 45
49 46
49 47
49 48
49 50
49 51
49 52
49 53
49 54
49 58
49 63
49 65
49 72
49 74
49 79
49 80
49 81
49 82
49 83
49 85
49 89
49 90
49 91
49 92
49 128
49 132
49 146
49 147
49 157
49 166
49 174
49 176
49 187
49 197
49 220
49 229
49 234
49 237
49 258
49 259
49 269
49 282
49 291
49 295
49 300
49 303
49 322
49 332
49 335
49 341
49 343
49 353
49 380
49 385
49 389
49 396
49 397
49 411
49 423
49 430
49 444
49 448
49 449
49 450
49 453
49 454
49 459
49 464
49 487
49 489
49 492
49 493
49 502
49 505
49 510
49 531
49 535
49 547
49 550
49 563
49 565
49 572
49 574
49 575
49 585
50 0
50 1
50 2
50 3
50 4
50 5
50 7
50 8
50 11
50 13
50 14
50 15
50 16
50 17
50 18
50 19
50 20
50 21
50 22
50 23
50 24
50 25
50 29
50 30
50 31
50 32
50 35
50 36
50 37
50 38
50 39
50 40
50 41
50 42
50 43
50 44
50 45
50 46
50 47
50 48
50 49
50 51
50 52
50 53
50 54
50 56
50 57
50 58
50 59
50 60
50 66
50 72
50 74
50 80
50 81
50 82
50 83
50 84
50 85
50 88
50 89
50 90
50 91
50 92
50 110
50 128
50 132
50 140
50 143
50 146
50 147
50 148
50 154
50 155
50 157
50 166
50 171
50 180
50 181
50 186
50 188
50 205
50 206
50 220
50 234
50 237
50 238
50 239
50 249
50 258
50 259
50 269
50 280
50 282
50 295
50 313
50 321
50 332
50 333
50 341
50 343
50 353
50 356
50 370
50 373
50 387
50 389
50 411
50 430
50 444
50 445
50 447
50 448
50 449
50 450
50 454
50 457
50 458
50 472
50 475
50 478
50 487
50 488
50 489
50 492
50 493
50 498
50 505
50 510
50 515
50 531
50 550
50 553
50 558
50 565
50 574
50 575
51 0
51 1
51 2
51 3
51 4
51 6
51 7
51 13
51 14
51 15
51 16
51 17
51 18
51 19
51 20
51 21
51 22
51 23
51 24
51 25
51 29
51 30
51 31
51 32
51 35
51 36
51 37
51 38
51 39
51 40
51 41
51 42
51 43
51 44
51 45
51 46
51 47
51 48
51 49
51 50
51 52
51 53
51 54
51 55
51 57
51 58
51 59
51 71
51 74
51 80
51 81
51 82
51 83
51 84
51 85
51 89
51 90
51 91
51 92
51 93
51 102
51 128
51 132
51 140
51 143
51 146
51 147
51 156
51 157
51 165
51 176
51 190
51 203
51 205
51 206
51 217
51 220
51 231
51 234
51 237
51 239
51 240
51 253
51 256
51 258
51 259
51 269
51 282
51 283
51 291
51 295
51 303
51 310
51 332
51 336
51 341
51 343
51 353
51 356
51 376
51 377
51 389
51 392
51 411
51 415
51 425
51 427
51 430
51 431
51 436
51 444
51 446
51 447
51 449
51 452
51 454
51 456
51 467
51 487
51 489
51 493
51 510
51 518
51 531
51 550
51 557
51 565
51 568
51 572
51 574
51 575
51 584
52 0
52 1
52 2
52 3
52 4
52 6
52 7
52 13
52 14
52 15
52 16
52 17
52 19
52 20
52 21
52 22
52 23
52 24
52 25
52 29
52 30
52 31
52 32
52 35
52 36
52 37
52 38
52 39
52 40
52 41
52 42
52 43
52 44
52 45
52 46
52 47
52 48
52 49
52 50
52 51
52 52
52 53
52 54
52 55
52 57
52 58
52 65
52 68
52 69
52 71
52 72
52 74
52 79
52 80
52 81
52 82
52 83
52 84
52 85
52 86
52 88
52 89
52 90
52 91
52 92
52 93
52 108
52 128
52 132
52 143
52 146
52 147
52 152
52 174
52 176
52 182
52 183
52 196
52 203
52 204
52 206
52 220
52 237
52 238
52 240
52 251
52 256
52 258
52 259
52 265
52 268
52 269
52 282
52 283
52 287
52 291
52 295
52 303
52 332
52 341
52 342
52 343
52 345
52 353
52 356
52 376
52 380
52 389
52 392
52 411
52 419
52 422
52 424
52 425
52 431
52 444
52 446
52 447
52 449
52 454
52 456
52 461
52 487
52 489
52 493
52 510
52 515
52 518
52 531
52 550
52 565
52 569
52 572
52 574
52 575
52 584
53 0
53 1
53 2
53 3
53 4
53 5
53 7
53 13
53 14
53 15
53 16
53 17
53 18
53 19
53 20
53 21
53 22
53 24
53 25
53 29
53 30
53 31
53 32
53 35
53 36
53 37
53 38
53 39
53 40
53 41
53 42
53 43
53 44
53 45
53 46
53 47
53 48
53 49
53 50
53 51
53 52
53 54
53 55
53 56
53 57
53 58
53 59
53 60
53 61
53 62
53 63
53 64
53 65
53 66
53 67
53 68
53 69
53 70
53 71
53 72
53 73
53 74
53 75
53 76
53 77
53 78
53 79
53 80
53 81
53 82
53 83
53 84
53 85
53 86
53 87
53 88
53 89
53 90
53 91
53 92
53 125
53 126
53 128
53 132
53 140
53 142
53 144
53 147
53 150
53 155
53 157
53 171
53 176
53 180
53 181
53 182
53 183
53 188
53 194
53 195
53 197
53 199
53 204
53 212
53 213
53 220
53 221
53 222
53 229
53 233
53 237
53 238
53 239
53 240
53 241
53 242
53 249
53 254
53 258
53 259
53 265
53 269
53 280
53 291
53 293
53 295
53 321
53 324
53 332
53 333
53 334
53 335
53 338
53 341
53 343
53 345
53 347
53 348
53 353
53 356
53 362
53 371
53 373
53 380
53 382
53 385
53 386
53 388
53 389
53 392
53 403
53 407
53 411
53 414
53 415
53 417
53 418
53 428
53 444
53 447
53 448
53 449
53 450
53 454
53 459
53 475
53 480
53 487
53 489
53 493
53 502
53 505
53 510
53 511
53 527
53 531
53 547
53 550
53 553
53 563
53 565
53 569
53 574
53 575
54 0
54 1
54 2
54 3
54 4
54 5
54 6
54 7
54 9
54 13
54 14
54 15
54 16
54 17
54 18
54 19
54 20
54 21
54 22
54 24
54 25
54 30
54 31
54 32
54 33
54 35
54 36
54 37
54 38
54 39
54 41
54 42
54 43
54 44
54 46
54 47
54 48
54 49
54 50
54 51
54 52
54 53
54 56
54 57
54 59
54 61
54 63
54 65
54 69
54 74
54 79
54 80
54 83
54 85
54 86
54 88
54 89
54 90
54 91
54 92
54 102
54 108
54 125
54 128
54 132
54 136
54 140
54 143
54 145
54 146
54 147
54 148
54 151
54 157
54 166
54 169
54 202
54 203
54 205
54 206
54 207
54 220
54 233
54 234
54 237
54 248
54 259
54 263
54 265
54 268
54 269
54 275
54 280
54 282
54 287
54 289
54 290
54 291
54 293
54 295
54 300
54 322
54 335
54 336
54 341
54 348
54 350
54 353
54 363
54 375
54 377
54 392
54 395
54 396
54 397
54 411
54 412
54 419
54 420
54 422
54 429
54 430
54 444
54 447
54 450
54 463
54 471
54 483
54 487
54 489
54 493
54 496
54 510
54 511
54 518
54 519
54 531
54 532
54 550
54 552
54 553
54 555
54 556
54 563
54 565
54 572
54 574
54 575
54 583
54 584
54 585
55 1
55 2
55 3
55 6
55 15
55 18
55 19
55 20
55 21
55 22
55 23
55 24
55 25
55 26
55 27
55 28
55 29
55 30
55 31
55 32
55 33
55 34
55 45
55 46
55 47
55 51
55 52
55 53
55 56
55 57
55 58
55 59
55 60
55 61
55 62
55 63
55 64
55 65
55 66
55 67
55 68
55 69
55 71
55 72
55 73
55 75
55 76
55 77
55 79
55 80
55 81
55 82
55 83
55 84
55 85
55 86
55 87
55 88
55 89
55 90
55 91
55 92
55 108
55 125
55 128
55 132
55 140
55 141
55 142
55 144
55 148
55 150
55 155
55 157
55 171
55 176
55 180
55 182
55 183
55 188
55 194
55 195
55 196
55 197
55 199
55 204
55 205
55 206
55 217
55 220
55 221
55 222
55 223
55 229
55 233
55 234
55 238
55 239
55 240
55 241
55 242
55 249
55 254
55 257
55 265
55 280
55 291
55 292
55 293
55 321
55 333
55 334
55 335
55 338
55 347
55 348
55 356
55 362
55 373
55 380
55 382
55 385
55 386
55 388
55 389
55 396
55 407
55 414
55 415
55 417
55 424
55 425
55 428
55 432
55 446
55 452
55 457
55 460
55 469
55 470
55 473
55 476
55 488
55 492
55 503
55 505
55 511
55 516
55 517
55 524
55 547
55 554
55 556
55 563
55 569
55 570
55 583
55 585
55 587
55 588
56 0
56 1
56 2
56 4
56 18
56 19
56 20
56 21
56 22
56 23
56 24
56 25
56 26
56 27
56 28
56 29
56 30
56 31
56 32
56 33
56 34
56 37
56 45
56 46
56 47
56 50
56 53
56 54
56 55
56 56
56 57
56 58
56 59
56 60
56 61
56 62
56 63
56 64
56 65
56 66
56 67
56 68
56 69
56 70
56 71
56 72
56 73
56 74
56 75
56 76
56 77
56 78
56 79
56 80
56 81
56 82
56 83
56 84
56 85
56 86
56 87
56 88
56 89
56 90
56 91
56 92
56 102
56 108
56 125
56 128
56 132
56 136
56 140
56 141
56 142
56 144
56 148
56 150
56 155
56 157
56 166
56 174
56 175
56 176
56 180
56 181
56 182
56 183
56 186
56 188
56 194
56 195
56 196
56 197
56 199
56 204
56 205
56 206
56 207
56 212
56 217
56 220
56 221
56 222
56 223
56 229
56 233
56 234
56 238
56 239
56 240
56 241
56 242
56 249
56 254
56 256
56 257
56 265
56 280
56 291
56 292
56 293
56 310
56 321
56 322
56 333
56 334
56 335
56 338
56 347
56 348
56 350
56 356
56 362
56 373
56 377
56 380
56 382
56 385
56 386
56 388
56 396
56 403
56 407
56 414
56 415
56 417
56 418
56 419
56 428
56 434
56 452
56 453
56 457
56 458
56 459
56 460
56 463
56 465
56 467
56 469
56 470
56 473
56 476
56 486
56 488
56 492
56 503
56 504
56 505
56 511
56 516
56 517
56 520
56 547
56 548
56 554
56 556
56 563
56 569
56 570
56 585
56 587
56 588
57 0
57 1
57 2
57 3
57 4
57 5
57 12
57 16
57 17
57 18
57 19
57 20
57 21
57 22
57 23
57 24
57 25
57 26
57 27
57 28
57 29
57 30
57 31
57 32
57 33
57 34
57 40
57 45
57 46
57 47
57 48
57 50
57 51
57 52
57 53
57 54
57 55
57 56
57 57
57 58
57 59
57 60
57 61
57 62
57 63
57 64
57 65
57 66
57 67
57 68
57 69
57 70
57 71
57 72
57 73
57 74
57 75
57 76
57 77
57 78
57 79
57 80
57 81
57 82
57 83
57 84
57 85
57 86
57 87
57 88
57 89
57 90
57 91
57 92
57 102
57 108
57 125
57 128
57 132
57 137
57 140
57 141
57 142
57 144
57 146
57 148
57 150
57 152
57 155
57 157
57 174
57 176
57 180
57 181
57 182
57 183
57 185
57 188
57 189
57 191
57 194
57 195
57 196
57 197
57 199
57 202
57 204
57 205
57 206
57 207
57 210
57 211
57 212
57 217
57 219
57 220
57 221
57 222
57 223
57 229
57 233
57 234
57 238
57 239
57 240
57 241
57 242
57 249
57 254
57 256
57 257
57 258
57 261
57 263
57 265
57 280
57 282
57 291
57 292
57 293
57 298
57 304
57 319
57 321
57 323
57 333
57 334
57 335
57 338
57 347
57 348
57 356
57 362
57 366
57 371
57 373
57 380
57 382
57 385
57 386
57 388
57 389
57 396
57 403
57 407
57 414
57 415
57 416
57 417
57 418
57 424
57 428
57 446
57 452
57 457
57 459
57 465
57 469
57 470
57 473
57 474
57 475
57 476
57 484
57 486
57 488
57 492
57 503
57 505
57 511
57 516
57 517
57 526
57 533
57 542
57 547
57 548
57 554
57 556
57 561
57 563
57 568
57 569
57 570
57 585
57 587
57 588
58 0
58 1
58 2
58 3
58 4
58 5
58 6
58 7
58 8
58 10
58 11
58 12
58 13
58 14
58 15
58 16
58 17
58 18
58 19
58 20
58 21
58 22
58 23
58 24
58 25
58 26
58 27
58 28
58 29
58 30
58 31
58 32
58 33
58 34
58 38
58 45
58 46
58 47
58 49
58 50
58 51
58 52
58 53
58 55
58 56
58 57
58 58
58 59
58 60
58 61
58 62
58 63
58 64
58 65
58 66
58 67
58 68
58 69
58 70
58 71
58 72
58 73
58 74
58 75
58 76
58 77
58 78
58 79
58 80
58 81
58 82
58 83
58 84
58 85
58 86
58 87
58 88
58 89
58 90
58 91
58 92
58 108
58 125
58 128
58 132
58 140
58 141
58 142
58 144
58 148
58 150
58 155
58 157
58 167
58 171
58 174
58 176
58 180
58 181
58 182
58 183
58 187
58 188
58 191
58 194
58 195
58 196
58 197
58 199
58 203
58 204
58 205
58 206
58 209
58 212
58 217
58 218
58 219
58 220
58 221
58 222
58 223
58 229
58 231
58 233
58 234
58 238
58 239
58 240
58 241
58 242
58 249
58 251
58 254
58 255
58 257
58 258
58 261
58 265
58 270
58 280
58 289
58 291
58 292
58 293
58 321
58 328
58 333
58 334
58 335
58 338
58 347
58 348
58 350
58 351
58 356
58 362
58 373
58 380
58 382
58 385
58 386
58 388
58 392
58 396
58 403
58 405
58 406
58 407
58 414
58 415
58 416
58 417
58 418
58 419
58 423
58 425
58 428
58 434
58 452
58 454
58 456
58 457
58 459
58 464
58 465
58 467
58 469
58 470
58 473
58 474
58 475
58 476
58 478
58 483
58 488
58 492
58 498
58 502
58 503
58 504
58 505
58 511
58 516
58 517
58 524
58 534
58 539
58 547
58 552
58 554
58 556
58 563
58 568
58 569
58 570
58 583
58 585
58 587
58 588
59 0
59 1
59 2
59 3
59 4
59 5
59 6
59 12
59 14
59 16
59 18
59 19
59 20
59 21
59 22
59 23
59 24
59 25
59 26
59 27
59 28
59 29
59 30
59 31
59 32
59 33
59 34
59 36
59 37
59 43
59 45
59 46
59 47
59 48
59 50
59 51
59 53
59 54
59 55
59 56
59 57
59 58
59 59
59 60
59 61
59 62
59 63
59 64
59 65
59 66
59 67
59 68
59 69
59 70
59 71
59 72
59 73
59 74
59 75
59 76
59 77
59 78
59 79
59 80
59 81
59 82
59 83
59 84
59 85
59 86
59 87
59 88
59 89
59 90
59 91
59 92
59 93
59 120
59 125
59 128
59 132
59 137
59 140
59 141
59 142
59 144
59 148
59 150
59 155
59 157
59 166
59 176
59 180
59 181
59 182
59 183
59 188
59 190
59 191
59 194
59 195
59 196
59 197
59 199
59 204
59 205
59 206
59 207
59 212
59 217
59 220
59 221
59 222
59 223
59 229
59 231
59 233
59 234
59 238
59 239
59 240
59 241
59 242
59 249
59 252
59 253
59 254
59 257
59 261
59 263
59 265
59 269
59 270
59 275
59 276
59 280
59 291
59 292
59 293
59 297
59 316
59 320
59 321
59 327
59 333
59 334
59 335
59 338
59 347
59 348
59 356
59 362
59 369
59 373
59 380
59 382
59 385
59 386
59 388
59 396
59 403
59 407
59 409
59 414
59 415
59 416
59 417
59 418
59 427
59 428
59 432
59 452
59 457
59 469
59 470
59 473
59 474
59 475
59 476
59 479
59 486
59 488
59 492
59 498
59 503
59 504
59 505
59 511
59 516
59 517
59 519
59 526
59 539
59 547
59 550
59 552
59 554
59 556
59 558
59 562
59 569
59 570
59 584
59 585
59 587
59 588
60 0
60 1
60 2
60 3
60 4
60 5
60 18
60 19
60 20
60 21
60 22
60 23
60 24
60 25
60 26
60 27
60 28
60 29
60 30
60 31
60 32
60 33
60 34
60 35
60 45
60 46
60 47
60 50
60 53
60 55
60 56
60 57
60 58
60 59
60 60
60 61
60 62
60 63
60 64
60 65
60 66
60 67
60 68
60 69
60 70
60 71
60 72
60 73
60 74
60 75
60 76
60 77
60 78
60 79
60 80
60 81
60 82
60 83
60 84
60 85
60 86
60 87
60 88
60 90
60 91
60 92
60 125
60 128
60 132
60 137
60 140
60 141
60 142
60 144
60 148
60 150
60 151
60 155
60 157
60 167
60 174
60 176
60 180
60 181
60 182
60 183
60 188
60 189
60 194
60 195
60 196
60 197
60 199
60 204
60 205
60 206
60 211
60 212
60 217
60 220
60 221
60 222
60 223
60 226
60 228
60 229
60 233
60 234
60 238
60 239
60 240
60 241
60 242
60 248
60 249
60 254
60 257
60 265
60 268
60 280
60 289
60 290
60 291
60 292
60 293
60 301
60 318
60 319
60 320
60 321
60 323
60 333
60 334
60 335
60 336
60 337
60 338
60 347
60 348
60 350
60 356
60 362
60 369
60 373
60 380
60 382
60 385
60 386
60 388
60 396
60 403
60 407
60 414
60 415
60 417
60 418
60 428
60 457
60 469
60 470
60 473
60 476
60 478
60 488
60 492
60 500
60 503
60 505
60 511
60 516
60 517
60 539
60 541
60 547
60 554
60 556
60 560
60 569
60 570
60 585
60 587
60 588
61 0
61 1
61 2
61 3
61 4
61 5
61 6
61 7
61 8
61 11
61 14
61 18
61 19
61 20
61 21
61 22
61 23
61 24
61 25
61 26
61 27
61 28
61 29
61 30
61 31
61 32
61 33
61 34
61 36
61 37
61 44
61 45
61 46
61 47
61 53
61 54
61 55
61 56
61 57
61 58
61 59
61 60
61 61
61 62
61 63
61 64
61 65
61 66
61 67
61 68
61 69
61 70
61 71
61 72
61 73
61 75
61 76
61 77
61 78
61 79
61 80
61 81
61 82
61 83
61 84
61 85
61 86
61 87
61 88
61 89
61 90
61 91
61 92
61 125
61 128
61 132
61 140
61 141
61 142
61 144
61 148
61 150
61 155
61 157
61 167
61 171
61 176
61 180
61 181
61 182
61 183
61 187
61 188
61 194
61 195
61 196
61 197
61 199
61 204
61 205
61 206
61 207
61 212
61 217
61 218
61 220
61 221
61 222
61 223
61 229
61 233
61 234
61 238
61 239
61 240
61 241
61 242
61 249
61 254
61 257
61 261
61 265
61 280
61 291
61 292
61 293
61 321
61 333
61 334
61 335
61 338
61 347
61 348
61 351
61 356
61 362
61 370
61 373
61 380
61 382
61 385
61 386
61 388
61 396
61 403
61 405
61 407
61 413
61 414
61 415
61 417
61 418
61 425
61 428
61 432
61 453
61 457
61 469
61 470
61 473
61 476
61 478
61 488
61 492
61 503
61 505
61 511
61 516
61 517
61 539
61 542
61 547
61 548
61 554
61 556
61 563
61 569
61 570
61 583
61 585
61 587
61 588
62 0
62 1
62 2
62 3
62 4
62 6
62 7
62 8
62 11
62 12
62 18
62 19
62 20
62 21
62 22
62 23
62 24
62 25
62 26
62 27
62 28
62 29
62 30
62 31
62 32
62 33
62 34
62 45
62 46
62 47
62 53
62 55
62 56
62 57
62 58
62 59
62 60
62 61
62 62
62 63
62 64
62 65
62 66
62 67
62 68
62 69
62 70
62 71
62 72
62 73
62 74
62 75
62 76
62 77
62 78
62 79
62 80
62 81
62 82
62 83
62 84
62 85
62 86
62 87
62 88
62 90
62 91
62 92
62 96
62 108
62 125
62 128
62 132
62 137
62 140
62 141
62 142
62 144
62 148
62 150
62 155
62 157
62 176
62 180
62 181
62 182
62 183
62 188
62 194
62 195
62 196
62 197
62 199
62 203
62 204
62 205
62 206
62 212
62 217
62 218
62 220
62 221
62 222
62 223
62 229
62 233
62 234
62 238
62 239
62 240
62 241
62 242
62 249
62 254
62 257
62 265
62 280
62 281
62 291
62 292
62 293
62 321
62 333
62 334
62 335
62 338
62 347
62 348
62 350
62 356
62 362
62 367
62 369
62 370
62 371
62 372
62 373
62 380
62 382
62 385
62 386
62 388
62 396
62 403
62 407
62 413
62 414
62 415
62 416
62 417
62 418
62 428
62 450
62 453
62 457
62 460
62 466
62 469
62 470
62 473
62 474
62 475
62 476
62 478
62 479
62 488
62 492
62 502
62 503
62 505
62 511
62 516
62 517
62 526
62 547
62 554
62 556
62 562
62 569
62 570
62 585
62 587
62 588
63 0
63 1
63 2
63 3
63 4
63 5
63 6
63 7
63 8
63 11
63 13
63 15
63 18
63 19
63 20
63 21
63 22
63 23
63 24
63 25
63 26
63 27
63 28
63 29
63 30
63 31
63 32
63 33
63 34
63 35
63 41
63 43
63 45
63 46
63 47
63 49
63 53
63 54
63 55
63 56
63 57
63 58
63 59
63 60
63 61
63 62
63 63
63 64
63 65
63 66
63 67
63 68
63 69
63 70
63 71
63 72
63 73
63 74
63 75
63 76
63 77
63 78
63 79
63 80
63 81
63 82
63 83
63 84
63 85
63 86
63 87
63 88
63 89
63 90
63 91
63 92
63 108
63 125
63 128
63 132
63 140
63 141
63 142
63 144
63 148
63 150
63 155
63 157
63 169
63 176
63 180
63 181
63 182
63 183
63 188
63 194
63 195
63 196
63 197
63 199
63 204
63 205
63 206
63 207
63 210
63 211
63 212
63 217
63 218
63 220
63 221
63 222
63 223
63 229
63 233
63 234
63 235
63 238
63 239
63 240
63 241
63 242
63 248
63 249
63 251
63 254
63 256
63 257
63 258
63 263
63 265
63 280
63 289
63 290
63 291
63 292
63 293
63 321
63 322
63 328
63 333
63 334
63 335
63 338
63 344
63 347
63 348
63 350
63 356
63 362
63 367
63 370
63 373
63 374
63 380
63 382
63 385
63 386
63 388
63 392
63 396
63 403
63 407
63 412
63 414
63 415
63 416
63 417
63 418
63 428
63 442
63 457
63 469
63 470
63 472
63 473
63 474
63 475
63 476
63 483
63 485
63 488
63 492
63 502
63 503
63 505
63 511
63 512
63 516
63 517
63 538
63 547
63 553
63 554
63 556
63 569
63 570
63 575
63 583
63 585
63 587
63 588
64 0
64 1
64 2
64 5
64 18
64 19
64 20
64 21
64 22
64 23
64 24
64 25
64 26
64 27
64 28
64 29
64 30
64 31
64 32
64 33
64 34
64 45
64 46
64 47
64 53
64 55
64 56
64 57
64 58
64 59
64 60
64 61
64 62
64 63
64 65
64 66
64 67
64 68
64 69
64 70
64 71
64 72
64 73
64 74
64 75
64 76
64 77
64 78
64 79
64 80
64 81
64 82
64 83
64 84
64 85
64 86
64 87
64 88
64 89
64 90
64 91
64 92
64 108
64 125
64 128
64 132
64 140
64 141
64 142
64 144
64 148
64 150
64 155
64 157
64 171
64 176
64 177
64 180
64 181
64 182
64 183
64 186
64 188
64 194
64 195
64 196
64 197
64 199
64 204
64 205
64 206
64 212
64 217
64 220
64 221
64 222
64 223
64 229
64 233
64 234
64 238
64 239
64 240
64 241
64 242
64 249
64 254
64 255
64 257
64 265
64 280
64 291
64 292
64 293
64 321
64 333
64 334
64 335
64 338
64 347
64 348
64 356
64 362
64 373
64 380
64 382
64 385
64 386
64 388
64 396
64 403
64 407
64 414
64 415
64 417
64 418
64 428
64 452
64 457
64 459
64 460
64 469
64 470
64 473
64 476
64 488
64 491
64 492
64 495
64 503
64 505
64 511
64 516
64 517
64 539
64 547
64 554
64 556
64 569
64 570
64 574
64 584
64 585
64 587
64 588
65 0
65 1
65 2
65 3
65 4
65 6
65 13
65 15
65 17
65 18
65 19
65 20
65 21
65 22
65 23
65 24
65 25
65 26
65 27
65 28
65 29
65 30
65 31
65 32
65 33
65 34
65 38
65 43
65 45
65 46
65 47
65 48
65 49
65 52
65 53
65 54
65 55
65 56
65 57
65 58
65 59
65 60
65 61
65 62
65 63
65 64
65 66
65 67
65 68
65 69
65 70
65 71
65 72
65 73
65 75
65 76
65 77
65 78
65 79
65 80
65 81
65 82
65 83
65 84
65 85
65 86
65 87
65 88
65 89
65 90
65 91
65 92
65 108
65 125
65 128
65 132
65 140
65 141
65 142
65 144
65 148
65 150
65 155
65 157
65 176
65 180
65 181
65 182
65 183
65 188
65 194
65 195
65 196
65 197
65 199
65 203
65 204
65 205
65 206
65 209
65 212
65 217
65 220
65 221
65 222
65 223
65 229
65 233
65 234
65 238
65 239
65 240
65 241
65 242
65 249
65 251
65 254
65 257
65 265
65 280
65 289
65 291
65 292
65 293
65 321
65 333
65 334
65 335
65 336
65 338
65 343
65 346
65 347
65 348
65 356
65 362
65 373
65 380
65 382
65 385
65 386
65 388
65 389
65 392
65 396
65 403
65 407
65 412
65 414
65 415
65 417
65 418
65 428
65 454
65 457
65 469
65 470
65 473
65 476
65 488
65 492
65 494
65 503
65 505
65 511
65 516
65 517
65 524
65 547
65 554
65 556
65 569
65 570
65 574
65 575
65 585
65 587
65 588
66 0
66 1
66 2
66 3
66 4
66 5
66 6
66 7
66 8
66 11
66 16
66 18
66 19
66 20
66 21
66 22
66 23
66 24
66 25
66 26
66 27
66 28
66 29
66 30
66 31
66 32
66 33
66 34
66 45
66 46
66 47
66 50
66 53
66 55
66 56
66 57
66 58
66 59
66 60
66 61
66 62
66 63
66 64
66 65
66 66
66 67
66 68
66 69
66 70
66 71
66 72
66 73
66 74
66 75
66 76
66 77
66 78
66 79
66 80
66 81
66 82
66 83
66 84
66 85
66 86
66 87
66 88
66 90
66 91
66 92
66 125
66 128
66 132
66 140
66 141
66 142
66 144
66 148
66 150
66 155
66 157
66 176
66 180
66 181
66 182
66 183
66 188
66 194
66 195
66 196
66 197
66 199
66 203
66 204
66 205
66 206
66 207
66 212
66 217
66 218
66 220
66 221
66 222
66 223
66 227
66 229
66 233
66 234
66 238
66 239
66 240
66 241
66 242
66 249
66 254
66 256
66 257
66 265
66 268
66 280
66 281
66 288
66 291
66 292
66 293
66 321
66 333
66 334
66 335
66 338
66 347
66 348
66 351
66 356
66 362
66 367
66 368
66 369
66 370
66 371
66 372
66 373
66 374
66 375
66 380
66 382
66 385
66 386
66 388
66 396
66 403
66 407
66 413
66 414
66 415
66 416
66 417
66 418
66 428
66 446
66 457
66 469
66 470
66 473
66 476
66 488
66 492
66 502
66 503
66 505
66 511
66 516
66 517
66 539
66 547
66 548
66 552
66 554
66 556
66 558
66 561
66 562
66 569
66 570
66 585
66 587
66 588
67 1
67 9
67 18
67 19
67 20
67 21
67 22
67 23
67 24
67 25
67 26
67 27
67 28
67 29
67 30
67 31
67 32
67 33
67 34
67 45
67 46
67 47
67 53
67 55
67 56
67 57
67 58
67 59
67 60
67 61
67 62
67 63
67 64
67 65
67 66
67 68
67 69
67 70
67 71
67 72
67 73
67 75
67 76
67 77
67 78
67 79
67 80
67 81
67 82
67 83
67 84
67 85
67 86
67 87
67 88
67 89
67 90
67 91
67 92
67 108
67 125
67 128
67 131
67 132
67 136
67 140
67 141
67 142
67 144
67 146
67 148
67 150
67 155
67 157
67 176
67 180
67 181
67 182
67 183
67 186
67 188
67 191
67 194
67 195
67 196
67 197
67 199
67 204
67 205
67 206
67 210
67 212
67 217
67 219
67 220
67 221
67 222
67 223
67 229
67 233
67 234
67 238
67 239
67 240
67 241
67 242
67 249
67 254
67 257
67 265
67 280
67 291
67 292
67 293
67 304
67 321
67 328
67 333
67 334
67 335
67 338
67 347
67 348
67 356
67 362
67 373
67 380
67 382
67 385
67 386
67 388
67 396
67 403
67 407
67 414
67 415
67 417
67 418
67 419
67 420
67 421
67 422
67 423
67 424
67 425
67 426
67 427
67 428
67 429
67 430
67 431
67 432
67 434
67 457
67 461
67 465
67 469
67 470
67 473
67 476
67 488
67 492
67 503
67 504
67 505
67 511
67 516
67 517
67 534
67 547
67 554
67 556
67 569
67 570
67 583
67 584
67 585
67 586
67 588
68 0
68 1
68 2
68 3
68 4
68 5
68 6
68 7
68 8
68 11
68 14
68 15
68 17
68 18
68 19
68 20
68 21
68 22
68 23
68 24
68 25
68 26
68 27
68 28
68 29
68 30
68 31
68 32
68 33
68 34
68 36
68 43
68 45
68 46
68 47
68 52
68 53
68 55
68 56
68 57
68 58
68 59
68 60
68 61
68 62
68 63
68 64
68 65
68 66
68 67
68 69
68 70
68 71
68 72
68 73
68 74
68 75
68 76
68 77
68 78
68 79
68 80
68 81
68 82
68 83
68 84
68 85
68 86
68 87
68 88
68 90
68 91
68 92
68 108
68 125
68 128
68 132
68 140
68 141
68 142
68 144
68 148
68 150
68 155
68 157
68 176
68 177
68 180
68 181
68 182
68 183
68 188
68 194
68 195
68 196
68 197
68 199
68 204
68 205
68 206
68 212
68 217
68 218
68 219
68 220
68 221
68 222
68 223
68 227
68 229
68 233
68 234
68 238
68 239
68 240
68 241
68 242
68 249
68 254
68 257
68 265
68 280
68 281
68 288
68 291
68 292
68 293
68 321
68 333
68 334
68 335
68 338
68 347
68 348
68 351
68 356
68 362
68 367
68 368
68 369
68 370
68 371
68 372
68 373
68 374
68 375
68 380
68 382
68 385
68 386
68 388
68 389
68 396
68 403
68 407
68 413
68 414
68 415
68 416
68 417
68 418
68 428
68 446
68 457
68 469
68 470
68 473
68 476
68 488
68 492
68 502
68 503
68 505
68 511
68 516
68 517
68 539
68 547
68 552
68 554
68 556
68 569
68 570
68 585
68 587
68 588
69 1
69 2
69 3
69 4
69 7
69 13
69 14
69 15
69 16
69 17
69 18
69 19
69 20
69 21
69 22
69 23
69 24
69 25
69 26
69 27
69 28
69 29
69 30
69 31
69 32
69 33
69 34
69 35
69 36
69 37
69 39
69 42
69 43
69 45
69 46
69 47
69 48
69 52
69 53
69 54
69 55
69 56
69 57
69 58
69 59
69 60
69 61
69 62
69 63
69 64
69 65
69 66
69 67
69 68
69 70
69 71
69 72
69 73
69 75
69 76
69 77
69 78
69 79
69 80
69 81
69 82
69 83
69 84
69 85
69 86
69 87
69 88
69 89
69 90
69 91
69 92
69 125
69 128
69 132
69 140
69 141
69 142
69 144
69 146
69 148
69 150
69 155
69 157
69 176
69 180
69 181
69 182
69 183
69 188
69 194
69 195
69 196
69 197
69 199
69 204
69 205
69 206
69 207
69 212
69 217
69 220
69 221
69 222
69 223
69 229
69 233
69 234
69 238
69 239
69 240
69 241
69 242
69 249
69 254
69 255
69 257
69 259
69 265
69 269
69 280
69 291
69 292
69 293
69 321
69 333
69 334
69 335
69 338
69 347
69 348
69 356
69 362
69 373
69 380
69 382
69 385
69 386
69 388
69 396
69 403
69 407
69 414
69 415
69 417
69 418
69 428
69 457
69 469
69 470
69 473
69 476
69 485
69 488
69 492
69 493
69 494
69 503
69 505
69 511
69 516
69 517
69 531
69 533
69 547
69 550
69 554
69 556
69 569
69 570
69 574
69 585
69 587
69 588
70 0
70 1
70 2
70 3
70 4
70 5
70 6
70 7
70 8
70 11
70 12
70 18
70 19
70 20
70 21
70 22
70 23
70 24
70 25
70 26
70 27
70 28
70 29
70 30
70 31
70 32
70 33
70 34
70 45
70 46
70 47
70 53
70 56
70 57
70 58
70 59
70 60
70 61
70 62
70 63
70 64
70 65
70 66
70 67
70 68
70 69
70 71
70 72
70 73
70 75
70 76
70 77
70 79
70 80
70 81
70 82
70 83
70 84
70 85
70 86
70 87
70 88
70 90
70 91
70 92
70 125
70 128
70 132
70 140
70 141
70 142
70 144
70 148
70 150
70 155
70 157
70 176
70 180
70 181
70 182
70 183
70 188
70 194
70 195
70 196
70 197
70 199
70 204
70 205
70 206
70 215
70 217
70 218
70 220
70 221
70 222
70 223
70 227
70 229
70 233
70 234
70 238
70 239
70 240
70 241
70 242
70 249
70 254
70 257
70 265
70 280
70 288
70 291
70 292
70 293
70 321
70 333
70 334
70 335
70 336
70 338
70 347
70 348
70 356
70 362
70 367
70 368
70 369
70 370
70 371
70 372
70 373
70 374
70 375
70 376
70 380
70 382
70 385
70 386
70 388
70 396
70 406
70 407
70 414
70 415
70 416
70 417
70 428
70 457
70 460
70 465
70 469
70 470
70 473
70 474
70 475
70 476
70 481
70 488
70 492
70 502
70 503
70 505
70 511
70 516
70 517
70 539
70 547
70 554
70 556
70 558
70 569
70 570
70 573
70 585
70 587
70 588
71 1
71 2
71 3
71 4
71 5
71 6
71 7
71 8
71 10
71 11
71 14
71 15
71 18
71 19
71 20
71 21
71 22
71 23
71 24
71 25
71 26
71 27
71 28
71 29
71 30
71 31
71 32
71 33
71 34
71 36
71 37
71 38
71 43
71 45
71 46
71 47
71 48
71 51
71 52
71 53
71 55
71 56
71 57
71 58
71 59
71 60
71 61
71 62
71 63
71 64
71 65
71 66
71 67
71 68
71 69
71 70
71 72
71 73
71 74
71 75
71 76
71 77
71 78
71 79
71 80
71 81
71 82
71 83
71 84
71 85
71 86
71 87
71 88
71 89
71 90
71 91
71 92
71 96
71 125
71 128
71 132
71 140
71 141
71 142
71 144
71 148
71 150
71 152
71 154
71 155
71 157
71 176
71 180
71 181
71 182
71 183
71 188
71 194
71 195
71 196
71 197
71 199
71 203
71 204
71 205
71 206
71 212
71 217
71 218
71 220
71 221
71 222
71 223
71 227
71 229
71 233
71 234
71 235
71 238
71 239
71 240
71 241
71 242
71 249
71 254
71 257
71 258
71 265
71 280
71 288
71 291
71 292
71 293
71 321
71 332
71 333
71 334
71 335
71 338
71 343
71 345
71 347
71 348
71 356
71 362
71 367
71 368
71 369
71 370
71 371
71 372
71 373
71 374
71 375
71 380
71 382
71 385
71 386
71 388
71 389
71 396
71 403
71 407
71 414
71 415
71 416
71 417
71 418
71 419
71 428
71 446
71 457
71 463
71 469
71 470
71 473
71 476
71 488
71 492
71 502
71 503
71 505
71 511
71 516
71 517
71 518
71 539
71 547
71 552
71 554
71 556
71 557
71 569
71 570
71 585
71 587
71 588
72 0
72 1
72 2
72 3
72 4
72 6
72 11
72 14
72 15
72 16
72 17
72 18
72 19
72 20
72 21
72 22
72 23
72 24
72 25
72 26
72 27
72 28
72 29
72 30
72 31
72 32
72 33
72 34
72 45
72 46
72 47
72 48
72 49
72 50
72 52
72 53
72 55
72 56
72 57
72 58
72 59
72 60
72 61
72 62
72 63
72 64
72 65
72 66
72 67
72 68
72 69
72 70
72 71
72 73
72 75
72 76
72 77
72 78
72 79
72 80
72 81
72 82
72 83
72 84
72 85
72 86
72 87
72 88
72 89
72 90
72 91
72 92
72 96
72 110
72 125
72 126
72 128
72 132
72 140
72 141
72 142
72 144
72 148
72 150
72 155
72 157
72 171
72 176
72 177
72 180
72 181
72 182
72 183
72 188
72 194
72 195
72 196
72 197
72 199
72 204
72 205
72 206
72 207
72 211
72 212
72 217
72 220
72 221
72 222
72 223
72 229
72 233
72 234
72 238
72 239
72 240
72 241
72 242
72 249
72 254
72 257
72 265
72 275
72 280
72 291
72 292
72 293
72 305
72 316
72 321
72 333
72 334
72 335
72 338
72 347
72 348
72 352
72 356
72 362
72 371
72 373
72 377
72 380
72 382
72 385
72 386
72 387
72 388
72 396
72 403
72 407
72 414
72 415
72 417
72 418
72 424
72 425
72 428
72 432
72 454
72 457
72 460
72 463
72 467
72 469
72 470
72 472
72 473
72 476
72 480
72 488
72 492
72 498
72 502
72 503
72 505
72 511
72 516
72 517
72 519
72 538
72 547
72 554
72 556
72 561
72 569
72 570
72 574
72 583
72 584
72 585
72 587
72 588
73 0
73 1
73 2
73 3
73 4
73 5
73 6
73 8
73 14
73 15
73 18
73 19
73 20
73 21
73 22
73 23
73 24
73 25
73 26
73 27
73 28
73 29
73 30
73 31
73 32
73 33
73 34
73 45
73 46
73 47
73 53
73 55
73 56
73 57
73 58
73 59
73 60
73 61
73 62
73 63
73 64
73 65
73 66
73 67
73 68
73 69
73 70
73 71
73 72
73 75
73 76
73 77
73 78
73 79
73 80
73 81
73 82
73 83
73 84
73 85
73 86
73 87
73 88
73 89
73 90
73 91
73 92
73 125
73 128
73 132
73 140
73 141
73 142
73 144
73 148
73 149
73 150
73 154
73 155
73 157
73 167
73 176
73 180
73 181
73 182
73 183
73 186
73 188
73 194
73 195
73 196
73 197
73 199
73 204
73 205
73 206
73 207
73 212
73 217
73 220
73 221
73 222
73 223
73 229
73 233
73 234
73 238
73 239
73 240
73 241
73 242
73 249
73 251
73 254
73 257
73 265
73 280
73 291
73 292
73 293
73 321
73 328
73 333
73 334
73 335
73 338
73 341
73 343
73 344
73 345
73 347
73 348
73 350
73 351
73 353
73 356
73 362
73 370
73 372
73 373
73 376
73 380
73 382
73 385
73 386
73 387
73 388
73 396
73 403
73 407
73 414
73 415
73 416
73 417
73 418
73 428
73 434
73 451
73 452
73 457
73 463
73 467
73 468
73 469
73 470
73 473
73 474
73 475
73 476
73 483
73 488
73 492
73 503
73 505
73 509
73 511
73 516
73 517
73 518
73 534
73 542
73 547
73 552
73 554
73 556
73 567
73 569
73 570
73 574
73 583
73 584
73 585
73 587
73 588
74 0
74 1
74 2
74 3
74 4
74 5
74 6
74 7
74 8
74 9
74 10
74 13
74 14
74 15
74 16
74 17
74 18
74 19
74 20
74 21
74 22
74 23
74 24
74 25
74 28
74 30
74 31
74 32
74 35
74 36
74 37
74 38
74 39
74 40
74 41
74 42
74 43
74 44
74 46
74 47
74 48
74 49
74 50
74 51
74 52
74 53
74 54
74 56
74 57
74 58
74 59
74 60
74 62
74 63
74 64
74 66
74 68
74 71
74 79
74 80
74 84
74 85
74 86
74 87
74 88
74 89
74 90
74 91
74 92
74 102
74 110
74 112
74 124
74 132
74 136
74 139
74 140
74 143
74 146
74 148
74 150
74 155
74 156
74 158
74 165
74 167
74 169
74 172
74 174
74 180
74 184
74 187
74 188
74 190
74 197
74 203
74 205
74 207
74 209
74 210
74 212
74 217
74 220
74 222
74 223
74 224
74 233
74 234
74 238
74 239
74 241
74 246
74 248
74 249
74 251
74 252
74 257
74 258
74 259
74 260
74 263
74 264
74 268
74 269
74 271
74 274
74 282
74 287
74 290
74 291
74 293
74 295
74 298
74 300
74 304
74 316
74 322
74 324
74 328
74 332
74 336
74 338
74 341
74 343
74 345
74 349
74 350
74 358
74 370
74 377
74 380
74 382
74 386
74 387
74 388
74 389
74 419
74 420
74 422
74 427
74 429
74 430
74 431
74 436
74 445
74 448
74 457
74 461
74 462
74 463
74 464
74 467
74 476
74 481
74 482
74 483
74 485
74 487
74 489
74 493
74 496
74 497
74 501
74 502
74 505
74 506
74 509
74 510
74 511
74 515
74 518
74 520
74 521
74 524
74 531
74 534
74 538
74 553
74 555
74 556
74 557
74 558
74 562
74 563
74 565
74 572
74 574
74 575
74 582
74 583
74 584
75 0
75 1
75 2
75 3
75 4
75 5
75 6
75 7
75 9
75 11
75 18
75 19
75 20
75 21
75 22
75 23
75 24
75 25
75 26
75 27
75 28
75 29
75 30
75 31
75 32
75 33
75 34
75 45
75 46
75 47
75 53
75 55
75 56
75 57
75 58
75 59
75 60
75 61
75 62
75 63
75 64
75 65
75 66
75 67
75 68
75 69
75 70
75 71
75 72
75 73
75 76
75 77
75 78
75 79
75 80
75 81
75 82
75 83
75 84
75 85
75 86
75 87
75 88
75 90
75 91
75 92
75 125
75 128
75 131
75 132
75 136
75 140
75 141
75 142
75 144
75 145
75 148
75 150
75 155
75 157
75 167
75 169
75 171
75 176
75 180
75 181
75 182
75 183
75 184
75 186
75 188
75 190
75 191
75 194
75 195
75 196
75 197
75 199
75 204
75 205
75 206
75 207
75 211
75 212
75 217
75 219
75 220
75 221
75 222
75 223
75 228
75 229
75 233
75 234
75 238
75 239
75 240
75 241
75 242
75 249
75 250
75 254
75 257
75 265
75 275
75 280
75 291
75 292
75 293
75 298
75 304
75 313
75 320
75 321
75 328
75 333
75 334
75 335
75 338
75 347
75 348
75 350
75 356
75 362
75 373
75 379
75 380
75 382
75 385
75 386
75 388
75 396
75 403
75 407
75 414
75 415
75 417
75 418
75 419
75 420
75 421
75 422
75 424
75 425
75 427
75 428
75 429
75 431
75 432
75 433
75 434
75 438
75 453
75 457
75 461
75 465
75 469
75 470
75 473
75 476
75 481
75 488
75 492
75 503
75 505
75 507
75 511
75 516
75 517
75 534
75 538
75 542
75 547
75 552
75 554
75 556
75 560
75 569
75 570
75 583
75 584
75 585
75 586
75 587
75 588
76 0
76 1
76 2
76 3
76 4
76 5
76 6
76 7
76 8
76 11
76 18
76 19
76 20
76 21
76 22
76 23
76 24
76 25
76 26
76 27
76 28
76 29
76 30
76 31
76 32
76 33
76 34
76 36
76 38
76 45
76 46
76 47
76 53
76 55
76 56
76 57
76 58
76 59
76 60
76 61
76 62
76 63
76 64
76 65
76 66
76 67
76 68
76 69
76 70
76 71
76 72
76 73
76 75
76 77
76 78
76 79
76 80
76 81
76 82
76 83
76 84
76 85
76 86
76 87
76 88
76 90
76 91
76 92
76 105
76 123
76 125
76 128
76 132
76 140
76 141
76 142
76 144
76 148
76 150
76 154
76 155
76 157
76 158
76 171
76 174
76 176
76 180
76 181
76 182
76 183
76 187
76 188
76 190
76 194
76 195
76 196
76 197
76 199
76 203
76 204
76 205
76 206
76 207
76 212
76 217
76 218
76 219
76 220
76 221
76 222
76 223
76 227
76 229
76 233
76 234
76 238
76 239
76 240
76 241
76 242
76 249
76 251
76 253
76 254
76 257
76 265
76 280
76 288
76 289
76 291
76 292
76 293
76 304
76 321
76 333
76 334
76 335
76 336
76 338
76 347
76 348
76 351
76 356
76 358
76 362
76 367
76 370
76 373
76 380
76 382
76 385
76 386
76 387
76 388
76 396
76 403
76 406
76 407
76 411
76 414
76 415
76 416
76 417
76 418
76 428
76 441
76 446
76 451
76 457
76 469
76 470
76 473
76 474
76 475
76 476
76 483
76 488
76 492
76 494
76 502
76 503
76 505
76 511
76 515
76 516
76 517
76 539
76 542
76 547
76 554
76 556
76 557
76 569
76 570
76 583
76 585
76 587
76 588
77 0
77 1
77 2
77 3
77 4
77 5
77 6
77 10
77 18
77 19
77 20
77 21
77 22
77 23
77 24
77 25
77 26
77 27
77 28
77 29
77 30
77 31
77 32
77 33
77 34
77 45
77 46
77 47
77 53
77 55
77 56
77 57
77 58
77 59
77 60
77 61
77 62
77 63
77 64
77 65
77 66
77 67
77 68
77 69
77 70
77 71
77 72
77 73
77 75
77 76
77 77
77 78
77 79
77 80
77 81
77 82
77 83
77 84
77 85
77 86
77 87
77 88
77 90
77 91
77 92
77 93
77 125
77 128
77 132
77 137
77 139
77 140
77 141
77 142
77 144
77 148
77 150
77 151
77 154
77 155
77 157
77 176
77 180
77 181
77 182
77 183
77 184
77 185
77 188
77 189
77 190
77 194
77 195
77 196
77 197
77 199
77 202
77 204
77 205
77 206
77 211
77 212
77 213
77 217
77 220
77 221
77 222
77 223
77 228
77 229
77 233
77 234
77 238
77 239
77 240
77 241
77 242
77 249
77 254
77 256
77 257
77 265
77 280
77 283
77 289
77 291
77 292
77 293
77 316
77 318
77 319
77 320
77 321
77 323
77 333
77 334
77 335
77 336
77 337
77 338
77 344
77 347
77 348
77 351
77 356
77 362
77 369
77 371
77 373
77 380
77 382
77 385
77 386
77 388
77 396
77 403
77 407
77 414
77 415
77 417
77 418
77 424
77 428
77 440
77 443
77 457
77 464
77 465
77 469
77 470
77 473
77 476
77 478
77 488
77 492
77 503
77 505
77 511
77 516
77 517
77 529
77 531
77 537
77 538
77 539
77 540
77 541
77 542
77 543
77 544
77 545
77 546
77 547
77 554
77 556
77 560
77 569
77 570
77 585
77 587
77 588
78 0
78 1
78 2
78 3
78 4
78 5
78 6
78 7
78 8
78 9
78 11
78 13
78 14
78 15
78 18
78 19
78 20
78 21
78 22
78 23
78 24
78 25
78 26
78 27
78 28
78 29
78 30
78 31
78 32
78 33
78 34
78 35
78 43
78 45
78 46
78 47
78 53
78 56
78 57
78 58
78 59
78 60
78 61
78 62
78 63
78 64
78 65
78 66
78 67
78 68
78 69
78 71
78 72
78 73
78 75
78 76
78 77
78 79
78 80
78 81
78 82
78 83
78 84
78 85
78 86
78 87
78 88
78 90
78 91
78 92
78 93
78 108
78 120
78 125
78 127
78 128
78 131
78 132
78 136
78 140
78 141
78 142
78 144
78 148
78 150
78 155
78 157
78 169
78 176
78 180
78 181
78 182
78 183
78 186
78 188
78 194
78 195
78 196
78 197
78 199
78 201
78 204
78 205
78 206
78 207
78 217
78 218
78 219
78 220
78 221
78 222
78 223
78 227
78 229
78 233
78 234
78 238
78 239
78 240
78 241
78 242
78 249
78 252
78 253
78 254
78 255
78 257
78 261
78 263
78 265
78 270
78 275
78 276
78 280
78 288
78 291
78 292
78 293
78 297
78 304
78 321
78 328
78 329
78 333
78 334
78 335
78 338
78 344
78 347
78 348
78 350
78 356
78 362
78 372
78 373
78 380
78 382
78 383
78 385
78 386
78 387
78 388
78 396
78 407
78 414
78 415
78 417
78 419
78 420
78 421
78 422
78 424
78 425
78 427
78 428
78 429
78 431
78 432
78 434
78 443
78 453
78 457
78 461
78 465
78 469
78 470
78 473
78 476
78 488
78 492
78 503
78 505
78 511
78 516
78 517
78 534
78 538
78 547
78 554
78 556
78 558
78 562
78 563
78 569
78 570
78 583
78 584
78 585
78 586
78 587
78 588
79 0
79 1
79 2
79 3
79 4
79 5
79 13
79 14
79 15
79 16
79 17
79 18
79 19
79 20
79 21
79 22
79 23
79 24
79 25
79 26
79 27
79 28
79 29
79 30
79 31
79 32
79 33
79 34
79 35
79 36
79 37
79 39
79 42
79 43
79 44
79 45
79 46
79 47
79 48
79 49
79 52
79 53
79 54
79 55
79 56
79 57
79 58
79 59
79 60
79 61
79 62
79 63
79 64
79 65
79 66
79 67
79 68
79 69
79 70
79 71
79 72
79 73
79 74
79 75
79 76
79 77
79 78
79 79
79 80
79 81
79 82
79 83
79 84
79 85
79 86
79 87
79 88
79 89
79 90
79 91
79 92
79 102
79 108
79 125
79 126
79 128
79 131
79 132
79 140
79 141
79 142
79 143
79 144
79 145
79 147
79 148
79 150
79 155
79 157
79 165
79 176
79 180
79 181
79 182
79 183
79 187
79 188
79 194
79 195
79 196
79 197
79 199
79 203
79 204
79 205
79 206
79 212
79 217
79 220
79 221
79 222
79 223
79 229
79 233
79 234
79 238
79 239
79 240
79 241
79 242
79 248
79 249
79 251
79 253
79 254
79 257
79 258
79 259
79 265
79 280
79 282
79 290
79 291
79 292
79 293
79 321
79 322
79 324
79 333
79 334
79 335
79 337
79 338
79 341
79 347
79 348
79 353
79 356
79 362
79 373
79 380
79 382
79 385
79 386
79 388
79 396
79 403
79 407
79 412
79 414
79 415
79 417
79 418
79 421
79 422
79 428
79 430
79 446
79 447
79 455
79 457
79 461
79 466
79 467
79 468
79 469
79 470
79 471
79 473
79 476
79 488
79 489
79 492
79 493
79 498
79 503
79 505
79 509
79 510
79 511
79 516
79 517
79 521
79 547
79 550
79 554
79 556
79 564
79 569
79 570
79 574
79 575
79 582
79 584
79 585
79 587
79 588
80 13
80 14
80 15
80 16
80 17
80 18
80 19
80 20
80 21
80 22
80 23
80 24
80 25
80 26
80 27
80 28
80 29
80 30
80 31
80 32
80 33
80 34
80 35
80 36
80 37
80 38
80 39
80 40
80 41
80 42
80 43
80 44
80 45
80 46
80 47
80 48
80 49
80 50
80 51
80 52
80 53
80 54
80 55
80 56
80 57
80 58
80 59
80 60
80 61
80 62
80 63
80 64
80 65
80 66
80 67
80 68
80 69
80 70
80 71
80 72
80 73
80 74
80 75
80 76
80 77
80 78
80 79
80 81
80 82
80 83
80 84
80 85
80 86
80 87
80 88
80 89
80 90
80 91
80 92
80 125
80 128
80 132
80 140
80 141
80 142
80 144
80 146
80 147
80 148
80 150
80 155
80 157
80 176
80 180
80 181
80 182
80 183
80 188
80 194
80 195
80 196
80 197
80 199
80 204
80 205
80 206
80 212
80 217
80 220
80 221
80 222
80 223
80 229
80 233
80 234
80 237
80 238
80 239
80 240
80 241
80 242
80 249
80 254
80 257
80 258
80 259
80 265
80 269
80 280
80 291
80 292
80 293
80 295
80 321
80 332
80 333
80 334
80 335
80 338
80 341
80 343
80 347
80 348
80 353
80 356
80 362
80 373
80 380
80 382
80 385
80 386
80 388
80 389
80 396
80 403
80 407
80 411
80 414
80 415
80 417
80 418
80 428
80 444
80 449
80 454
80 457
80 469
80 470
80 473
80 476
80 487
80 488
80 489
80 492
80 493
80 503
80 505
80 510
80 511
80 516
80 517
80 531
80 547
80 550
80 554
80 556
80 565
80 569
80 570
80 574
80 575
80 585
80 587
80 588
81 0
81 1
81 2
81 4
81 13
81 14
81 15
81 16
81 17
81 18
81 19
81 20
81 21
81 22
81 23
81 24
81 25
81 26
81 27
81 28
81 29
81 30
81 31
81 32
81 33
81 34
81 35
81 36
81 37
81 38
81 39
81 40
81 41
81 42
81 43
81 44
81 45
81 46
81 47
81 48
81 49
81 50
81 51
81 52
81 53
81 55
81 56
81 57
81 58
81 59
81 60
81 61
81 62
81 63
81 64
81 65
81 66
81 67
81 68
81 69
81 70
81 71
81 72
81 73
81 75
81 76
81 77
81 78
81 79
81 80
81 82
81 83
81 84
81 85
81 86
81 87
81 88
81 89
81 90
81 91
81 92
81 94
81 125
81 128
81 132
81 140
81 141
81 142
81 144
81 147
81 148
81 150
81 155
81 157
81 176
81 180
81 181
81 182
81 183
81 188
81 194
81 195
81 196
81 197
81 199
81 204
81 205
81 206
81 212
81 217
81 220
81 221
81 222
81 223
81 229
81 233
81 234
81 237
81 238
81 239
81 240
81 241
81 242
81 249
81 254
81 257
81 258
81 259
81 263
81 265
81 269
81 280
81 291
81 292
81 293
81 295
81 321
81 332
81 333
81 334
81 335
81 338
81 341
81 343
81 347
81 348
81 353
81 356
81 362
81 373
81 380
81 382
81 385
81 386
81 388
81 389
81 396
81 403
81 407
81 411
81 414
81 415
81 417
81 418
81 424
81 427
81 428
81 444
81 449
81 454
81 457
81 469
81 470
81 473
81 475
81 476
81 487
81 488
81 489
81 492
81 493
81 503
81 505
81 510
81 511
81 516
81 517
81 531
81 547
81 550
81 554
81 556
81 565
81 569
81 570
81 574
81 575
81 585
81 587
81 588
82 0
82 1
82 2
82 3
82 5
82 13
82 14
82 15
82 16
82 17
82 18
82 19
82 20
82 21
82 22
82 23
82 24
82 25
82 26
82 27
82 28
82 29
82 30
82 31
82 32
82 33
82 34
82 35
82 36
82 37
82 38
82 39
82 40
82 41
82 42
82 43
82 44
82 45
82 46
82 47
82 48
82 49
82 50
82 51
82 52
82 53
82 55
82 56
82 57
82 58
82 59
82 60
82 61
82 62
82 63
82 64
82 65
82 66
82 67
82 68
82 69
82 70
82 71
82 72
82 73
82 75
82 76
82 77
82 78
82 79
82 80
82 81
82 83
82 84
82 85
82 86
82 87
82 88
82 89
82 90
82 91
82 92
82 125
82 128
82 132
82 140
82 141
82 142
82 144
82 147
82 148
82 150
82 155
82 157
82 176
82 180
82 181
82 182
82 183
82 186
82 188
82 194
82 195
82 196
82 197
82 199
82 204
82 205
82 206
82 209
82 212
82 217
82 220
82 221
82 222
82 223
82 229
82 233
82 234
82 238
82 239
82 240
82 241
82 242
82 249
82 254
82 257
82 258
82 259
82 265
82 269
82 280
82 291
82 292
82 293
82 295
82 321
82 332
82 333
82 334
82 335
82 338
82 341
82 343
82 347
82 348
82 353
82 356
82 362
82 373
82 380
82 382
82 385
82 386
82 388
82 389
82 396
82 403
82 407
82 414
82 415
82 417
82 418
82 423
82 428
82 430
82 444
82 449
82 454
82 457
82 465
82 467
82 469
82 470
82 473
82 476
82 487
82 488
82 489
82 492
82 493
82 503
82 505
82 509
82 510
82 511
82 516
82 517
82 531
82 534
82 547
82 550
82 554
82 556
82 563
82 565
82 569
82 570
82 574
82 575
82 585
82 587
82 588
83 0
83 1
83 2
83 3
83 4
83 5
83 6
83 7
83 13
83 14
83 15
83 16
83 17
83 18
83 19
83 20
83 21
83 22
83 23
83 24
83 25
83 26
83 27
83 28
83 29
83 30
83 31
83 32
83 33
83 34
83 35
83 36
83 37
83 38
83 39
83 40
83 41
83 42
83 43
83 44
83 45
83 46
83 47
83 48
83 49
83 50
83 51
83 52
83 53
83 54
83 55
83 56
83 57
83 58
83 59
83 60
83 61
83 62
83 63
83 64
83 65
83 66
83 67
83 68
83 69
83 70
83 71
83 72
83 73
83 75
83 76
83 77
83 78
83 79
83 80
83 81
83 82
83 84
83 85
83 86
83 87
83 88
83 89
83 90
83 91
83 92
83 125
83 128
83 132
83 140
83 141
83 142
83 144
83 146
83 147
83 148
83 150
83 155
83 157
83 176
83 180
83 181
83 182
83 183
83 188
83 194
83 195
83 196
83 197
83 199
83 204
83 205
83 206
83 212
83 217
83 220
83 221
83 222
83 223
83 229
83 233
83 234
83 237
83 238
83 239
83 240
83 241
83 242
83 249
83 251
83 254
83 257
83 258
83 259
83 265
83 269
83 280
83 282
83 287
83 289
83 291
83 292
83 293
83 295
83 316
83 321
83 324
83 332
83 333
83 334
83 335
83 336
83 338
83 341
83 343
83 345
83 347
83 348
83 353
83 356
83 362
83 373
83 376
83 380
83 382
83 385
83 386
83 388
83 389
83 392
83 396
83 403
83 407
83 411
83 414
83 415
83 417
83 418
83 419
83 428
83 444
83 447
83 449
83 454
83 456
83 457
83 469
83 470
83 473
83 476
83 487
83 488
83 489
83 492
83 493
83 503
83 505
83 510
83 511
83 516
83 517
83 518
83 531
83 547
83 550
83 554
83 556
83 565
83 569
83 570
83 574
83 575
83 585
83 587
83 588
84 0
84 1
84 2
84 3
84 4
84 5
84 6
84 7
84 8
84 10
84 11
84 12
84 15
84 16
84 18
84 19
84 20
84 21
84 22
84 23
84 24
84 25
84 26
84 27
84 28
84 29
84 30
84 31
84 32
84 33
84 34
84 42
84 44
84 45
84 46
84 47
84 50
84 51
84 52
84 53
84 55
84 56
84 57
84 58
84 59
84 60
84 61
84 62
84 63
84 64
84 65
84 66
84 67
84 68
84 69
84 70
84 71
84 72
84 73
84 74
84 75
84 76
84 77
84 78
84 79
84 80
84 81
84 82
84 83
84 85
84 86
84 87
84 88
84 89
84 90
84 91
84 92
84 108
84 123
84 125
84 128
84 132
84 140
84 141
84 142
84 144
84 148
84 150
84 151
84 155
84 157
84 158
84 176
84 180
84 181
84 182
84 183
84 185
84 187
84 188
84 189
84 190
84 191
84 194
84 195
84 196
84 197
84 199
84 204
84 205
84 206
84 211
84 212
84 217
84 218
84 220
84 221
84 222
84 223
84 227
84 228
84 229
84 233
84 234
84 238
84 239
84 240
84 241
84 242
84 244
84 249
84 254
84 255
84 256
84 257
84 258
84 265
84 280
84 281
84 288
84 291
84 292
84 293
84 313
84 316
84 318
84 319
84 320
84 321
84 323
84 332
84 333
84 334
84 335
84 336
84 337
84 338
84 343
84 345
84 347
84 348
84 350
84 351
84 356
84 362
84 367
84 368
84 369
84 370
84 371
84 372
84 373
84 374
84 375
84 380
84 381
84 382
84 385
84 386
84 388
84 389
84 396
84 403
84 406
84 407
84 412
84 413
84 414
84 415
84 416
84 417
84 418
84 425
84 428
84 438
84 439
84 457
84 469
84 470
84 472
84 473
84 474
84 475
84 476
84 480
84 486
84 488
84 492
84 499
84 501
84 502
84 503
84 505
84 511
84 516
84 517
84 522
84 526
84 538
84 539
84 547
84 552
84 554
84 556
84 557
84 558
84 559
84 560
84 561
84 562
84 563
84 569
84 570
84 583
84 585
84 587
84 588
85 0
85 1
85 2
85 3
85 4
85 6
85 7
85 11
85 13
85 14
85 15
85 16
85 17
85 18
85 19
85 20
85 21
85 22
85 23
85 24
85 25
85 26
85 27
85 28
85 29
85 30
85 31
85 33
85 34
85 35
85 36
85 37
85 38
85 39
85 40
85 41
85 42
85 43
85 44
85 45
85 46
85 47
85 48
85 49
85 50
85 51
85 52
85 53
85 54
85 55
85 56
85 57
85 58
85 59
85 60
85 61
85 62
85 63
85 64
85 65
85 66
85 67
85 68
85 69
85 70
85 71
85 72
85 73
85 74
85 75
85 76
85 77
85 78
85 79
85 80
85 81
85 82
85 83
85 84
85 86
85 87
85 88
85 89
85 90
85 91
85 92
85 94
85 105
85 125
85 128
85 132
85 140
85 141
85 142
85 144
85 145
85 146
85 147
85 148
85 150
85 155
85 157
85 169
85 176
85 180
85 181
85 182
85 183
85 184
85 188
85 194
85 195
85 196
85 197
85 199
85 203
85 204
85 205
85 206
85 207
85 212
85 217
85 219
85 220
85 221
85 222
85 223
85 229
85 233
85 234
85 237
85 238
85 239
85 240
85 241
85 242
85 249
85 254
85 257
85 258
85 259
85 265
85 268
85 269
85 280
85 291
85 292
85 293
85 295
85 313
85 321
85 327
85 328
85 332
85 333
85 334
85 335
85 336
85 338
85 341
85 343
85 347
85 348
85 353
85 356
85 362
85 363
85 373
85 376
85 380
85 382
85 385
85 386
85 388
85 389
85 396
85 403
85 407
85 411
85 414
85 415
85 417
85 418
85 424
85 428
85 444
85 445
85 448
85 449
85 450
85 454
85 457
85 467
85 469
85 470
85 472
85 473
85 475
85 476
85 487
85 488
85 489
85 492
85 493
85 496
85 497
85 498
85 503
85 505
85 510
85 511
85 516
85 517
85 527
85 531
85 532
85 547
85 550
85 554
85 556
85 565
85 569
85 570
85 571
85 572
85 573
85 574
85 575
85 583
85 585
85 587
85 588
86 0
86 1
86 2
86 3
86 4
86 5
86 6
86 7
86 13
86 14
86 15
86 16
86 17
86 18
86 19
86 20
86 21
86 22
86 23
86 24
86 25
86 26
86 27
86 28
86 29
86 30
86 31
86 32
86 33
86 34
86 35
86 36
86 37
86 38
86 39
86 43
86 44
86 45
86 46
86 47
86 48
86 52
86 53
86 54
86 55
86 56
86 57
86 58
86 59
86 60
86 61
86 62
86 63
86 64
86 65
86 66
86 67
86 68
86 69
86 70
86 71
86 72
86 73
86 74
86 75
86 76
86 77
86 78
86 79
86 80
86 81
86 82
86 83
86 84
86 85
86 87
86 88
86 89
86 90
86 91
86 92
86 96
86 108
86 123
86 125
86 126
86 128
86 129
86 132
86 139
86 140
86 141
86 142
86 144
86 146
86 148
86 150
86 152
86 154
86 155
86 157
86 158
86 174
86 176
86 177
86 180
86 181
86 182
86 183
86 186
86 188
86 190
86 194
86 195
86 196
86 197
86 199
86 204
86 205
86 206
86 207
86 209
86 210
86 212
86 217
86 220
86 221
86 222
86 223
86 229
86 233
86 234
86 238
86 239
86 240
86 241
86 242
86 249
86 253
86 254
86 257
86 259
86 260
86 265
86 269
86 280
86 282
86 291
86 292
86 293
86 313
86 318
86 321
86 322
86 333
86 334
86 335
86 338
86 342
86 345
86 347
86 348
86 350
86 356
86 362
86 363
86 366
86 369
86 373
86 376
86 380
86 382
86 385
86 386
86 388
86 389
86 392
86 396
86 403
86 407
86 414
86 415
86 417
86 418
86 419
86 428
86 430
86 436
86 447
86 457
86 459
86 460
86 462
86 466
86 469
86 470
86 473
86 476
86 478
86 480
86 481
86 482
86 483
86 488
86 490
86 492
86 493
86 494
86 499
86 503
86 505
86 507
86 509
86 511
86 516
86 517
86 519
86 523
86 538
86 545
86 547
86 554
86 555
86 556
86 563
86 569
86 570
86 574
86 575
86 584
86 585
86 587
86 588
87 0
87 1
87 2
87 3
87 4
87 5
87 6
87 7
87 8
87 10
87 11
87 12
87 14
87 18
87 19
87 20
87 21
87 22
87 23
87 24
87 25
87 26
87 27
87 28
87 29
87 30
87 31
87 32
87 33
87 34
87 37
87 42
87 45
87 46
87 47
87 53
87 55
87 56
87 57
87 58
87 59
87 60
87 61
87 62
87 63
87 64
87 65
87 66
87 67
87 68
87 69
87 70
87 71
87 72
87 73
87 74
87 75
87 76
87 77
87 78
87 79
87 80
87 81
87 82
87 83
87 84
87 85
87 86
87 87
87 88
87 89
87 90
87 91
87 92
87 96
87 108
87 123
87 125
87 126
87 128
87 129
87 132
87 140
87 141
87 142
87 144
87 148
87 150
87 151
87 154
87 155
87 157
87 170
87 171
87 176
87 177
87 180
87 181
87 182
87 183
87 185
87 188
87 189
87 191
87 192
87 194
87 195
87 196
87 197
87 199
87 204
87 205
87 206
87 211
87 212
87 215
87 217
87 218
87 220
87 221
87 222
87 223
87 227
87 228
87 229
87 233
87 234
87 238
87 239
87 240
87 241
87 242
87 244
87 249
87 251
87 253
87 254
87 255
87 256
87 257
87 265
87 271
87 280
87 281
87 286
87 288
87 289
87 291
87 292
87 293
87 296
87 318
87 319
87 320
87 321
87 323
87 327
87 333
87 334
87 335
87 336
87 337
87 338
87 347
87 348
87 350
87 351
87 356
87 362
87 367
87 368
87 369
87 370
87 371
87 372
87 373
87 374
87 375
87 380
87 382
87 385
87 386
87 388
87 396
87 403
87 407
87 413
87 414
87 415
87 416
87 417
87 418
87 424
87 428
87 434
87 438
87 452
87 453
87 457
87 469
87 470
87 473
87 476
87 478
87 483
87 484
87 488
87 491
87 492
87 495
87 499
87 501
87 502
87 503
87 505
87 511
87 512
87 515
87 516
87 517
87 526
87 537
87 538
87 539
87 547
87 552
87 554
87 556
87 557
87 560
87 562
87 563
87 567
87 569
87 570
87 574
87 585
87 587
87 588
88 0
88 1
88 2
88 3
88 4
88 5
88 6
88 7
88 13
88 14
88 15
88 16
88 17
88 18
88 19
88 20
88 21
88 22
88 23
88 24
88 25
88 26
88 27
88 28
88 29
88 30
88 31
88 32
88 33
88 34
88 35
88 43
88 44
88 45
88 46
88 47
88 48
88 50
88 52
88 53
88 54
88 55
88 56
88 57
88 58
88 59
88 60
88 61
88 62
88 63
88 64
88 65
88 66
88 67
88 68
88 69
88 70
88 71
88 72
88 73
88 74
88 75
88 76
88 77
88 78
88 79
88 80
88 81
88 82
88 83
88 84
88 85
88 86
88 87
88 89
88 90
88 91
88 92
88 96
88 99
88 110
88 112
88 124
88 125
88 126
88 128
88 132
88 139
88 140
88 141
88 142
88 143
88 144
88 148
88 150
88 154
88 155
88 156
88 157
88 171
88 174
88 176
88 178
88 180
88 181
88 182
88 183
88 187
88 188
88 190
88 194
88 195
88 196
88 197
88 199
88 202
88 204
88 205
88 206
88 207
88 212
88 213
88 217
88 219
88 220
88 221
88 222
88 223
88 226
88 229
88 233
88 234
88 236
88 238
88 239
88 240
88 241
88 242
88 244
88 246
88 248
88 249
88 252
88 253
88 254
88 255
88 256
88 257
88 259
88 260
88 263
88 264
88 265
88 267
88 268
88 271
88 275
88 278
88 280
88 282
88 285
88 287
88 289
88 290
88 291
88 292
88 293
88 300
88 310
88 313
88 316
88 321
88 322
88 327
88 333
88 334
88 335
88 338
88 347
88 348
88 353
88 356
88 362
88 363
88 371
88 373
88 380
88 382
88 385
88 386
88 388
88 396
88 397
88 403
88 407
88 414
88 415
88 417
88 418
88 422
88 427
88 428
88 439
88 454
88 456
88 457
88 467
88 469
88 470
88 471
88 473
88 476
88 480
88 481
88 483
88 485
88 488
88 490
88 492
88 498
88 502
88 503
88 505
88 507
88 508
88 509
88 510
88 511
88 512
88 514
88 516
88 517
88 518
88 519
88 520
88 521
88 522
88 523
88 525
88 531
88 537
88 543
88 547
88 549
88 550
88 554
88 555
88 556
88 557
88 563
88 566
88 569
88 570
88 574
88 575
88 583
88 585
88 587
88 588
89 0
89 1
89 2
89 3
89 4
89 5
89 6
89 7
89 8
89 11
89 13
89 14
89 15
89 16
89 17
89 18
89 19
89 20
89 21
89 22
89 23
89 24
89 25
89 26
89 28
89 29
89 30
89 31
89 32
89 35
89 36
89 37
89 38
89 39
89 40
89 41
89 42
89 43
89 44
89 45
89 46
89 47
89 48
89 49
89 50
89 51
89 52
89 53
89 54
89 55
89 56
89 57
89 58
89 59
89 61
89 63
89 64
89 65
89 67
89 69
89 71
89 72
89 73
89 74
89 79
89 80
89 81
89 82
89 83
89 84
89 85
89 86
89 87
89 88
89 89
89 90
89 91
89 92
89 94
89 102
89 108
89 114
89 119
89 125
89 126
89 128
89 132
89 136
89 140
89 145
89 146
89 147
89 152
89 154
89 157
89 158
89 166
89 169
89 171
89 177
89 180
89 181
89 182
89 183
89 186
89 187
89 188
89 190
89 191
89 194
89 199
89 203
89 204
89 205
89 206
89 207
89 211
89 212
89 213
89 218
89 219
89 220
89 221
89 222
89 223
89 224
89 226
89 229
89 234
89 236
89 237
89 239
89 240
89 241
89 244
89 249
89 251
89 253
89 254
89 255
89 256
89 258
89 259
89 260
89 263
89 267
89 268
89 269
89 270
89 271
89 273
89 275
89 278
89 280
89 281
89 282
89 284
89 286
89 287
89 289
89 291
89 293
89 295
89 300
89 304
89 310
89 319
89 321
89 322
89 328
89 331
89 332
89 333
89 336
89 337
89 341
89 343
89 345
89 350
89 353
89 356
89 363
89 368
89 370
89 371
89 373
89 374
89 376
89 380
89 385
89 389
89 392
89 401
89 411
89 415
89 421
89 422
89 423
89 424
89 425
89 429
89 430
89 433
89 444
89 446
89 447
89 448
89 449
89 450
89 452
89 454
89 456
89 457
89 460
89 461
89 463
89 467
89 472
89 473
89 474
89 475
89 476
89 478
89 479
89 480
89 483
89 485
89 487
89 488
89 489
89 492
89 493
89 494
89 496
89 497
89 498
89 502
89 503
89 505
89 506
89 509
89 510
89 511
89 513
89 515
89 516
89 517
89 518
89 519
89 520
89 522
89 524
89 525
89 527
89 531
89 532
89 533
89 534
89 535
89 536
89 547
89 550
89 556
89 557
89 558
89 559
89 561
89 562
89 563
89 565
89 569
89 572
89 574
89 575
89 583
89 584
89 586
89 587
89 588
90 0
90 1
90 2
90 3
90 4
90 5
90 6
90 7
90 11
90 13
90 14
90 15
90 16
90 17
90 18
90 19
90 20
90 21
90 22
90 23
90 24
90 25
90 26
90 27
90 28
90 29
90 30
90 31
90 32
90 33
90 34
90 35
90 36
90 37
90 38
90 39
90 40
90 41
90 42
90 43
90 44
90 45
90 46
90 47
90 48
90 49
90 50
90 51
90 52
90 53
90 54
90 55
90 56
90 57
90 58
90 59
90 60
90 61
90 62
90 63
90 64
90 65
90 66
90 67
90 68
90 69
90 70
90 71
90 72
90 73
90 74
90 75
90 76
90 77
90 78
90 79
90 80
90 81
90 82
90 83
90 84
90 85
90 86
90 87
90 88
90 89
90 91
90 92
90 93
90 108
90 112
90 120
90 125
90 126
90 128
90 132
90 137
90 140
90 141
90 142
90 143
90 144
90 146
90 147
90 148
90 150
90 152
90 154
90 155
90 157
90 167
90 176
90 180
90 181
90 182
90 183
90 186
90 188
90 190
90 194
90 195
90 196
90 197
90 199
90 204
90 205
90 206
90 209
90 211
90 212
90 217
90 220
90 221
90 222
90 223
90 229
90 233
90 234
90 235
90 237
90 238
90 239
90 240
90 241
90 242
90 248
90 249
90 254
90 256
90 257
90 258
90 259
90 260
90 264
90 265
90 268
90 269
90 275
90 280
90 282
90 283
90 285
90 290
90 291
90 292
90 293
90 295
90 300
90 313
90 316
90 320
90 321
90 322
90 324
90 328
90 329
90 332
90 333
90 334
90 335
90 336
90 338
90 341
90 343
90 345
90 347
90 348
90 350
90 353
90 356
90 358
90 362
90 373
90 376
90 377
90 380
90 381
90 382
90 385
90 386
90 388
90 389
90 396
90 403
90 407
90 411
90 412
90 414
90 415
90 417
90 418
90 419
90 421
90 422
90 423
90 424
90 425
90 427
90 428
90 430
90 444
90 447
90 449
90 450
90 454
90 455
90 457
90 461
90 469
90 470
90 473
90 475
90 476
90 483
90 487
90 488
90 489
90 492
90 493
90 494
90 498
90 502
90 503
90 505
90 506
90 509
90 510
90 511
90 513
90 515
90 516
90 517
90 518
90 525
90 527
90 531
90 532
90 534
90 535
90 543
90 545
90 547
90 548
90 550
90 553
90 554
90 555
90 556
90 557
90 563
90 565
90 566
90 568
90 569
90 570
90 574
90 575
90 582
90 583
90 584
90 585
90 587
90 588
91 0
91 1
91 2
91 3
91 4
91 5
91 6
91 7
91 8
91 9
91 10
91 11
91 12
91 13
91 14
91 15
91 16
91 17
91 18
91 19
91 20
91 21
91 22
91 23
91 24
91 25
91 26
91 27
91 28
91 29
91 30
91 31
91 32
91 33
91 34
91 35
91 36
91 37
91 38
91 40
91 41
91 42
91 43
91 45
91 46
91 47
91 48
91 49
91 50
91 51
91 52
91 53
91 54
91 55
91 56
91 57
91 58
91 59
91 60
91 61
91 62
91 63
91 64
91 65
91 66
91 67
91 68
91 69
91 70
91 71
91 72
91 73
91 74
91 75
91 76
91 77
91 78
91 79
91 80
91 81
91 82
91 83
91 84
91 85
91 86
91 87
91 88
91 89
91 90
91 92
91 94
91 97
91 108
91 109
91 120
91 123
91 125
91 126
91 128
91 131
91 132
91 136
91 137
91 140
91 141
91 142
91 144
91 145
91 146
91 147
91 148
91 150
91 152
91 154
91 155
91 157
91 163
91 166
91 167
91 168
91 171
91 174
91 176
91 177
91 180
91 181
91 182
91 183
91 186
91 187
91 188
91 190
91 194
91 195
91 196
91 197
91 199
91 202
91 203
91 204
91 205
91 206
91 207
91 209
91 210
91 211
91 212
91 213
91 216
91 217
91 218
91 219
91 220
91 221
91 222
91 223
91 227
91 228
91 229
91 230
91 233
91 234
91 235
91 237
91 238
91 239
91 240
91 241
91 242
91 244
91 246
91 249
91 250
91 251
91 253
91 254
91 255
91 256
91 257
91 258
91 263
91 265
91 268
91 269
91 270
91 275
91 280
91 282
91 286
91 288
91 289
91 291
91 292
91 293
91 296
91 304
91 316
91 319
91 320
91 321
91 322
91 323
91 328
91 333
91 334
91 335
91 336
91 337
91 338
91 341
91 343
91 344
91 345
91 347
91 348
91 350
91 353
91 356
91 358
91 362
91 367
91 368
91 369
91 370
91 372
91 373
91 374
91 375
91 376
91 377
91 380
91 382
91 385
91 386
91 387
91 388
91 389
91 392
91 395
91 396
91 403
91 405
91 406
91 407
91 411
91 412
91 413
91 414
91 415
91 417
91 418
91 419
91 420
91 421
91 422
91 424
91 425
91 427
91 428
91 429
91 430
91 431
91 432
91 434
91 442
91 444
91 446
91 449
91 452
91 453
91 456
91 457
91 459
91 460
91 461
91 462
91 463
91 464
91 465
91 467
91 468
91 469
91 470
91 472
91 473
91 475
91 476
91 478
91 480
91 481
91 482
91 483
91 485
91 486
91 487
91 488
91 490
91 492
91 493
91 496
91 498
91 499
91 502
91 503
91 504
91 505
91 506
91 507
91 508
91 509
91 510
91 511
91 512
91 513
91 515
91 516
91 517
91 518
91 520
91 521
91 524
91 525
91 526
91 527
91 530
91 531
91 534
91 537
91 538
91 539
91 540
91 542
91 547
91 548
91 549
91 550
91 551
91 552
91 553
91 554
91 555
91 556
91 557
91 558
91 562
91 563
91 567
91 568
91 569
91 570
91 573
91 574
91 575
91 583
91 584
91 585
91 586
91 587
91 588
92 0
92 1
92 2
92 3
92 4
92 5
92 6
92 7
92 8
92 10
92 11
92 13
92 14
92 15
92 16
92 17
92 18
92 19
92 20
92 21
92 22
92 23
92 24
92 25
92 26
92 27
92 28
92 29
92 30
92 31
92 32
92 33
92 34
92 35
92 36
92 37
92 38
92 39
92 40
92 41
92 42
92 43
92 44
92 45
92 46
92 47
92 48
92 49
92 50
92 51
92 52
92 53
92 54
92 55
92 56
92 57
92 58
92 59
92 60
92 61
92 62
92 63
92 64
92 65
92 66
92 67
92 68
92 69
92 70
92 71
92 72
92 73
92 74
92 75
92 76
92 77
92 78
92 79
92 80
92 81
92 82
92 83
92 84
92 85
92 86
92 87
92 88
92 89
92 90
92 91
92 92
92 93
92 96
92 97
92 102
92 109
92 110
92 125
92 126
92 128
92 129
92 132
92 136
92 137
92 139
92 140
92 141
92 142
92 143
92 144
92 146
92 147
92 148
92 150
92 151
92 152
92 155
92 156
92 157
92 158
92 163
92 172
92 174
92 175
92 176
92 178
92 180
92 181
92 182
92 183
92 184
92 186
92 187
92 188
92 190
92 194
92 195
92 196
92 197
92 199
92 202
92 203
92 204
92 205
92 206
92 207
92 209
92 210
92 212
92 213
92 215
92 217
92 218
92 220
92 221
92 222
92 223
92 229
92 230
92 233
92 234
92 236
92 238
92 239
92 240
92 241
92 242
92 243
92 244
92 246
92 248
92 249
92 252
92 253
92 254
92 255
92 256
92 257
92 258
92 259
92 260
92 263
92 264
92 265
92 266
92 268
92 269
92 271
92 274
92 275
92 280
92 282
92 283
92 284
92 285
92 287
92 290
92 291
92 292
92 293
92 295
92 298
92 300
92 304
92 318
92 319
92 320
92 321
92 322
92 324
92 326
92 328
92 329
92 332
92 333
92 334
92 335
92 338
92 340
92 341
92 342
92 343
92 345
92 347
92 348
92 349
92 350
92 353
92 356
92 357
92 358
92 359
92 361
92 362
92 363
92 366
92 367
92 369
92 371
92 372
92 373
92 376
92 380
92 382
92 384
92 385
92 386
92 388
92 389
92 391
92 392
92 393
92 396
92 403
92 407
92 414
92 415
92 417
92 418
92 419
92 420
92 421
92 422
92 424
92 425
92 426
92 427
92 428
92 430
92 432
92 435
92 436
92 438
92 439
92 446
92 447
92 448
92 449
92 453
92 455
92 456
92 457
92 458
92 459
92 460
92 461
92 462
92 463
92 466
92 467
92 469
92 470
92 472
92 473
92 475
92 476
92 478
92 479
92 480
92 481
92 483
92 487
92 488
92 489
92 490
92 492
92 493
92 494
92 496
92 498
92 500
92 501
92 503
92 505
92 506
92 507
92 509
92 510
92 511
92 515
92 516
92 517
92 519
92 522
92 523
92 524
92 525
92 527
92 531
92 532
92 533
92 535
92 537
92 538
92 539
92 540
92 541
92 542
92 543
92 544
92 547
92 550
92 553
92 554
92 555
92 556
92 557
92 558
92 563
92 564
92 565
92 566
92 567
92 568
92 569
92 570
92 571
92 574
92 575
92 583
92 584
92 585
92 587
92 588
93 0
93 1
93 2
93 3
93 4
93 7
93 19
93 20
93 23
93 44
93 51
93 52
93 59
93 77
93 78
93 90
93 92
93 93
93 96
93 102
93 104
93 105
93 112
93 119
93 120
93 124
93 136
93 148
93 167
93 172
93 174
93 178
93 217
93 233
93 239
93 246
93 252
93 253
93 261
93 263
93 270
93 271
93 275
93 276
93 283
93 297
93 306
93 352
93 375
93 378
93 380
93 388
93 420
93 421
93 422
93 423
93 425
93 427
93 428
93 436
93 437
93 438
93 439
93 440
93 443
93 461
93 471
93 522
93 542
93 543
93 566
94 0
94 1
94 2
94 6
94 19
94 30
94 32
94 81
94 85
94 89
94 91
94 94
94 137
94 232
94 246
94 327
94 367
94 511
94 574
95 0
95 1
95 95
95 98
95 101
95 156
95 174
95 190
95 208
95 232
95 266
95 363
95 577
96 0
96 1
96 2
96 3
96 4
96 5
96 6
96 62
96 71
96 72
96 86
96 87
96 88
96 92
96 93
96 101
96 102
96 109
96 110
96 112
96 118
96 119
96 124
96 133
96 141
96 149
96 165
96 172
96 174
96 178
96 181
96 194
96 214
96 215
96 216
96 226
96 238
96 243
96 246
96 253
96 255
96 262
96 266
96 271
96 276
96 279
96 297
96 303
96 315
96 326
96 329
96 346
96 358
96 372
96 385
96 402
96 421
96 424
96 439
96 543
96 566
96 581
96 589
97 0
97 1
97 2
97 3
97 91
97 92
97 97
97 99
97 101
97 103
97 105
97 107
97 110
97 154
97 190
97 198
97 200
97 208
97 286
97 294
97 319
97 320
97 323
97 352
97 509
97 529
97 560
98 0
98 1
98 2
98 95
98 98
98 101
98 104
98 105
98 111
98 115
98 129
98 135
98 173
98 177
98 190
98 200
98 364
99 0
99 1
99 2
99 3
99 5
99 88
99 97
99 101
99 105
99 123
99 133
99 190
99 226
99 284
99 296
99 303
99 310
99 316
99 483
99 491
100 0
100 1
100 2
100 105
100 117
100 130
100 161
100 165
100 478
101 0
101 1
101 2
101 95
101 96
101 97
101 98
101 99
101 101
101 104
101 105
101 106
101 107
101 110
101 111
101 113
101 140
101 152
101 153
101 160
101 190
101 198
101 208
101 232
101 246
101 253
101 266
101 276
101 286
101 306
101 309
101 312
101 354
101 363
101 425
101 583
102 0
102 1
102 2
102 3
102 4
102 5
102 7
102 13
102 14
102 18
102 19
102 36
102 42
102 51
102 54
102 56
102 57
102 74
102 79
102 89
102 92
102 93
102 96
102 131
102 136
102 146
102 147
102 152
102 167
102 190
102 197
102 204
102 219
102 223
102 248
102 253
102 273
102 283
102 290
102 304
102 363
102 419
102 420
102 421
102 422
102 423
102 424
102 426
102 427
102 461
102 483
102 515
102 521
102 533
102 534
102 544
102 582
102 583
102 584
102 586
103 0
103 1
103 97
103 103
103 104
103 107
103 116
103 127
103 156
103 166
103 175
103 190
103 208
103 232
103 266
103 309
103 312
103 358
104 0
104 1
104 93
104 98
104 101
104 103
104 104
104 105
104 107
104 113
104 127
104 156
104 166
104 173
104 174
104 232
104 283
104 312
104 576
104 577
104 580
105 0
105 1
105 2
105 3
105 4
105 76
105 85
105 93
105 97
105 98
105 99
105 100
105 101
105 104
105 105
105 110
105 111
105 113
105 114
105 115
105 116
105 117
105 127
105 130
105 135
105 139
105 141
105 145
105 149
105 160
105 162
105 167
105 168
105 173
105 174
105 178
105 190
105 198
105 200
105 230
105 232
105 233
105 253
105 266
105 267
105 278
105 286
105 294
105 297
105 303
105 306
105 329
105 352
105 364
105 366
105 393
105 394
105 395
105 419
105 443
105 481
105 522
105 576
106 0
106 101
107 0
107 1
107 2
107 97
107 101
107 103
107 104
107 107
107 110
107 111
107 116
107 124
107 127
107 135
107 153
107 162
107 164
107 166
107 173
107 174
107 179
107 190
107 193
107 232
107 305
107 314
107 478
107 577
107 580
108 0
108 1
108 2
108 3
108 4
108 5
108 6
108 8
108 15
108 19
108 20
108 21
108 22
108 25
108 26
108 34
108 52
108 54
108 55
108 56
108 57
108 58
108 62
108 63
108 64
108 65
108 67
108 68
108 78
108 79
108 84
108 86
108 87
108 89
108 90
108 91
108 132
108 146
108 167
108 194
108 203
108 206
108 207
108 211
108 240
108 241
108 265
108 282
108 288
108 291
108 305
108 336
108 345
108 347
108 350
108 351
108 356
108 368
108 370
108 372
108 382
108 386
108 387
108 407
108 425
108 441
108 457
108 460
108 493
108 494
108 539
108 552
108 583
108 587
109 0
109 1
109 2
109 3
109 4
109 5
109 6
109 24
109 25
109 39
109 91
109 92
109 96
109 110
109 111
109 118
109 119
109 120
109 123
109 133
109 149
109 158
109 161
109 165
109 167
109 170
109 174
109 176
109 190
109 192
109 199
109 216
109 226
109 243
109 273
109 294
109 297
109 305
109 307
109 310
109 312
109 316
109 326
109 327
109 329
109 330
109 340
109 342
109 346
109 355
109 358
109 360
109 361
109 363
109 364
109 365
109 390
109 391
109 395
109 402
109 404
109 425
109 441
109 537
109 538
109 547
109 582
110 0
110 1
110 2
110 3
110 4
110 19
110 28
110 50
110 72
110 74
110 88
110 92
110 96
110 97
110 101
110 105
110 107
110 109
110 110
110 111
110 113
110 115
110 116
110 135
110 155
110 156
110 159
110 167
110 174
110 193
110 200
110 207
110 225
110 232
110 246
110 253
110 277
110 300
110 303
110 309
110 311
110 312
110 317
110 327
110 352
110 359
110 361
110 388
110 391
110 398
110 424
110 480
110 533
110 570
110 577
110 578
110 580
110 589
111 0
111 1
111 2
111 36
111 98
111 101
111 105
111 107
111 109
111 110
111 111
111 115
111 116
111 149
111 156
111 161
111 175
111 190
111 193
111 230
111 307
111 352
112 0
112 1
112 2
112 3
112 4
112 5
112 6
112 43
112 74
112 88
112 90
112 93
112 96
112 112
112 124
112 141
112 152
112 167
112 172
112 178
112 179
112 190
112 195
112 201
112 214
112 226
112 236
112 238
112 245
112 246
112 266
112 273
112 275
112 276
112 283
112 303
112 305
112 306
112 329
112 331
112 339
112 348
112 394
112 439
112 440
112 441
112 443
112 522
112 577
113 0
113 1
113 2
113 101
113 104
113 105
113 110
113 113
113 190
113 198
113 200
114 0
114 1
114 2
114 3
114 4
114 5
114 89
114 105
114 118
114 139
114 145
114 174
114 184
114 196
114 241
114 246
114 262
114 294
114 310
114 311
114 478
114 589
115 0
115 1
115 98
115 105
115 110
115 111
115 116
115 135
115 317
115 577
115 578
116 0
116 1
116 2
116 3
116 36
116 103
116 105
116 107
116 110
116 111
116 115
116 128
116 135
116 156
116 190
116 200
117 0
117 1
117 100
117 105
117 130
117 398
117 399
118 0
118 1
118 2
118 3
118 4
118 5
118 11
118 19
118 20
118 22
118 27
118 28
118 96
118 109
118 114
118 118
118 119
118 138
118 141
118 156
118 157
118 159
118 168
118 174
118 179
118 181
118 183
118 190
118 195
118 205
118 211
118 214
118 215
118 225
118 226
118 229
118 230
118 236
118 239
118 241
118 242
118 243
118 244
118 245
118 254
118 262
118 266
118 272
118 273
118 275
118 279
118 286
118 297
118 299
118 301
118 304
118 312
118 315
118 316
118 321
118 327
118 329
118 344
118 357
118 361
118 386
118 404
118 407
118 408
118 441
118 542
118 549
118 577
118 579
118 580
118 583
118 589
119 0
119 1
119 2
119 3
119 4
119 5
119 22
119 89
119 93
119 96
119 109
119 118
119 123
119 133
119 149
119 159
119 165
119 174
119 179
119 190
119 205
119 214
119 215
119 216
119 225
119 226
119 230
119 242
119 243
119 245
119 262
119 266
119 272
119 279
119 297
119 299
119 326
119 327
119 330
119 346
119 358
119 361
119 363
119 365
119 395
119 402
119 404
119 408
119 410
119 542
119 589
120 0
120 1
120 2
120 3
120 4
120 6
120 7
120 20
120 21
120 24
120 59
120 78
120 90
120 91
120 93
120 109
120 127
120 137
120 146
120 158
120 183
120 190
120 199
120 202
120 205
120 206
120 211
120 230
120 252
120 253
120 263
120 270
120 273
120 275
120 276
120 297
120 320
120 427
120 441
120 542
120 551
121 0
121 1
121 2
121 3
121 4
121 134
121 138
121 266
121 307
121 308
121 309
121 311
121 312
121 314
121 315
121 317
121 410
121 577
121 578
121 579
121 580
122 0
122 1
122 2
122 3
122 4
122 43
122 137
122 156
122 169
122 174
122 270
122 274
122 422
122 431
122 436
122 441
122 486
122 509
122 533
122 551
122 572
122 575
122 584
123 0
123 1
123 2
123 3
123 4
123 5
123 6
123 20
123 25
123 39
123 76
123 84
123 86
123 87
123 91
123 99
123 109
123 119
123 149
123 158
123 161
123 165
123 170
123 174
123 190
123 192
123 199
123 215
123 216
123 236
123 244
123 245
123 257
123 303
123 310
123 316
123 321
123 326
123 330
123 342
123 357
123 361
123 364
123 395
123 400
123 409
123 410
123 478
123 481
123 483
123 573
123 582
124 0
124 1
124 2
124 3
124 4
124 7
124 20
124 21
124 22
124 74
124 88
124 93
124 96
124 107
124 112
124 128
124 152
124 172
124 178
124 190
124 201
124 225
124 233
124 240
124 246
124 248
124 252
124 263
124 265
124 271
124 273
124 275
124 283
124 290
124 294
124 297
124 378
124 381
124 394
124 427
124 436
124 438
124 439
124 442
124 443
124 471
124 483
124 522
124 552
124 566
125 0
125 1
125 2
125 3
125 4
125 5
125 6
125 10
125 18
125 19
125 20
125 21
125 22
125 23
125 24
125 25
125 26
125 27
125 28
125 29
125 30
125 31
125 32
125 33
125 34
125 45
125 46
125 47
125 53
125 54
125 55
125 56
125 57
125 58
125 59
125 60
125 61
125 62
125 63
125 64
125 65
125 66
125 67
125 68
125 69
125 70
125 71
125 72
125 73
125 75
125 76
125 77
125 78
125 79
125 80
125 81
125 82
125 83
125 84
125 85
125 86
125 87
125 88
125 89
125 90
125 91
125 92
125 128
125 132
125 139
125 140
125 141
125 142
125 144
125 148
125 150
125 151
125 155
125 157
125 176
125 180
125 181
125 182
125 183
125 185
125 188
125 189
125 194
125 195
125 196
125 197
125 199
125 202
125 204
125 205
125 206
125 211
125 212
125 217
125 220
125 221
125 222
125 223
125 228
125 229
125 233
125 234
125 238
125 239
125 240
125 241
125 242
125 249
125 254
125 257
125 265
125 280
125 289
125 291
125 292
125 293
125 318
125 319
125 320
125 321
125 323
125 333
125 334
125 335
125 336
125 337
125 338
125 344
125 347
125 348
125 356
125 362
125 373
125 380
125 382
125 385
125 386
125 388
125 396
125 403
125 407
125 414
125 415
125 417
125 418
125 428
125 457
125 469
125 470
125 473
125 476
125 478
125 488
125 492
125 499
125 503
125 505
125 507
125 508
125 511
125 513
125 516
125 517
125 526
125 528
125 529
125 545
125 547
125 554
125 556
125 560
125 562
125 567
125 569
125 570
125 585
125 587
125 588
126 0
126 1
126 2
126 3
126 4
126 5
126 7
126 16
126 20
126 21
126 22
126 31
126 36
126 37
126 39
126 42
126 44
126 47
126 48
126 53
126 72
126 79
126 86
126 87
126 88
126 89
126 90
126 91
126 92
126 128
126 140
126 152
126 174
126 234
126 248
126 253
126 259
126 286
126 287
126 290
126 322
126 324
126 419
126 425
126 427
126 483
126 507
126 569
127 0
127 1
127 2
127 4
127 78
127 103
127 104
127 105
127 107
127 120
127 127
127 153
127 166
127 190
127 276
127 297
127 546
128 0
128 1
128 2
128 3
128 4
128 5
128 13
128 14
128 15
128 16
128 17
128 18
128 19
128 20
128 21
128 22
128 23
128 24
128 25
128 26
128 27
128 28
128 29
128 30
128 31
128 32
128 33
128 34
128 35
128 36
128 37
128 38
128 39
128 40
128 42
128 43
128 44
128 45
128 46
128 47
128 48
128 49
128 50
128 51
128 52
128 53
128 54
128 55
128 56
128 57
128 58
128 59
128 60
128 61
128 62
128 63
128 64
128 65
128 66
128 67
128 68
128 69
128 70
128 71
128 72
128 73
128 75
128 76
128 77
128 78
128 79
128 80
128 81
128 82
128 83
128 84
128 85
128 86
128 87
128 88
128 89
128 90
128 91
128 92
128 116
128 124
128 125
128 126
128 132
128 140
128 141
128 142
128 144
128 146
128 148
128 150
128 154
128 155
128 157
128 175
128 176
128 180
128 181
128 182
128 183
128 187
128 188
128 194
128 195
128 196
128 197
128 199
128 204
128 205
128 206
128 207
128 210
128 212
128 217
128 220
128 221
128 222
128 223
128 224
128 229
128 232
128 233
128 234
128 236
128 238
128 239
128 240
128 241
128 242
128 244
128 249
128 254
128 255
128 256
128 257
128 258
128 259
128 260
128 265
128 269
128 273
128 280
128 291
128 292
128 293
128 295
128 318
128 321
128 333
128 334
128 335
128 338
128 347
128 348
128 356
128 362
128 363
128 369
128 373
128 380
128 382
128 385
128 386
128 388
128 389
128 396
128 403
128 407
128 414
128 415
128 417
128 418
128 425
128 428
128 454
128 457
128 458
128 459
128 469
128 470
128 473
128 476
128 485
128 486
128 487
128 488
128 489
128 490
128 492
128 493
128 503
128 505
128 509
128 510
128 511
128 516
128 517
128 547
128 554
128 556
128 561
128 565
128 569
128 570
128 574
128 575
128 585
128 587
128 588
129 0
129 1
129 2
129 3
129 19
129 20
129 22
129 86
129 87
129 92
129 98
129 141
129 142
129 159
129 176
129 177
129 226
129 238
129 256
129 257
129 296
129 473
129 478
129 549
130 0
130 1
130 4
130 6
130 100
130 105
130 117
130 399
131 0
131 1
131 9
131 13
131 14
131 35
131 42
131 67
131 75
131 78
131 79
131 91
131 102
131 136
131 140
131 146
131 186
131 197
131 206
131 210
131 219
131 220
131 224
131 291
131 304
131 328
131 394
131 396
131 419
131 420
131 421
131 422
131 423
131 424
131 425
131 426
131 427
131 428
131 429
131 430
131 431
131 432
131 436
131 437
131 461
131 504
131 534
131 583
131 584
131 585
131 586
131 587
131 588
132 0
132 1
132 2
132 3
132 4
132 5
132 6
132 7
132 12
132 13
132 14
132 15
132 16
132 17
132 18
132 19
132 20
132 21
132 22
132 23
132 24
132 25
132 26
132 30
132 31
132 32
132 35
132 36
132 37
132 38
132 39
132 40
132 41
132 42
132 43
132 44
132 47
132 48
132 49
132 50
132 51
132 52
132 53
132 54
132 55
132 56
132 57
132 58
132 59
132 60
132 61
132 62
132 63
132 64
132 65
132 66
132 67
132 68
132 69
132 70
132 71
132 72
132 73
132 74
132 75
132 76
132 77
132 78
132 79
132 80
132 81
132 82
132 83
132 84
132 85
132 86
132 87
132 88
132 89
132 90
132 91
132 92
132 108
132 125
132 128
132 137
132 140
132 142
132 143
132 144
132 146
132 148
132 150
132 152
132 155
132 157
132 176
132 180
132 181
132 182
132 183
132 184
132 186
132 187
132 194
132 195
132 196
132 197
132 203
132 204
132 205
132 206
132 207
132 209
132 210
132 211
132 212
132 217
132 219
132 220
132 221
132 222
132 227
132 233
132 237
132 238
132 239
132 240
132 241
132 242
132 248
132 249
132 253
132 254
132 257
132 258
132 259
132 260
132 263
132 265
132 268
132 269
132 274
132 280
132 282
132 289
132 290
132 291
132 293
132 295
132 304
132 316
132 321
132 322
132 324
132 328
132 329
132 333
132 334
132 335
132 338
132 341
132 343
132 347
132 348
132 349
132 356
132 362
132 363
132 373
132 377
132 380
132 382
132 384
132 385
132 386
132 388
132 397
132 403
132 407
132 411
132 412
132 414
132 415
132 417
132 418
132 419
132 420
132 422
132 423
132 424
132 425
132 428
132 430
132 431
132 441
132 445
132 447
132 449
132 450
132 457
132 461
132 466
132 467
132 473
132 475
132 481
132 483
132 487
132 492
132 493
132 496
132 500
132 501
132 504
132 505
132 506
132 507
132 511
132 513
132 515
132 517
132 518
132 519
132 520
132 521
132 532
132 535
132 537
132 539
132 544
132 553
132 555
132 556
132 557
132 558
132 564
132 565
132 571
132 574
132 575
132 582
132 583
132 584
132 586
133 0
133 1
133 2
133 3
133 4
133 5
133 6
133 25
133 96
133 99
133 109
133 119
133 149
133 165
133 174
133 190
133 192
133 199
133 215
133 216
133 225
133 262
133 267
133 316
133 326
133 327
133 330
133 340
133 346
133 357
133 358
133 361
133 395
133 402
133 582
134 0
134 1
134 2
134 3
134 4
134 121
134 134
134 138
134 308
134 309
134 311
134 312
134 314
134 315
134 317
134 577
134 578
134 579
134 580
135 0
135 1
135 98
135 105
135 107
135 110
135 115
135 116
135 352
136 0
136 1
136 2
136 3
136 7
136 9
136 13
136 18
136 36
136 54
136 56
136 67
136 74
136 75
136 78
136 89
136 91
136 92
136 93
136 102
136 131
136 136
136 140
136 146
136 147
136 152
136 167
136 186
136 197
136 206
136 210
136 219
136 248
136 283
136 290
136 304
136 328
136 329
136 396
136 419
136 420
136 421
136 422
136 423
136 424
136 425
136 426
136 427
136 428
136 429
136 430
136 431
136 432
136 435
136 436
136 461
136 504
136 521
136 522
136 534
136 544
136 574
136 582
136 583
136 584
136 585
136 586
136 587
136 588
137 0
137 1
137 2
137 3
137 4
137 5
137 11
137 13
137 18
137 20
137 21
137 22
137 24
137 35
137 57
137 59
137 60
137 62
137 77
137 90
137 91
137 92
137 94
137 120
137 122
137 132
137 137
137 146
137 148
137 169
137 174
137 181
137 194
137 195
137 198
137 202
137 203
137 217
137 219
137 222
137 228
137 237
137 246
137 270
137 271
137 274
137 302
137 304
137 305
137 316
137 323
137 366
137 369
137 406
137 478
137 499
137 537
137 545
137 553
137 555
137 583
138 0
138 1
138 2
138 3
138 4
138 118
138 121
138 134
138 138
138 266
138 307
138 308
138 309
138 311
138 312
138 314
138 315
138 317
138 409
138 577
138 578
138 579
138 580
138 589
139 0
139 1
139 2
139 3
139 22
139 24
139 28
139 35
139 74
139 77
139 86
139 88
139 92
139 105
139 114
139 125
139 177
139 182
139 198
139 246
139 253
139 267
139 273
139 277
139 278
139 284
139 285
139 286
139 303
139 305
139 362
139 386
139 397
139 424
139 506
140 0
140 1
140 2
140 3
140 4
140 5
140 6
140 7
140 9
140 11
140 13
140 14
140 15
140 16
140 18
140 19
140 20
140 21
140 22
140 23
140 24
140 25
140 26
140 27
140 28
140 29
140 30
140 31
140 32
140 33
140 34
140 36
140 37
140 38
140 39
140 42
140 44
140 45
140 46
140 47
140 50
140 51
140 53
140 54
140 55
140 56
140 57
140 58
140 59
140 60
140 61
140 62
140 63
140 64
140 65
140 66
140 67
140 68
140 69
140 70
140 71
140 72
140 73
140 74
140 75
140 76
140 77
140 78
140 79
140 80
140 81
140 82
140 83
140 84
140 85
140 86
140 87
140 88
140 89
140 90
140 91
140 92
140 101
140 125
140 126
140 128
140 131
140 132
140 136
140 141
140 142
140 144
140 145
140 146
140 148
140 150
140 151
140 152
140 155
140 157
140 167
140 172
140 176
140 180
140 181
140 182
140 183
140 186
140 188
140 194
140 195
140 196
140 197
140 199
140 204
140 205
140 206
140 207
140 209
140 210
140 212
140 217
140 219
140 220
140 221
140 222
140 223
140 224
140 229
140 231
140 233
140 234
140 238
140 239
140 240
140 241
140 242
140 244
140 248
140 249
140 254
140 257
140 259
140 265
140 268
140 273
140 280
140 284
140 286
140 290
140 291
140 292
140 293
140 304
140 321
140 328
140 331
140 333
140 334
140 335
140 338
140 347
140 348
140 356
140 362
140 371
140 373
140 380
140 382
140 385
140 386
140 388
140 389
140 393
140 396
140 403
140 407
140 414
140 415
140 417
140 418
140 419
140 420
140 421
140 422
140 423
140 424
140 425
140 428
140 429
140 430
140 431
140 432
140 449
140 457
140 461
140 467
140 469
140 470
140 473
140 476
140 483
140 487
140 488
140 492
140 503
140 505
140 506
140 507
140 509
140 511
140 513
140 516
140 517
140 534
140 538
140 547
140 554
140 556
140 568
140 569
140 570
140 571
140 574
140 582
140 583
140 584
140 585
140 586
140 587
140 588
141 0
141 1
141 2
141 3
141 5
141 19
141 20
141 21
141 22
141 25
141 55
141 56
141 57
141 58
141 59
141 60
141 61
141 62
141 63
141 64
141 65
141 66
141 67
141 68
141 69
141 70
141 71
141 72
141 73
141 75
141 76
141 77
141 78
141 79
141 80
141 81
141 82
141 83
141 84
141 85
141 86
141 87
141 88
141 90
141 91
141 92
141 96
141 105
141 112
141 118
141 125
141 128
141 129
141 140
141 141
141 142
141 144
141 150
141 155
141 159
141 176
141 177
141 179
141 180
141 181
141 182
141 183
141 190
141 194
141 195
141 197
141 199
141 204
141 212
141 214
141 220
141 221
141 222
141 233
141 234
141 235
141 238
141 239
141 240
141 241
141 242
141 249
141 253
141 254
141 265
141 280
141 291
141 293
141 296
141 310
141 321
141 326
141 329
141 333
141 334
141 335
141 338
141 347
141 348
141 356
141 362
141 373
141 380
141 382
141 385
141 386
141 388
141 403
141 407
141 411
141 414
141 415
141 417
141 418
141 428
141 446
141 453
141 473
141 503
141 505
141 511
142 0
142 1
142 2
142 3
142 4
142 5
142 6
142 7
142 8
142 11
142 12
142 18
142 19
142 20
142 21
142 22
142 23
142 24
142 25
142 26
142 27
142 28
142 29
142 30
142 31
142 32
142 33
142 34
142 45
142 46
142 47
142 53
142 55
142 56
142 57
142 58
142 59
142 60
142 61
142 62
142 63
142 64
142 65
142 66
142 67
142 68
142 69
142 70
142 71
142 72
142 73
142 75
142 76
142 77
142 78
142 79
142 80
142 81
142 82
142 83
142 84
142 85
142 86
142 87
142 88
142 90
142 91
142 92
142 125
142 128
142 129
142 132
142 140
142 141
142 144
142 148
142 150
142 155
142 157
142 176
142 177
142 180
142 181
142 182
142 183
142 188
142 194
142 195
142 196
142 197
142 199
142 204
142 205
142 206
142 210
142 212
142 217
142 218
142 220
142 221
142 222
142 223
142 229
142 233
142 234
142 238
142 239
142 240
142 241
142 242
142 249
142 254
142 257
142 265
142 280
142 291
142 292
142 293
142 296
142 321
142 333
142 334
142 335
142 338
142 347
142 348
142 356
142 362
142 367
142 370
142 373
142 380
142 382
142 385
142 386
142 388
142 396
142 403
142 407
142 414
142 415
142 416
142 417
142 418
142 428
142 451
142 457
142 469
142 470
142 473
142 474
142 475
142 476
142 488
142 492
142 502
142 503
142 505
142 511
142 516
142 517
142 530
142 538
142 547
142 554
142 556
142 569
142 570
142 585
142 587
142 588
143 0
143 2
143 3
143 4
143 7
143 13
143 15
143 16
143 17
143 20
143 25
143 31
143 35
143 36
143 37
143 38
143 40
143 50
143 51
143 52
143 54
143 74
143 79
143 88
143 90
143 92
143 132
143 146
143 220
143 224
143 248
143 258
143 282
143 290
143 291
143 293
143 295
143 322
143 332
143 389
143 422
143 582
144 0
144 1
144 2
144 4
144 5
144 6
144 7
144 8
144 11
144 18
144 19
144 20
144 21
144 22
144 23
144 24
144 25
144 26
144 27
144 28
144 29
144 30
144 31
144 32
144 33
144 34
144 45
144 46
144 47
144 53
144 55
144 56
144 57
144 58
144 59
144 60
144 61
144 62
144 63
144 64
144 65
144 66
144 67
144 68
144 69
144 70
144 71
144 72
144 73
144 75
144 76
144 77
144 78
144 79
144 80
144 81
144 82
144 83
144 84
144 85
144 86
144 87
144 88
144 90
144 91
144 92
144 125
144 128
144 132
144 140
144 141
144 142
144 148
144 150
144 155
144 157
144 176
144 180
144 181
144 182
144 183
144 188
144 194
144 195
144 196
144 197
144 199
144 204
144 205
144 206
144 210
144 212
144 215
144 217
144 218
144 220
144 221
144 222
144 223
144 226
144 229
144 233
144 234
144 238
144 239
144 240
144 241
144 242
144 249
144 254
144 257
144 265
144 280
144 289
144 291
144 292
144 293
144 296
144 321
144 333
144 334
144 335
144 338
144 344
144 347
144 348
144 356
144 357
144 362
144 367
144 370
144 373
144 380
144 382
144 385
144 386
144 388
144 396
144 403
144 407
144 409
144 414
144 415
144 416
144 417
144 418
144 428
144 457
144 469
144 470
144 473
144 474
144 475
144 476
144 488
144 492
144 502
144 503
144 505
144 511
144 516
144 517
144 547
144 549
144 554
144 556
144 569
144 570
144 585
144 587
144 588
145 0
145 1
145 2
145 3
145 4
145 6
145 7
145 13
145 14
145 15
145 19
145 20
145 22
145 39
145 42
145 43
145 54
145 75
145 79
145 85
145 89
145 91
145 105
145 114
145 140
145 145
145 146
145 147
145 150
145 169
145 174
145 190
145 209
145 250
145 259
145 263
145 268
145 270
145 278
145 281
145 293
145 297
145 298
145 300
145 305
145 327
145 362
145 363
145 366
145 368
145 379
145 397
145 427
145 432
145 450
145 475
145 518
145 532
145 535
145 538
145 574
145 575
145 582
145 584
146 0
146 1
146 2
146 3
146 4
146 5
146 6
146 7
146 9
146 12
146 13
146 14
146 15
146 16
146 17
146 18
146 19
146 20
146 21
146 22
146 24
146 25
146 30
146 31
146 32
146 35
146 36
146 37
146 38
146 39
146 40
146 41
146 42
146 43
146 44
146 48
146 49
146 50
146 51
146 52
146 54
146 57
146 67
146 69
146 74
146 80
146 83
146 85
146 86
146 89
146 90
146 91
146 92
146 102
146 108
146 120
146 128
146 131
146 132
146 136
146 137
146 140
146 143
146 145
146 147
146 148
146 167
146 174
146 176
146 182
146 184
146 186
146 194
146 202
146 205
146 206
146 209
146 210
146 217
146 219
146 220
146 224
146 237
146 246
146 248
146 253
146 258
146 260
146 268
146 269
146 275
146 280
146 282
146 284
146 287
146 290
146 291
146 292
146 295
146 304
146 305
146 311
146 316
146 322
146 324
146 328
146 332
146 335
146 343
146 349
146 381
146 384
146 389
146 391
146 396
146 412
146 415
146 419
146 420
146 421
146 422
146 423
146 424
146 425
146 427
146 428
146 429
146 430
146 431
146 432
146 434
146 444
146 449
146 455
146 461
146 462
146 466
146 467
146 476
146 481
146 487
146 493
146 497
146 500
146 501
146 507
146 509
146 510
146 513
146 521
146 531
146 532
146 534
146 538
146 547
146 551
146 553
146 554
146 555
146 557
146 558
146 564
146 565
146 571
146 572
146 574
146 575
146 582
146 583
146 584
146 585
146 586
146 587
146 588
147 0
147 1
147 2
147 3
147 4
147 13
147 14
147 15
147 16
147 17
147 20
147 29
147 30
147 31
147 32
147 35
147 36
147 37
147 38
147 39
147 40
147 41
147 42
147 43
147 44
147 45
147 46
147 47
147 48
147 49
147 50
147 51
147 52
147 53
147 54
147 79
147 80
147 81
147 82
147 83
147 85
147 89
147 90
147 91
147 92
147 102
147 136
147 145
147 146
147 150
147 166
147 198
147 207
147 209
147 237
147 258
147 259
147 260
147 269
147 277
147 295
147 298
147 300
147 327
147 332
147 341
147 343
147 353
147 389
147 411
147 422
147 424
147 444
147 449
147 453
147 454
147 467
147 487
147 489
147 493
147 510
147 518
147 531
147 535
147 550
147 565
147 574
147 575
147 583
148 0
148 1
148 2
148 3
148 4
148 5
148 6
148 13
148 14
148 15
148 16
148 19
148 20
148 21
148 22
148 24
148 25
148 26
148 30
148 31
148 32
148 35
148 36
148 37
148 38
148 44
148 50
148 54
148 55
148 56
148 57
148 58
148 59
148 60
148 61
148 62
148 63
148 64
148 65
148 66
148 67
148 68
148 69
148 70
148 71
148 72
148 73
148 74
148 75
148 76
148 77
148 78
148 79
148 80
148 81
148 82
148 83
148 84
148 85
148 86
148 87
148 88
148 90
148 91
148 92
148 93
148 125
148 128
148 132
148 137
148 140
148 142
148 144
148 146
148 150
148 155
148 169
148 172
148 176
148 180
148 181
148 182
148 183
148 190
148 194
148 195
148 197
148 198
148 202
148 203
148 204
148 212
148 217
148 220
148 221
148 222
148 233
148 234
148 237
148 238
148 239
148 240
148 241
148 242
148 246
148 248
148 249
148 254
148 260
148 265
148 271
148 280
148 283
148 290
148 291
148 293
148 295
148 313
148 316
148 320
148 321
148 332
148 333
148 334
148 335
148 338
148 347
148 348
148 356
148 362
148 371
148 372
148 373
148 374
148 380
148 382
148 385
148 386
148 388
148 395
148 403
148 406
148 407
148 414
148 415
148 417
148 418
148 424
148 428
148 439
148 445
148 464
148 481
148 496
148 502
148 505
148 511
148 527
148 532
148 537
148 538
148 539
148 541
148 542
148 543
148 545
148 555
148 556
148 558
149 0
149 1
149 2
149 3
149 4
149 5
149 6
149 14
149 15
149 19
149 25
149 31
149 38
149 39
149 41
149 43
149 47
149 73
149 96
149 105
149 109
149 111
149 119
149 123
149 133
149 150
149 158
149 161
149 165
149 170
149 176
149 192
149 199
149 215
149 216
149 248
149 251
149 290
149 304
149 310
149 316
149 326
149 327
149 329
149 330
149 340
149 342
149 346
149 355
149 358
149 361
149 363
149 364
149 390
149 391
149 395
149 398
149 400
149 402
149 422
149 511
149 538
149 575
149 582
149 583
149 588
150 0
150 1
150 2
150 3
150 4
150 5
150 7
150 8
150 11
150 14
150 15
150 18
150 19
150 20
150 21
150 22
150 23
150 24
150 25
150 26
150 27
150 28
150 29
150 30
150 31
150 32
150 33
150 34
150 38
150 45
150 46
150 47
150 53
150 55
150 56
150 57
150 58
150 59
150 60
150 61
150 62
150 63
150 64
150 65
150 66
150 67
150 68
150 69
150 70
150 71
150 72
150 73
150 74
150 75
150 76
150 77
150 78
150 79
150 80
150 81
150 82
150 83
150 84
150 85
150 86
150 87
150 88
150 90
150 91
150 92
150 125
150 128
150 132
150 140
150 141
150 142
150 144
150 145
150 147
150 148
150 149
150 152
150 155
150 157
150 165
150 174
150 176
150 180
150 181
150 182
150 183
150 186
150 188
150 190
150 194
150 195
150 196
150 197
150 199
150 204
150 205
150 206
150 212
150 217
150 218
150 220
150 221
150 222
150 223
150 229
150 233
150 234
150 235
150 238
150 239
150 240
150 241
150 242
150 249
150 254
150 257
150 265
150 280
150 291
150 292
150 293
150 297
150 298
150 321
150 333
150 334
150 335
150 338
150 345
150 347
150 348
150 356
150 362
150 372
150 373
150 380
150 382
150 385
150 386
150 388
150 396
150 403
150 407
150 414
150 415
150 417
150 418
150 419
150 424
150 425
150 426
150 428
150 432
150 434
150 453
150 457
150 462
150 469
150 470
150 473
150 476
150 481
150 488
150 492
150 503
150 505
150 507
150 511
150 514
150 516
150 517
150 547
150 554
150 556
150 569
150 570
150 583
150 584
150 585
150 587
150 588
151 0
151 1
151 2
151 3
151 4
151 5
151 6
151 10
151 22
151 24
151 26
151 54
151 60
151 77
151 84
151 87
151 92
151 125
151 140
151 184
151 185
151 189
151 195
151 211
151 228
151 239
151 254
151 289
151 291
151 318
151 319
151 320
151 323
151 336
151 337
151 424
151 450
151 521
151 537
151 541
151 546
151 560
152 0
152 1
152 2
152 3
152 4
152 5
152 6
152 7
152 15
152 37
152 38
152 39
152 42
152 43
152 52
152 57
152 71
152 86
152 89
152 90
152 91
152 92
152 101
152 102
152 112
152 124
152 126
152 132
152 136
152 140
152 150
152 160
152 167
152 172
152 174
152 178
152 190
152 266
152 271
152 273
152 282
152 286
152 313
152 378
152 394
152 419
152 424
152 427
152 438
152 439
152 471
152 502
152 514
152 518
152 522
152 569
152 583
153 0
153 1
153 2
153 101
153 107
153 127
153 153
153 166
153 173
154 0
154 1
154 2
154 3
154 4
154 5
154 6
154 16
154 19
154 20
154 21
154 22
154 50
154 71
154 73
154 76
154 77
154 86
154 87
154 88
154 89
154 90
154 91
154 97
154 128
154 154
154 163
154 174
154 176
154 183
154 185
154 189
154 191
154 194
154 195
154 203
154 204
154 205
154 206
154 214
154 228
154 231
154 236
154 241
154 242
154 256
154 270
154 272
154 334
154 336
154 338
154 344
154 345
154 348
154 362
154 407
154 441
154 480
154 486
154 509
154 530
154 537
154 542
154 555
154 557
154 563
155 0
155 1
155 2
155 3
155 4
155 5
155 7
155 8
155 11
155 12
155 13
155 14
155 15
155 16
155 18
155 19
155 20
155 21
155 22
155 23
155 24
155 25
155 26
155 27
155 28
155 29
155 30
155 31
155 32
155 33
155 34
155 35
155 36
155 37
155 38
155 41
155 45
155 46
155 47
155 48
155 50
155 53
155 55
155 56
155 57
155 58
155 59
155 60
155 61
155 62
155 63
155 64
155 65
155 66
155 67
155 68
155 69
155 70
155 71
155 72
155 73
155 74
155 75
155 76
155 77
155 78
155 79
155 80
155 81
155 82
155 83
155 84
155 85
155 86
155 87
155 88
155 90
155 91
155 92
155 110
155 125
155 128
155 132
155 140
155 141
155 142
155 144
155 148
155 150
155 157
155 176
155 180
155 181
155 182
155 183
155 187
155 188
155 194
155 195
155 196
155 197
155 199
155 204
155 205
155 206
155 212
155 213
155 217
155 220
155 221
155 222
155 223
155 229
155 233
155 234
155 238
155 239
155 240
155 241
155 242
155 249
155 254
155 255
155 257
155 265
155 280
155 291
155 292
155 293
155 321
155 333
155 334
155 335
155 338
155 347
155 348
155 350
155 356
155 362
155 370
155 371
155 372
155 373
155 374
155 380
155 382
155 385
155 386
155 388
155 396
155 403
155 407
155 414
155 415
155 417
155 418
155 428
155 452
155 457
155 459
155 469
155 470
155 472
155 473
155 475
155 476
155 480
155 483
155 488
155 492
155 502
155 503
155 505
155 510
155 511
155 516
155 517
155 547
155 553
155 554
155 556
155 558
155 563
155 569
155 570
155 585
155 587
155 588
156 0
156 1
156 2
156 51
156 74
156 88
156 92
156 95
156 103
156 104
156 110
156 111
156 116
156 118
156 122
156 156
156 174
156 190
156 200
156 281
156 301
156 576
157 0
157 1
157 2
157 3
157 4
157 5
157 11
157 14
157 15
157 16
157 18
157 19
157 20
157 21
157 22
157 23
157 24
157 25
157 31
157 32
157 36
157 41
157 49
157 50
157 51
157 53
157 54
157 55
157 56
157 57
157 58
157 59
157 60
157 61
157 62
157 63
157 64
157 65
157 66
157 67
157 68
157 69
157 70
157 71
157 72
157 73
157 75
157 76
157 77
157 78
157 79
157 80
157 81
157 82
157 83
157 84
157 85
157 86
157 87
157 88
157 89
157 90
157 91
157 92
157 118
157 125
157 128
157 132
157 140
157 142
157 144
157 150
157 155
157 176
157 180
157 181
157 182
157 183
157 194
157 195
157 197
157 199
157 204
157 205
157 212
157 220
157 221
157 222
157 224
157 229
157 230
157 233
157 238
157 239
157 240
157 241
157 242
157 249
157 254
157 265
157 280
157 291
157 293
157 296
157 321
157 333
157 334
157 335
157 338
157 347
157 348
157 356
157 362
157 373
157 380
157 382
157 385
157 386
157 388
157 403
157 407
157 409
157 414
157 415
157 417
157 418
157 428
157 452
157 467
157 469
157 473
157 478
157 479
157 501
157 505
157 511
157 547
157 548
158 1
158 3
158 4
158 5
158 6
158 15
158 25
158 39
158 41
158 43
158 74
158 76
158 84
158 86
158 89
158 92
158 109
158 120
158 123
158 149
158 161
158 165
158 170
158 174
158 176
158 199
158 216
158 249
158 310
158 330
158 334
158 338
158 342
158 364
158 382
158 414
158 441
158 442
158 537
158 575
158 582
159 0
159 1
159 2
159 110
159 118
159 119
159 129
159 141
159 159
159 190
159 195
159 215
159 266
159 267
159 272
159 301
159 361
159 386
159 530
159 581
160 0
160 1
160 101
160 105
160 152
160 160
160 232
161 0
161 1
161 2
161 3
161 4
161 5
161 6
161 25
161 39
161 100
161 109
161 111
161 123
161 149
161 158
161 165
161 170
161 199
161 216
161 316
161 330
161 342
161 363
161 364
161 402
161 582
162 0
162 1
162 2
162 3
162 105
162 107
162 164
162 174
162 190
162 200
162 273
163 0
163 1
163 2
163 4
163 22
163 25
163 91
163 92
163 154
163 174
163 195
163 217
163 241
163 242
163 483
163 530
163 557
163 563
164 1
164 107
164 162
165 0
165 1
165 2
165 3
165 4
165 5
165 6
165 25
165 39
165 51
165 74
165 79
165 96
165 100
165 109
165 119
165 123
165 133
165 149
165 150
165 158
165 161
165 170
165 199
165 210
165 216
165 304
165 316
165 326
165 327
165 330
165 342
165 346
165 358
165 361
165 363
165 364
165 390
165 395
165 402
165 422
165 582
165 583
166 0
166 1
166 2
166 4
166 14
166 18
166 19
166 20
166 37
166 42
166 43
166 44
166 48
166 49
166 50
166 54
166 56
166 59
166 89
166 91
166 103
166 104
166 107
166 127
166 147
166 153
166 166
166 174
166 182
166 207
166 255
166 269
166 281
166 293
166 319
166 388
166 394
166 469
166 520
166 557
166 563
166 575
167 0
167 1
167 2
167 3
167 4
167 5
167 6
167 7
167 10
167 19
167 20
167 22
167 58
167 60
167 61
167 73
167 74
167 75
167 90
167 91
167 93
167 102
167 105
167 108
167 109
167 110
167 112
167 136
167 140
167 146
167 152
167 174
167 194
167 195
167 197
167 212
167 217
167 219
167 223
167 224
167 240
167 248
167 250
167 271
167 275
167 280
167 281
167 283
167 290
167 292
167 294
167 296
167 304
167 323
167 348
167 351
167 377
167 378
167 414
167 421
167 427
167 429
167 436
167 438
167 439
167 440
167 441
167 442
167 461
167 462
167 514
167 522
167 544
167 551
167 560
167 583
167 584
168 0
168 1
168 2
168 3
168 4
168 6
168 91
168 105
168 118
168 211
168 232
168 320
168 338
168 393
168 395
168 481
168 560
169 0
169 1
169 2
169 3
169 4
169 6
169 21
169 22
169 54
169 63
169 74
169 75
169 78
169 85
169 89
169 122
169 137
169 145
169 148
169 169
169 185
169 189
169 190
169 203
169 205
169 207
169 217
169 223
169 234
169 289
169 302
169 336
169 344
169 350
169 362
169 381
169 393
169 395
169 396
169 397
169 422
169 424
169 462
169 464
169 552
169 559
169 585
170 0
170 1
170 2
170 3
170 4
170 5
170 6
170 20
170 25
170 39
170 87
170 109
170 123
170 149
170 158
170 161
170 165
170 174
170 190
170 192
170 199
170 215
170 217
170 310
170 316
170 326
170 329
170 330
170 331
170 336
170 342
170 357
170 364
170 391
170 398
170 400
170 401
170 403
170 410
170 483
171 1
171 2
171 11
171 16
171 19
171 20
171 21
171 22
171 31
171 50
171 53
171 55
171 58
171 61
171 64
171 72
171 75
171 76
171 87
171 88
171 89
171 91
171 180
171 181
171 183
171 188
171 207
171 249
171 255
171 310
171 373
171 434
171 452
171 492
171 502
171 524
171 562
172 0
172 1
172 2
172 3
172 4
172 7
172 21
172 74
172 92
172 93
172 96
172 112
172 124
172 140
172 148
172 152
172 178
172 217
172 271
172 273
172 283
172 378
172 394
172 427
172 438
172 439
172 471
172 514
172 542
172 543
173 0
173 1
173 2
173 98
173 104
173 105
173 107
173 153
173 200
174 0
174 1
174 2
174 3
174 4
174 5
174 6
174 19
174 20
174 49
174 52
174 56
174 57
174 58
174 60
174 74
174 76
174 86
174 88
174 91
174 92
174 93
174 95
174 96
174 104
174 105
174 107
174 109
174 110
174 114
174 118
174 119
174 122
174 123
174 126
174 133
174 137
174 145
174 146
174 150
174 152
174 154
174 156
174 158
174 162
174 163
174 166
174 167
174 170
174 174
174 178
174 190
174 192
174 200
174 205
174 210
174 216
174 217
174 226
174 229
174 235
174 238
174 242
174 243
174 244
174 251
174 253
174 265
174 266
174 272
174 273
174 274
174 281
174 283
174 286
174 294
174 303
174 315
174 327
174 342
174 352
174 362
174 369
174 377
174 394
174 396
174 410
174 427
174 441
174 442
174 467
174 478
174 483
174 522
174 530
174 533
174 542
174 552
174 560
174 561
174 569
174 572
174 581
174 582
174 588
174 589
175 0
175 1
175 2
175 56
175 92
175 103
175 111
175 128
175 175
175 200
175 230
175 232
175 257
175 272
175 363
176 0
176 1
176 2
176 3
176 4
176 5
176 13
176 15
176 18
176 19
176 20
176 21
176 22
176 23
176 24
176 25
176 26
176 27
176 28
176 29
176 30
176 31
176 32
176 33
176 34
176 45
176 46
176 47
176 49
176 51
176 52
176 53
176 55
176 56
176 57
176 58
176 59
176 60
176 61
176 62
176 63
176 64
176 65
176 66
176 67
176 68
176 69
176 70
176 71
176 72
176 73
176 75
176 76
176 77
176 78
176 79
176 80
176 81
176 82
176 83
176 84
176 85
176 86
176 87
176 88
176 90
176 91
176 92
176 109
176 125
176 128
176 129
176 132
176 140
176 141
176 142
176 144
176 146
176 148
176 149
176 150
176 154
176 155
176 157
176 158
176 176
176 177
176 180
176 181
176 182
176 183
176 188
176 194
176 195
176 196
176 197
176 199
176 204
176 205
176 206
176 211
176 212
176 217
176 220
176 221
176 222
176 223
176 227
176 229
176 233
176 234
176 238
176 239
176 240
176 241
176 242
176 244
176 249
176 254
176 256
176 257
176 265
176 280
176 281
176 288
176 291
176 292
176 293
176 304
176 310
176 316
176 318
176 320
176 321
176 323
176 329
176 330
176 333
176 334
176 335
176 338
176 345
176 347
176 348
176 350
176 356
176 362
176 373
176 380
176 382
176 385
176 386
176 388
176 389
176 396
176 403
176 407
176 409
176 414
176 415
176 417
176 418
176 428
176 452
176 453
176 457
176 465
176 469
176 470
176 473
176 476
176 481
176 488
176 491
176 492
176 495
176 503
176 505
176 511
176 516
176 517
176 519
176 526
176 538
176 542
176 547
176 548
176 550
176 554
176 556
176 560
176 561
176 569
176 570
176 583
176 585
176 587
176 588
177 0
177 1
177 3
177 19
177 20
177 21
177 22
177 23
177 26
177 64
177 68
177 72
177 86
177 87
177 89
177 91
177 98
177 129
177 139
177 141
177 142
177 176
177 180
177 183
177 239
177 294
177 296
177 321
177 386
177 473
177 491
177 495
177 562
177 568
178 0
178 1
178 2
178 3
178 4
178 7
178 88
178 92
178 93
178 96
178 105
178 112
178 124
178 152
178 172
178 174
178 201
178 246
178 271
178 273
178 283
178 329
178 378
178 394
178 427
178 436
178 438
178 439
178 443
178 471
178 514
178 542
178 543
178 566
179 0
179 1
179 2
179 3
179 5
179 107
179 112
179 118
179 119
179 141
179 179
179 201
179 214
179 215
179 243
179 244
179 262
179 267
179 272
179 279
179 303
179 305
179 329
179 339
179 410
180 0
180 1
180 2
180 3
180 4
180 14
180 18
180 19
180 20
180 21
180 22
180 23
180 24
180 25
180 26
180 27
180 28
180 29
180 30
180 31
180 32
180 33
180 34
180 36
180 45
180 46
180 47
180 50
180 53
180 55
180 56
180 57
180 58
180 59
180 60
180 61
180 62
180 63
180 64
180 65
180 66
180 67
180 68
180 69
180 70
180 71
180 72
180 73
180 74
180 75
180 76
180 77
180 78
180 79
180 80
180 81
180 82
180 83
180 84
180 85
180 86
180 87
180 88
180 89
180 90
180 91
180 92
180 125
180 128
180 132
180 140
180 141
180 142
180 144
180 148
180 150
180 155
180 157
180 171
180 176
180 177
180 181
180 182
180 183
180 188
180 194
180 195
180 196
180 197
180 199
180 204
180 205
180 206
180 212
180 217
180 220
180 221
180 222
180 223
180 229
180 233
180 234
180 238
180 239
180 240
180 241
180 242
180 249
180 251
180 254
180 256
180 257
180 265
180 280
180 291
180 292
180 293
180 301
180 321
180 333
180 334
180 335
180 338
180 347
180 348
180 356
180 362
180 373
180 380
180 382
180 385
180 386
180 388
180 396
180 403
180 405
180 407
180 414
180 415
180 417
180 418
180 428
180 447
180 452
180 457
180 458
180 459
180 465
180 469
180 470
180 473
180 476
180 478
180 480
180 488
180 491
180 492
180 495
180 498
180 503
180 505
180 511
180 516
180 517
180 542
180 547
180 554
180 556
180 563
180 569
180 570
180 574
180 585
180 587
180 588
181 0
181 1
181 2
181 3
181 4
181 5
181 6
181 7
181 8
181 10
181 18
181 19
181 20
181 21
181 22
181 23
181 24
181 25
181 26
181 27
181 28
181 29
181 30
181 31
181 32
181 33
181 34
181 45
181 46
181 47
181 50
181 53
181 56
181 57
181 58
181 59
181 60
181 61
181 62
181 63
181 64
181 65
181 66
181 67
181 68
181 69
181 70
181 71
181 72
181 73
181 75
181 76
181 77
181 78
181 79
181 80
181 81
181 82
181 83
181 84
181 85
181 86
181 87
181 88
181 89
181 90
181 91
181 92
181 96
181 118
181 125
181 128
181 132
181 137
181 140
181 141
181 142
181 144
181 148
181 150
181 155
181 157
181 171
181 176
181 180
181 182
181 183
181 187
181 188
181 191
181 194
181 195
181 196
181 197
181 199
181 204
181 205
181 206
181 210
181 217
181 218
181 220
181 221
181 222
181 223
181 227
181 229
181 230
181 233
181 234
181 238
181 239
181 240
181 241
181 242
181 249
181 251
181 254
181 255
181 257
181 265
181 280
181 281
181 288
181 291
181 292
181 293
181 316
181 321
181 333
181 334
181 335
181 338
181 347
181 348
181 356
181 362
181 367
181 368
181 369
181 370
181 371
181 372
181 373
181 374
181 375
181 380
181 382
181 383
181 385
181 386
181 387
181 388
181 396
181 403
181 406
181 407
181 413
181 414
181 415
181 416
181 417
181 418
181 424
181 428
181 430
181 432
181 434
181 445
181 457
181 460
181 464
181 469
181 470
181 472
181 473
181 474
181 475
181 476
181 483
181 488
181 492
181 496
181 501
181 502
181 503
181 505
181 511
181 516
181 517
181 526
181 538
181 539
181 547
181 554
181 556
181 557
181 561
181 563
181 569
181 570
181 584
181 585
181 587
181 588
182 0
182 1
182 2
182 4
182 15
182 17
182 18
182 19
182 20
182 21
182 22
182 23
182 24
182 25
182 26
182 27
182 28
182 29
182 30
182 31
182 32
182 33
182 34
182 35
182 44
182 45
182 46
182 47
182 48
182 52
182 53
182 55
182 56
182 57
182 58
182 59
182 60
182 61
182 62
182 63
182 64
182 65
182 66
182 67
182 68
182 69
182 70
182 71
182 72
182 73
182 75
182 76
182 77
182 78
182 79
182 80
182 81
182 82
182 83
182 84
182 85
182 86
182 87
182 88
182 89
182 90
182 91
182 92
182 125
182 128
182 132
182 139
182 140
182 141
182 142
182 144
182 146
182 148
182 150
182 155
182 157
182 166
182 176
182 180
182 181
182 183
182 188
182 194
182 195
182 196
182 197
182 199
182 204
182 205
182 206
182 212
182 217
182 220
182 221
182 222
182 223
182 229
182 233
182 234
182 238
182 239
182 240
182 241
182 242
182 248
182 249
182 254
182 257
182 265
182 280
182 290
182 291
182 292
182 293
182 321
182 333
182 334
182 335
182 338
182 347
182 348
182 356
182 362
182 373
182 380
182 382
182 385
182 386
182 388
182 396
182 403
182 407
182 414
182 415
182 417
182 418
182 428
182 457
182 469
182 470
182 473
182 476
182 483
182 488
182 492
182 503
182 505
182 507
182 511
182 512
182 516
182 517
182 522
182 530
182 547
182 554
182 556
182 557
182 563
182 569
182 570
182 585
182 587
182 588
183 0
183 1
183 2
183 3
183 4
183 5
183 18
183 19
183 20
183 21
183 22
183 23
183 24
183 25
183 26
183 27
183 28
183 29
183 30
183 31
183 32
183 33
183 34
183 45
183 46
183 47
183 52
183 53
183 55
183 56
183 57
183 58
183 59
183 60
183 61
183 62
183 63
183 64
183 65
183 66
183 67
183 68
183 69
183 70
183 71
183 72
183 73
183 75
183 76
183 77
183 78
183 79
183 80
183 81
183 82
183 83
183 84
183 85
183 86
183 87
183 88
183 89
183 90
183 91
183 92
183 118
183 120
183 125
183 128
183 132
183 140
183 141
183 142
183 144
183 148
183 150
183 154
183 155
183 157
183 171
183 176
183 177
183 180
183 181
183 182
183 188
183 194
183 195
183 196
183 197
183 199
183 204
183 205
183 206
183 212
183 217
183 220
183 221
183 222
183 223
183 224
183 229
183 233
183 234
183 238
183 239
183 240
183 241
183 242
183 249
183 254
183 255
183 257
183 265
183 280
183 291
183 292
183 293
183 296
183 321
183 333
183 334
183 335
183 338
183 347
183 348
183 356
183 362
183 373
183 380
183 382
183 385
183 386
183 387
183 388
183 396
183 403
183 405
183 407
183 414
183 415
183 417
183 418
183 428
183 433
183 452
183 457
183 469
183 470
183 473
183 476
183 479
183 480
183 481
183 484
183 486
183 488
183 491
183 492
183 495
183 498
183 503
183 505
183 511
183 516
183 517
183 521
183 542
183 547
183 549
183 554
183 556
183 562
183 563
183 569
183 570
183 585
183 587
183 588
184 0
184 1
184 2
184 3
184 4
184 5
184 6
184 20
184 21
184 24
184 32
184 33
184 43
184 74
184 75
184 77
184 85
184 92
184 114
184 132
184 146
184 151
184 203
184 211
184 217
184 228
184 241
184 248
184 284
184 289
184 290
184 318
184 319
184 320
184 323
184 379
184 384
184 405
184 450
184 511
184 575
185 0
185 1
185 2
185 3
185 4
185 10
185 12
185 57
185 77
185 84
185 87
185 125
185 151
185 154
185 169
185 187
185 191
185 195
185 211
185 219
185 228
185 233
185 235
185 239
185 246
185 263
185 289
185 299
185 318
185 319
185 320
185 323
185 327
185 336
185 337
185 338
185 344
185 346
185 351
185 369
185 376
185 379
185 405
185 407
185 441
185 465
185 528
185 529
185 537
185 539
185 541
185 546
185 555
185 560
186 0
186 1
186 2
186 3
186 4
186 8
186 9
186 13
186 14
186 15
186 16
186 19
186 20
186 21
186 22
186 35
186 43
186 48
186 50
186 56
186 64
186 67
186 73
186 75
186 78
186 82
186 86
186 89
186 90
186 91
186 92
186 131
186 132
186 136
186 140
186 146
186 150
186 197
186 203
186 206
186 210
186 218
186 219
186 220
186 229
186 240
186 257
186 259
186 263
186 284
186 304
186 328
186 387
186 389
186 396
186 419
186 420
186 421
186 422
186 423
186 424
186 425
186 426
186 427
186 428
186 429
186 430
186 431
186 432
186 433
186 449
186 453
186 461
186 467
186 503
186 504
186 509
186 534
186 553
186 563
186 574
186 575
186 583
186 584
186 585
186 586
186 587
186 588
187 0
187 1
187 2
187 3
187 4
187 5
187 6
187 7
187 8
187 10
187 11
187 16
187 18
187 19
187 20
187 21
187 22
187 24
187 25
187 28
187 48
187 49
187 58
187 61
187 74
187 76
187 79
187 84
187 88
187 89
187 91
187 92
187 128
187 132
187 155
187 181
187 185
187 188
187 189
187 194
187 207
187 211
187 213
187 218
187 233
187 234
187 238
187 258
187 285
187 321
187 322
187 327
187 338
187 356
187 363
187 370
187 380
187 382
187 385
187 397
187 403
187 405
187 418
187 456
187 464
187 496
187 499
187 512
187 539
187 544
187 567
187 574
188 1
188 2
188 3
188 4
188 19
188 22
188 25
188 33
188 34
188 50
188 53
188 55
188 56
188 57
188 58
188 59
188 60
188 61
188 62
188 63
188 64
188 65
188 66
188 67
188 68
188 69
188 70
188 71
188 72
188 73
188 74
188 75
188 76
188 77
188 78
188 79
188 80
188 81
188 82
188 83
188 84
188 85
188 86
188 87
188 88
188 89
188 90
188 91
188 92
188 125
188 128
188 140
188 142
188 144
188 150
188 155
188 171
188 176
188 180
188 181
188 182
188 183
188 187
188 194
188 195
188 197
188 204
188 212
188 213
188 218
188 220
188 221
188 222
188 223
188 227
188 233
188 238
188 239
188 240
188 241
188 242
188 249
188 254
188 265
188 280
188 281
188 288
188 291
188 293
188 321
188 327
188 333
188 334
188 335
188 338
188 347
188 348
188 356
188 362
188 367
188 368
188 369
188 370
188 371
188 372
188 373
188 374
188 375
188 380
188 382
188 385
188 386
188 388
188 403
188 407
188 413
188 414
188 415
188 416
188 417
188 418
188 428
188 483
188 490
188 502
188 505
188 511
188 517
188 519
188 520
188 539
188 558
188 561
189 0
189 1
189 2
189 3
189 4
189 5
189 6
189 10
189 12
189 22
189 24
189 26
189 57
189 60
189 77
189 84
189 87
189 125
189 151
189 154
189 169
189 187
189 191
189 195
189 211
189 219
189 228
189 233
189 235
189 239
189 246
189 263
189 289
189 299
189 318
189 319
189 320
189 323
189 327
189 336
189 337
189 338
189 344
189 346
189 351
189 369
189 376
189 379
189 405
189 407
189 441
189 465
189 528
189 529
189 537
189 539
189 541
189 546
189 555
189 560
190 0
190 1
190 2
190 3
190 4
190 6
190 19
190 20
190 22
190 25
190 51
190 59
190 74
190 75
190 76
190 77
190 84
190 86
190 88
190 89
190 90
190 91
190 92
190 95
190 97
190 98
190 99
190 101
190 102
190 103
190 105
190 107
190 109
190 111
190 112
190 113
190 116
190 118
190 119
190 120
190 123
190 124
190 127
190 133
190 141
190 145
190 148
190 150
190 152
190 156
190 159
190 162
190 169
190 170
190 174
190 190
190 192
190 198
190 199
190 200
190 203
190 204
190 208
190 214
190 215
190 216
190 217
190 230
190 231
190 232
190 235
190 238
190 243
190 245
190 246
190 248
190 262
190 266
190 267
190 268
190 270
190 273
190 275
190 276
190 279
190 281
190 282
190 289
190 298
190 306
190 309
190 312
190 342
190 358
190 391
190 394
190 395
190 410
190 441
190 483
190 511
190 515
190 518
190 522
190 525
190 538
190 577
191 0
191 1
191 2
191 3
191 4
191 5
191 37
191 57
191 58
191 59
191 67
191 75
191 84
191 87
191 89
191 154
191 181
191 185
191 189
191 201
191 218
191 239
191 251
191 319
191 379
191 425
191 428
191 432
191 439
191 465
191 473
191 542
191 552
191 560
191 584
191 587
192 0
192 1
192 2
192 3
192 4
192 5
192 6
192 87
192 109
192 123
192 133
192 149
192 170
192 174
192 190
192 215
192 310
192 330
192 355
192 391
192 401
192 409
192 410
193 0
193 1
193 2
193 22
193 107
193 110
193 111
193 193
193 200
193 223
193 309
193 547
194 0
194 1
194 2
194 3
194 4
194 5
194 6
194 8
194 11
194 18
194 19
194 20
194 21
194 22
194 23
194 24
194 25
194 26
194 27
194 28
194 29
194 30
194 31
194 32
194 33
194 34
194 36
194 45
194 46
194 47
194 53
194 55
194 56
194 57
194 58
194 59
194 60
194 61
194 62
194 63
194 64
194 65
194 66
194 67
194 68
194 69
194 70
194 71
194 72
194 73
194 75
194 76
194 77
194 78
194 79
194 80
194 81
194 82
194 83
194 84
194 85
194 86
194 87
194 88
194 89
194 90
194 91
194 92
194 96
194 108
194 125
194 128
194 132
194 137
194 140
194 141
194 142
194 144
194 146
194 148
194 150
194 154
194 155
194 157
194 167
194 176
194 180
194 181
194 182
194 183
194 187
194 188
194 194
194 195
194 196
194 197
194 199
194 204
194 205
194 206
194 212
194 217
194 220
194 221
194 222
194 223
194 229
194 233
194 234
194 238
194 239
194 240
194 241
194 242
194 249
194 254
194 257
194 260
194 265
194 280
194 291
194 292
194 293
194 321
194 333
194 334
194 335
194 338
194 347
194 348
194 356
194 362
194 370
194 373
194 380
194 382
194 385
194 386
194 388
194 396
194 403
194 407
194 414
194 415
194 417
194 418
194 428
194 452
194 453
194 457
194 459
194 469
194 470
194 473
194 476
194 483
194 488
194 492
194 503
194 505
194 511
194 516
194 517
194 524
194 538
194 542
194 547
194 552
194 554
194 556
194 569
194 570
194 585
194 587
194 588
195 0
195 1
195 2
195 3
195 4
195 5
195 6
195 10
195 18
195 19
195 20
195 21
195 22
195 23
195 24
195 25
195 26
195 27
195 28
195 29
195 30
195 31
195 32
195 33
195 34
195 35
195 45
195 46
195 47
195 53
195 55
195 56
195 57
195 58
195 59
195 60
195 61
195 62
195 63
195 64
195 65
195 66
195 67
195 68
195 69
195 70
195 71
195 72
195 73
195 75
195 76
195 77
195 78
195 79
195 80
195 81
195 82
195 83
195 84
195 85
195 86
195 87
195 88
195 90
195 91
195 92
195 112
195 118
195 125
195 128
195 132
195 137
195 140
195 141
195 142
195 144
195 148
195 150
195 151
195 154
195 155
195 157
195 159
195 163
195 167
195 176
195 180
195 181
195 182
195 183
195 185
195 188
195 189
195 194
195 196
195 197
195 199
195 202
195 204
195 205
195 206
195 211
195 212
195 217
195 220
195 221
195 222
195 223
195 228
195 229
195 233
195 234
195 236
195 238
195 239
195 240
195 241
195 242
195 245
195 249
195 254
195 257
195 262
195 265
195 267
195 280
195 284
195 286
195 289
195 291
195 292
195 293
195 299
195 301
195 305
195 308
195 318
195 319
195 320
195 321
195 323
195 331
195 333
195 334
195 335
195 336
195 337
195 338
195 344
195 347
195 348
195 356
195 362
195 363
195 373
195 380
195 382
195 385
195 386
195 388
195 396
195 403
195 407
195 414
195 415
195 417
195 418
195 428
195 457
195 465
195 469
195 470
195 473
195 476
195 483
195 488
195 492
195 503
195 505
195 508
195 511
195 516
195 517
195 528
195 537
195 542
195 546
195 547
195 554
195 556
195 560
195 569
195 570
195 582
195 585
195 587
195 588
196 1
196 2
196 3
196 12
196 18
196 23
196 27
196 28
196 33
196 52
196 55
196 56
196 57
196 58
196 59
196 60
196 61
196 62
196 63
196 64
196 65
196 66
196 67
196 68
196 69
196 70
196 71
196 72
196 73
196 75
196 76
196 77
196 78
196 79
196 80
196 81
196 82
196 83
196 84
196 85
196 86
196 87
196 88
196 90
196 91
196 92
196 114
196 125
196 128
196 132
196 140
196 142
196 144
196 150
196 155
196 176
196 180
196 181
196 182
196 183
196 194
196 195
196 197
196 204
196 212
196 220
196 221
196 222
196 229
196 233
196 238
196 239
196 240
196 241
196 242
196 249
196 254
196 265
196 280
196 291
196 293
196 296
196 321
196 333
196 334
196 335
196 338
196 347
196 348
196 356
196 362
196 373
196 380
196 382
196 385
196 386
196 388
196 403
196 407
196 414
196 415
196 416
196 417
196 418
196 428
196 452
196 474
196 475
196 479
196 505
196 511
196 542
197 0
197 1
197 2
197 3
197 4
197 6
197 9
197 11
197 18
197 19
197 20
197 21
197 22
197 23
197 24
197 25
197 26
197 27
197 28
197 29
197 30
197 31
197 32
197 33
197 34
197 43
197 45
197 46
197 47
197 49
197 53
197 55
197 56
197 57
197 58
197 59
197 60
197 61
197 62
197 63
197 64
197 65
197 66
197 67
197 68
197 69
197 70
197 71
197 72
197 73
197 74
197 75
197 76
197 77
197 78
197 79
197 80
197 81
197 82
197 83
197 84
197 85
197 86
197 87
197 88
197 90
197 91
197 92
197 102
197 125
197 128
197 131
197 132
197 136
197 140
197 141
197 142
197 144
197 148
197 150
197 155
197 157
197 167
197 176
197 180
197 181
197 182
197 183
197 186
197 188
197 194
197 195
197 196
197 199
197 204
197 205
197 206
197 210
197 212
197 217
197 219
197 220
197 221
197 222
197 223
197 229
197 233
197 234
197 238
197 239
197 240
197 241
197 242
197 246
197 248
197 249
197 250
197 254
197 257
197 265
197 280
197 290
197 291
197 292
197 293
197 297
197 298
197 304
197 321
197 328
197 333
197 334
197 335
197 338
197 346
197 347
197 348
197 356
197 362
197 373
197 379
197 380
197 382
197 385
197 386
197 387
197 388
197 396
197 403
197 407
197 414
197 415
197 417
197 418
197 419
197 420
197 421
197 422
197 424
197 425
197 428
197 429
197 431
197 432
197 434
197 452
197 453
197 455
197 457
197 461
197 462
197 469
197 470
197 473
197 476
197 481
197 488
197 492
197 503
197 505
197 511
197 516
197 517
197 534
197 538
197 542
197 547
197 554
197 556
197 569
197 570
197 575
197 583
197 584
197 585
197 586
197 587
197 588
198 0
198 1
198 2
198 3
198 6
198 97
198 101
198 105
198 113
198 137
198 139
198 147
198 148
198 190
198 198
198 200
198 211
198 230
198 234
198 266
198 293
198 297
198 589
199 0
199 1
199 2
199 3
199 4
199 5
199 6
199 12
199 13
199 14
199 15
199 18
199 19
199 20
199 21
199 22
199 23
199 24
199 25
199 27
199 28
199 31
199 33
199 36
199 37
199 39
199 41
199 43
199 53
199 55
199 56
199 57
199 58
199 59
199 60
199 61
199 62
199 63
199 64
199 65
199 66
199 67
199 68
199 69
199 70
199 71
199 72
199 73
199 75
199 76
199 77
199 78
199 79
199 80
199 81
199 82
199 83
199 84
199 85
199 86
199 87
199 88
199 89
199 90
199 91
199 92
199 109
199 120
199 123
199 125
199 128
199 133
199 140
199 141
199 142
199 144
199 149
199 150
199 155
199 157
199 158
199 161
199 165
199 170
199 176
199 180
199 181
199 182
199 183
199 190
199 194
199 195
199 197
199 203
199 204
199 212
199 216
199 220
199 221
199 222
199 229
199 233
199 234
199 238
199 239
199 240
199 241
199 242
199 249
199 254
199 265
199 280
199 282
199 291
199 293
199 296
199 310
199 316
199 321
199 327
199 329
199 330
199 333
199 334
199 335
199 338
199 342
199 347
199 348
199 356
199 357
199 362
199 373
199 380
199 382
199 385
199 386
199 388
199 390
199 395
199 403
199 407
199 414
199 415
199 416
199 417
199 418
199 422
199 428
199 451
199 452
199 467
199 470
199 474
199 475
199 480
199 483
199 498
199 503
199 505
199 508
199 511
199 524
199 537
199 538
199 542
199 547
199 548
199 554
199 569
199 574
199 575
199 582
200 0
200 1
200 2
200 3
200 97
200 98
200 105
200 110
200 113
200 116
200 156
200 162
200 173
200 174
200 175
200 190
200 193
200 198
200 200
201 0
201 1
201 2
201 3
201 4
201 20
201 35
201 43
201 78
201 112
201 124
201 178
201 179
201 191
201 201
201 246
201 265
201 266
201 267
201 306
201 329
201 350
201 442
201 443
201 575
202 0
202 1
202 2
202 3
202 15
202 21
202 22
202 24
202 38
202 54
202 57
202 77
202 88
202 91
202 92
202 120
202 125
202 137
202 146
202 148
202 195
202 206
202 237
202 242
202 246
202 247
202 254
202 264
202 270
202 274
202 302
202 406
202 528
202 529
202 539
202 545
202 551
203 1
203 2
203 4
203 7
203 13
203 15
203 16
203 17
203 19
203 20
203 21
203 22
203 23
203 24
203 25
203 32
203 42
203 43
203 44
203 48
203 51
203 52
203 54
203 58
203 62
203 65
203 66
203 71
203 74
203 76
203 79
203 85
203 89
203 91
203 92
203 108
203 132
203 137
203 148
203 154
203 169
203 184
203 186
203 190
203 199
203 206
203 207
203 223
203 234
203 258
203 280
203 322
203 347
203 350
203 380
203 385
203 389
203 456
203 463
203 464
203 469
203 496
203 500
203 524
203 547
203 554
203 574
203 575
204 0
204 1
204 2
204 3
204 4
204 18
204 19
204 20
204 21
204 22
204 23
204 24
204 25
204 26
204 27
204 28
204 29
204 30
204 31
204 32
204 33
204 34
204 40
204 45
204 46
204 47
204 52
204 53
204 55
204 56
204 57
204 58
204 59
204 60
204 61
204 62
204 63
204 64
204 65
204 66
204 67
204 68
204 69
204 70
204 71
204 72
204 73
204 75
204 76
204 77
204 78
204 79
204 80
204 81
204 82
204 83
204 84
204 85
204 86
204 87
204 88
204 89
204 90
204 91
204 92
204 102
204 125
204 128
204 132
204 140
204 141
204 142
204 144
204 148
204 150
204 154
204 155
204 157
204 176
204 180
204 181
204 182
204 183
204 188
204 190
204 194
204 195
204 196
204 197
204 199
204 205
204 206
204 207
204 212
204 217
204 220
204 221
204 222
204 223
204 229
204 233
204 234
204 238
204 239
204 240
204 241
204 242
204 249
204 254
204 257
204 260
204 265
204 280
204 291
204 292
204 293
204 321
204 333
204 334
204 335
204 338
204 347
204 348
204 356
204 362
204 373
204 380
204 382
204 385
204 386
204 388
204 396
204 403
204 407
204 414
204 415
204 417
204 418
204 428
204 457
204 469
204 470
204 473
204 476
204 488
204 492
204 503
204 505
204 511
204 516
204 517
204 547
204 554
204 556
204 569
204 570
204 585
204 587
204 588
205 1
205 2
205 3
205 4
205 7
205 14
205 21
205 22
205 24
205 27
205 28
205 47
205 50
205 51
205 54
205 55
205 56
205 57
205 58
205 59
205 60
205 61
205 62
205 63
205 64
205 65
205 66
205 67
205 68
205 69
205 70
205 71
205 72
205 73
205 74
205 75
205 76
205 77
205 78
205 79
205 80
205 81
205 82
205 83
205 84
205 85
205 86
205 87
205 88
205 89
205 90
205 91
205 92
205 118
205 119
205 120
205 125
205 128
205 132
205 140
205 142
205 144
205 146
205 150
205 154
205 155
205 157
205 169
205 174
205 176
205 180
205 181
205 182
205 183
205 194
205 195
205 197
205 204
205 206
205 207
205 210
205 212
205 217
205 220
205 221
205 222
205 229
205 230
205 233
205 234
205 235
205 238
205 239
205 240
205 241
205 242
205 248
205 249
205 254
205 256
205 263
205 265
205 280
205 290
205 291
205 293
205 316
205 321
205 322
205 329
205 333
205 334
205 335
205 338
205 347
205 348
205 350
205 356
205 362
205 373
205 380
205 382
205 385
205 386
205 388
205 396
205 403
205 407
205 412
205 414
205 415
205 417
205 418
205 428
205 452
205 467
205 485
205 490
205 505
205 509
205 511
205 512
205 516
205 542
205 553
205 571
206 1
206 2
206 3
206 4
206 7
206 9
206 19
206 20
206 21
206 22
206 24
206 37
206 38
206 40
206 43
206 48
206 50
206 51
206 52
206 54
206 55
206 56
206 57
206 58
206 59
206 60
206 61
206 62
206 63
206 64
206 65
206 66
206 67
206 68
206 69
206 70
206 71
206 72
206 73
206 75
206 76
206 77
206 78
206 79
206 80
206 81
206 82
206 83
206 84
206 85
206 86
206 87
206 88
206 89
206 90
206 91
206 92
206 108
206 120
206 125
206 128
206 131
206 132
206 136
206 140
206 142
206 144
206 146
206 150
206 154
206 155
206 176
206 180
206 181
206 182
206 183
206 186
206 194
206 195
206 197
206 202
206 203
206 204
206 205
206 212
206 219
206 220
206 221
206 222
206 233
206 238
206 239
206 240
206 241
206 242
206 249
206 254
206 258
206 265
206 270
206 280
206 291
206 293
206 304
206 321
206 328
206 333
206 334
206 335
206 338
206 343
206 347
206 348
206 356
206 362
206 373
206 380
206 382
206 385
206 386
206 388
206 389
206 396
206 403
206 407
206 414
206 415
206 417
206 418
206 419
206 420
206 421
206 422
206 424
206 425
206 427
206 428
206 429
206 431
206 432
206 461
206 476
206 501
206 505
206 511
206 513
206 534
206 538
206 542
206 547
206 551
206 554
206 575
206 583
206 584
206 585
206 586
206 587
206 588
207 0
207 1
207 2
207 3
207 4
207 5
207 8
207 15
207 18
207 19
207 20
207 21
207 22
207 24
207 25
207 32
207 42
207 43
207 54
207 56
207 57
207 59
207 61
207 63
207 66
207 69
207 72
207 73
207 74
207 75
207 76
207 78
207 85
207 86
207 88
207 89
207 91
207 92
207 108
207 110
207 128
207 132
207 140
207 147
207 166
207 169
207 171
207 187
207 203
207 204
207 205
207 218
207 233
207 234
207 235
207 238
207 255
207 256
207 288
207 298
207 334
207 347
207 350
207 377
207 380
207 382
207 385
207 386
207 387
207 388
207 396
207 414
207 430
207 436
207 450
207 456
207 459
207 463
207 464
207 485
207 492
207 496
207 502
207 505
207 512
207 539
207 553
207 555
207 556
207 557
207 563
207 567
207 568
207 574
207 575
208 0
208 1
208 2
208 95
208 97
208 101
208 103
208 190
208 311
208 478
208 577
208 582
209 0
209 1
209 2
209 3
209 6
209 13
209 19
209 20
209 22
209 31
209 58
209 65
209 74
209 82
209 86
209 90
209 91
209 92
209 132
209 140
209 145
209 146
209 147
209 212
209 217
209 233
209 260
209 316
209 324
209 328
209 336
209 343
209 349
209 369
209 405
209 412
209 415
209 425
209 461
209 467
209 483
209 504
209 535
209 562
209 566
209 582
209 583
209 584
209 588
210 0
210 1
210 2
210 3
210 4
210 7
210 9
210 11
210 15
210 18
210 19
210 20
210 21
210 22
210 25
210 28
210 39
210 40
210 48
210 57
210 63
210 67
210 74
210 86
210 91
210 92
210 128
210 131
210 132
210 136
210 140
210 142
210 144
210 146
210 165
210 174
210 181
210 186
210 197
210 205
210 219
210 221
210 246
210 248
210 253
210 255
210 257
210 259
210 260
210 290
210 304
210 316
210 328
210 373
210 387
210 396
210 419
210 420
210 421
210 422
210 424
210 425
210 428
210 429
210 430
210 431
210 432
210 461
210 504
210 534
210 563
210 571
210 583
210 584
210 585
210 586
210 587
210 588
211 0
211 1
211 2
211 3
211 4
211 5
211 6
211 10
211 22
211 23
211 24
211 26
211 57
211 60
211 63
211 72
211 75
211 77
211 84
211 87
211 89
211 90
211 91
211 108
211 118
211 120
211 125
211 132
211 151
211 168
211 176
211 184
211 185
211 187
211 189
211 195
211 198
211 215
211 217
211 228
211 232
211 233
211 239
211 268
211 289
211 303
211 311
211 318
211 319
211 320
211 323
211 327
211 336
211 337
211 338
211 344
211 347
211 350
211 379
211 412
211 441
211 463
211 464
211 529
211 560
211 589
212 0
212 1
212 2
212 4
212 5
212 18
212 19
212 20
212 21
212 22
212 23
212 24
212 25
212 26
212 27
212 28
212 29
212 30
212 31
212 32
212 33
212 34
212 44
212 45
212 46
212 47
212 53
212 56
212 57
212 58
212 59
212 60
212 61
212 62
212 63
212 64
212 65
212 66
212 67
212 68
212 69
212 71
212 72
212 73
212 74
212 75
212 76
212 77
212 79
212 80
212 81
212 82
212 83
212 84
212 85
212 86
212 87
212 88
212 89
212 90
212 91
212 92
212 125
212 128
212 132
212 140
212 141
212 142
212 144
212 148
212 150
212 155
212 157
212 167
212 176
212 180
212 182
212 183
212 188
212 194
212 195
212 196
212 197
212 199
212 204
212 205
212 206
212 209
212 217
212 218
212 219
212 220
212 221
212 222
212 223
212 229
212 233
212 234
212 238
212 239
212 240
212 241
212 242
212 249
212 254
212 257
212 265
212 280
212 291
212 292
212 293
212 321
212 333
212 334
212 335
212 338
212 347
212 348
212 356
212 362
212 372
212 373
212 380
212 382
212 385
212 386
212 388
212 396
212 407
212 414
212 415
212 417
212 428
212 457
212 469
212 470
212 473
212 476
212 488
212 492
212 503
212 505
212 511
212 516
212 517
212 547
212 554
212 556
212 569
212 570
212 573
212 583
212 585
212 587
212 588
213 1
213 2
213 4
213 15
213 20
213 22
213 24
213 25
213 31
213 53
213 77
213 88
213 89
213 91
213 92
213 155
213 187
213 188
213 220
213 238
213 255
213 291
213 350
213 457
213 523
213 555
213 563
213 567
213 574
214 0
214 1
214 2
214 3
214 4
214 5
214 22
214 96
214 112
214 118
214 119
214 141
214 154
214 179
214 190
214 215
214 239
214 242
214 243
214 245
214 262
214 266
214 272
214 279
214 299
214 305
214 321
214 329
214 331
214 407
214 408
214 442
214 539
214 563
215 0
215 1
215 2
215 3
215 4
215 5
215 6
215 22
215 70
215 87
215 92
215 96
215 118
215 119
215 123
215 133
215 144
215 149
215 159
215 170
215 179
215 190
215 192
215 211
215 214
215 216
215 227
215 242
215 243
215 244
215 245
215 253
215 262
215 272
215 279
215 284
215 299
215 303
215 311
215 312
215 316
215 326
215 330
215 357
215 364
215 398
215 400
215 403
215 408
215 409
215 410
215 473
215 481
215 589
216 0
216 1
216 2
216 3
216 4
216 5
216 6
216 24
216 25
216 39
216 91
216 96
216 109
216 119
216 123
216 133
216 149
216 158
216 161
216 165
216 174
216 190
216 199
216 215
216 316
216 326
216 327
216 342
216 346
216 358
216 402
216 404
216 533
216 538
217 0
217 1
217 2
217 3
217 4
217 5
217 6
217 7
217 13
217 15
217 18
217 19
217 20
217 21
217 22
217 24
217 25
217 35
217 37
217 43
217 51
217 55
217 56
217 57
217 58
217 59
217 60
217 61
217 62
217 63
217 64
217 65
217 66
217 67
217 68
217 69
217 70
217 71
217 72
217 73
217 74
217 75
217 76
217 77
217 78
217 79
217 80
217 81
217 82
217 83
217 84
217 85
217 86
217 87
217 88
217 90
217 91
217 92
217 93
217 125
217 128
217 132
217 137
217 140
217 142
217 144
217 146
217 148
217 150
217 155
217 163
217 167
217 169
217 170
217 172
217 174
217 176
217 180
217 181
217 182
217 183
217 184
217 190
217 194
217 195
217 197
217 204
217 205
217 209
217 211
217 212
217 219
217 220
217 221
217 222
217 228
217 233
217 238
217 239
217 240
217 241
217 242
217 248
217 249
217 250
217 254
217 265
217 266
217 271
217 280
217 282
217 283
217 290
217 291
217 293
217 316
217 321
217 329
217 332
217 333
217 334
217 335
217 338
217 347
217 348
217 356
217 362
217 363
217 369
217 371
217 373
217 374
217 380
217 382
217 385
217 386
217 388
217 389
217 403
217 407
217 408
217 414
217 415
217 417
217 418
217 424
217 428
217 438
217 439
217 445
217 450
217 462
217 467
217 472
217 481
217 496
217 497
217 499
217 500
217 503
217 505
217 511
217 521
217 523
217 525
217 534
217 541
217 543
217 553
217 555
217 556
217 563
217 575
217 583
218 0
218 1
218 2
218 3
218 4
218 5
218 6
218 7
218 8
218 10
218 11
218 19
218 20
218 21
218 22
218 23
218 24
218 25
218 26
218 28
218 33
218 34
218 58
218 61
218 62
218 63
218 66
218 68
218 70
218 71
218 76
218 78
218 84
218 87
218 89
218 91
218 92
218 142
218 144
218 150
218 181
218 186
218 187
218 188
218 191
218 207
218 212
218 222
218 223
218 227
218 238
218 239
218 241
218 281
218 288
218 292
218 321
218 367
218 368
218 369
218 370
218 371
218 372
218 373
218 374
218 375
218 406
218 407
218 413
218 414
218 415
218 416
218 417
218 418
218 419
218 426
218 464
218 502
218 526
218 539
218 563
218 573
219 0
219 1
219 2
219 3
219 4
219 9
219 19
219 20
219 22
219 57
219 58
219 67
219 68
219 75
219 76
219 78
219 85
219 88
219 89
219 91
219 102
219 131
219 132
219 136
219 137
219 140
219 146
219 167
219 185
219 186
219 189
219 197
219 206
219 210
219 212
219 217
219 240
219 248
219 284
219 290
219 293
219 304
219 323
219 328
219 396
219 419
219 420
219 421
219 422
219 423
219 424
219 425
219 426
219 427
219 428
219 429
219 430
219 431
219 432
219 461
219 504
219 534
219 544
219 546
219 560
219 574
219 583
219 584
219 585
219 586
219 587
219 588
220 0
220 1
220 2
220 3
220 4
220 6
220 9
220 13
220 14
220 15
220 16
220 17
220 18
220 19
220 20
220 21
220 22
220 23
220 24
220 25
220 26
220 27
220 28
220 29
220 30
220 31
220 32
220 33
220 34
220 35
220 36
220 37
220 38
220 39
220 40
220 41
220 42
220 43
220 44
220 45
220 46
220 47
220 48
220 49
220 50
220 51
220 52
220 53
220 54
220 55
220 56
220 57
220 58
220 59
220 60
220 61
220 62
220 63
220 64
220 65
220 66
220 67
220 68
220 69
220 70
220 71
220 72
220 73
220 74
220 75
220 76
220 77
220 78
220 79
220 80
220 81
220 82
220 83
220 84
220 85
220 86
220 87
220 88
220 89
220 90
220 91
220 92
220 125
220 128
220 131
220 132
220 140
220 141
220 142
220 143
220 144
220 146
220 148
220 150
220 155
220 157
220 176
220 180
220 181
220 182
220 183
220 186
220 188
220 194
220 195
220 196
220 197
220 199
220 204
220 205
220 206
220 212
220 213
220 217
220 220
220 221
220 222
220 223
220 229
220 231
220 233
220 234
220 238
220 239
220 240
220 241
220 242
220 248
220 249
220 251
220 254
220 256
220 257
220 258
220 259
220 260
220 265
220 269
220 280
220 282
220 290
220 291
220 292
220 293
220 295
220 321
220 322
220 324
220 333
220 334
220 335
220 338
220 345
220 347
220 348
220 356
220 358
220 362
220 373
220 380
220 382
220 385
220 386
220 388
220 389
220 396
220 403
220 407
220 411
220 414
220 415
220 417
220 418
220 428
220 429
220 437
220 446
220 453
220 454
220 457
220 458
220 459
220 465
220 467
220 469
220 470
220 473
220 476
220 478
220 483
220 485
220 487
220 488
220 489
220 492
220 493
220 503
220 505
220 509
220 510
220 511
220 516
220 517
220 521
220 523
220 531
220 543
220 547
220 550
220 554
220 556
220 561
220 565
220 569
220 570
220 574
220 575
220 584
220 585
220 587
220 588
221 0
221 1
221 2
221 4
221 18
221 19
221 20
221 21
221 22
221 23
221 24
221 25
221 26
221 27
221 28
221 29
221 30
221 31
221 32
221 33
221 34
221 45
221 46
221 47
221 53
221 55
221 56
221 57
221 58
221 59
221 60
221 61
221 62
221 63
221 64
221 65
221 66
221 67
221 68
221 69
221 70
221 71
221 72
221 73
221 75
221 76
221 77
221 78
221 79
221 80
221 81
221 82
221 83
221 84
221 85
221 86
221 87
221 88
221 89
221 90
221 91
221 92
221 125
221 128
221 132
221 140
221 141
221 142
221 144
221 148
221 150
221 155
221 157
221 176
221 180
221 181
221 182
221 183
221 188
221 194
221 195
221 196
221 197
221 199
221 204
221 205
221 206
221 210
221 212
221 217
221 220
221 222
221 223
221 229
221 233
221 234
221 238
221 239
221 240
221 241
221 242
221 244
221 249
221 254
221 255
221 256
221 257
221 259
221 265
221 280
221 291
221 292
221 293
221 302
221 310
221 321
221 324
221 333
221 334
221 335
221 338
221 347
221 348
221 356
221 362
221 373
221 380
221 382
221 385
221 386
221 388
221 396
221 403
221 407
221 414
221 415
221 417
221 418
221 428
221 437
221 457
221 469
221 470
221 473
221 476
221 478
221 480
221 482
221 483
221 487
221 488
221 492
221 497
221 499
221 500
221 503
221 504
221 505
221 511
221 516
221 517
221 521
221 547
221 553
221 554
221 556
221 569
221 570
221 585
221 587
221 588
222 0
222 1
222 2
222 4
222 5
222 6
222 8
222 11
222 14
222 18
222 19
222 20
222 21
222 22
222 23
222 24
222 25
222 26
222 27
222 28
222 29
222 30
222 31
222 32
222 33
222 34
222 45
222 46
222 47
222 53
222 55
222 56
222 57
222 58
222 59
222 60
222 61
222 62
222 63
222 64
222 65
222 66
222 67
222 68
222 69
222 70
222 71
222 72
222 73
222 74
222 75
222 76
222 77
222 78
222 79
222 80
222 81
222 82
222 83
222 84
222 85
222 86
222 87
222 88
222 89
222 90
222 91
222 92
222 125
222 128
222 132
222 137
222 140
222 141
222 142
222 144
222 148
222 150
222 155
222 157
222 176
222 180
222 181
222 182
222 183
222 188
222 194
222 195
222 196
222 197
222 199
222 204
222 205
222 206
222 212
222 217
222 218
222 220
222 221
222 223
222 229
222 233
222 234
222 238
222 239
222 240
222 241
222 242
222 249
222 254
222 255
222 257
222 261
222 265
222 280
222 291
222 292
222 293
222 321
222 333
222 334
222 335
222 338
222 347
222 348
222 356
222 362
222 368
222 370
222 371
222 372
222 373
222 374
222 380
222 382
222 385
222 386
222 388
222 396
222 403
222 407
222 414
222 415
222 417
222 418
222 428
222 452
222 457
222 458
222 469
222 470
222 473
222 476
222 478
222 488
222 492
222 501
222 503
222 505
222 511
222 516
222 517
222 547
222 554
222 556
222 558
222 562
222 563
222 569
222 570
222 585
222 587
222 588
223 0
223 1
223 2
223 3
223 4
223 5
223 6
223 7
223 8
223 11
223 14
223 19
223 20
223 21
223 22
223 23
223 24
223 25
223 26
223 28
223 33
223 34
223 42
223 55
223 56
223 57
223 58
223 59
223 60
223 61
223 62
223 63
223 64
223 65
223 66
223 67
223 68
223 69
223 70
223 71
223 72
223 73
223 74
223 75
223 76
223 77
223 78
223 79
223 80
223 81
223 82
223 83
223 84
223 85
223 86
223 87
223 88
223 89
223 90
223 91
223 92
223 102
223 125
223 128
223 140
223 142
223 144
223 150
223 155
223 167
223 169
223 176
223 180
223 181
223 182
223 183
223 188
223 193
223 194
223 195
223 197
223 203
223 204
223 212
223 218
223 220
223 221
223 222
223 224
223 227
223 233
223 234
223 238
223 239
223 240
223 241
223 242
223 249
223 254
223 265
223 268
223 270
223 280
223 281
223 288
223 291
223 292
223 293
223 296
223 321
223 333
223 334
223 335
223 337
223 338
223 347
223 348
223 350
223 356
223 362
223 367
223 368
223 369
223 370
223 371
223 372
223 373
223 374
223 375
223 380
223 382
223 385
223 386
223 388
223 403
223 407
223 413
223 414
223 415
223 416
223 417
223 418
223 425
223 428
223 464
223 468
223 502
223 505
223 507
223 511
223 538
223 539
223 558
223 561
223 562
223 563
223 573
223 574
223 585
223 587
224 0
224 1
224 2
224 3
224 4
224 14
224 19
224 20
224 21
224 22
224 23
224 42
224 43
224 74
224 89
224 128
224 131
224 140
224 143
224 146
224 157
224 167
224 183
224 223
224 233
224 234
224 240
224 321
224 369
224 467
224 501
224 518
224 547
224 554
224 563
224 574
224 575
225 0
225 1
225 2
225 110
225 118
225 119
225 124
225 133
225 226
225 245
225 253
225 303
225 312
225 339
225 577
226 0
226 1
226 2
226 5
226 22
226 60
226 88
226 89
226 96
226 99
226 109
226 112
226 118
226 119
226 129
226 144
226 174
226 225
226 242
226 245
226 246
226 253
226 262
226 266
226 267
226 284
226 303
226 305
226 315
226 339
226 357
226 483
226 530
226 581
227 0
227 1
227 2
227 3
227 4
227 5
227 6
227 7
227 8
227 11
227 19
227 22
227 23
227 24
227 25
227 26
227 34
227 66
227 68
227 70
227 71
227 76
227 78
227 84
227 87
227 91
227 132
227 176
227 181
227 188
227 215
227 218
227 223
227 239
227 288
227 321
227 367
227 368
227 369
227 370
227 371
227 372
227 373
227 374
227 375
227 385
227 419
227 446
227 483
227 502
227 539
227 558
227 562
227 573
228 0
228 1
228 2
228 3
228 4
228 5
228 6
228 10
228 22
228 24
228 26
228 60
228 75
228 77
228 84
228 87
228 91
228 125
228 137
228 151
228 154
228 184
228 185
228 189
228 195
228 211
228 217
228 239
228 241
228 286
228 289
228 318
228 319
228 320
228 323
228 336
228 337
228 344
228 405
228 528
228 537
228 539
228 546
228 560
229 0
229 1
229 2
229 3
229 4
229 5
229 6
229 11
229 12
229 13
229 15
229 18
229 19
229 20
229 21
229 22
229 23
229 24
229 25
229 30
229 31
229 32
229 46
229 49
229 53
229 55
229 56
229 57
229 58
229 59
229 60
229 61
229 62
229 63
229 64
229 65
229 66
229 67
229 68
229 69
229 70
229 71
229 72
229 73
229 75
229 76
229 77
229 78
229 79
229 80
229 81
229 82
229 83
229 84
229 85
229 86
229 87
229 88
229 89
229 90
229 91
229 92
229 118
229 125
229 128
229 140
229 142
229 144
229 150
229 155
229 157
229 174
229 176
229 180
229 181
229 182
229 183
229 186
229 194
229 195
229 196
229 197
229 199
229 204
229 205
229 212
229 220
229 221
229 222
229 233
229 238
229 239
229 240
229 241
229 242
229 249
229 253
229 254
229 265
229 280
229 291
229 293
229 321
229 333
229 334
229 335
229 338
229 347
229 348
229 356
229 362
229 373
229 380
229 382
229 385
229 386
229 387
229 388
229 403
229 407
229 414
229 415
229 417
229 418
229 428
229 434
229 444
229 451
229 452
229 453
229 459
229 470
229 476
229 478
229 480
229 488
229 492
229 505
229 511
229 538
229 548
229 558
229 574
229 584
229 585
230 0
230 1
230 2
230 3
230 4
230 5
230 11
230 20
230 23
230 24
230 91
230 92
230 105
230 111
230 118
230 119
230 120
230 157
230 175
230 181
230 190
230 198
230 205
230 239
230 243
230 262
230 286
230 361
230 404
230 441
230 542
231 0
231 1
231 2
231 4
231 22
231 51
231 58
231 59
231 140
231 154
231 190
231 220
231 242
231 266
231 291
231 301
231 321
231 528
231 563
232 0
232 1
232 94
232 95
232 101
232 103
232 104
232 105
232 107
232 110
232 128
232 160
232 168
232 175
232 190
232 211
232 232
232 298
233 0
233 1
233 2
233 3
233 4
233 5
233 6
233 18
233 19
233 20
233 21
233 22
233 23
233 24
233 25
233 26
233 27
233 28
233 29
233 30
233 31
233 32
233 33
233 34
233 45
233 46
233 47
233 53
233 54
233 55
233 56
233 57
233 58
233 59
233 60
233 61
233 62
233 63
233 64
233 65
233 66
233 67
233 68
233 69
233 70
233 71
233 72
233 73
233 74
233 75
233 76
233 77
233 78
233 79
233 80
233 81
233 82
233 83
233 84
233 85
233 86
233 87
233 88
233 90
233 91
233 92
233 93
233 105
233 124
233 125
233 128
233 132
233 140
233 141
233 142
233 144
233 148
233 150
233 155
233 157
233 176
233 180
233 181
233 182
233 183
233 185
233 187
233 188
233 189
233 194
233 195
233 196
233 197
233 199
233 204
233 205
233 206
233 207
233 209
233 211
233 212
233 217
233 220
233 221
233 222
233 223
233 224
233 229
233 234
233 238
233 239
233 240
233 241
233 242
233 249
233 251
233 252
233 254
233 256
233 257
233 263
233 265
233 280
233 289
233 291
233 292
233 293
233 321
233 323
233 327
233 333
233 334
233 335
233 338
233 347
233 348
233 356
233 362
233 369
233 373
233 377
233 380
233 382
233 385
233 386
233 388
233 396
233 403
233 407
233 414
233 415
233 417
233 418
233 428
233 441
233 453
233 456
233 457
233 464
233 469
233 470
233 473
233 476
233 488
233 492
233 503
233 505
233 511
233 516
233 517
233 528
233 547
233 554
233 556
233 560
233 569
233 570
233 585
233 587
233 588
234 1
234 2
234 3
234 4
234 6
234 14
234 19
234 20
234 21
234 22
234 23
234 25
234 30
234 46
234 49
234 50
234 51
234 54
234 55
234 56
234 57
234 58
234 59
234 60
234 61
234 62
234 63
234 64
234 65
234 66
234 67
234 68
234 69
234 70
234 71
234 72
234 73
234 74
234 75
234 76
234 77
234 78
234 79
234 80
234 81
234 82
234 83
234 84
234 85
234 86
234 87
234 88
234 89
234 90
234 91
234 92
234 125
234 126
234 128
234 140
234 141
234 142
234 144
234 148
234 150
234 155
234 169
234 176
234 180
234 181
234 182
234 183
234 187
234 194
234 195
234 197
234 198
234 199
234 203
234 204
234 205
234 207
234 212
234 220
234 221
234 222
234 223
234 224
234 233
234 238
234 239
234 240
234 241
234 242
234 249
234 254
234 255
234 265
234 269
234 280
234 291
234 293
234 321
234 333
234 334
234 335
234 336
234 338
234 347
234 348
234 356
234 362
234 367
234 373
234 379
234 380
234 382
234 385
234 386
234 387
234 388
234 403
234 407
234 414
234 415
234 417
234 418
234 421
234 428
234 432
234 454
234 456
234 472
234 477
234 481
234 483
234 492
234 493
234 496
234 505
234 511
234 563
234 584
235 0
235 1
235 2
235 3
235 4
235 5
235 6
235 14
235 20
235 21
235 22
235 24
235 36
235 63
235 71
235 90
235 91
235 141
235 150
235 174
235 185
235 189
235 190
235 205
235 207
235 240
235 251
235 281
235 289
235 304
235 319
235 328
235 337
235 345
235 350
235 396
235 436
235 460
235 547
235 585
235 588
236 0
236 1
236 2
236 3
236 4
236 5
236 22
236 88
236 89
236 92
236 112
236 118
236 123
236 128
236 154
236 195
236 239
236 242
236 244
236 266
236 272
236 286
236 299
236 301
236 310
236 316
236 325
236 326
236 327
236 329
236 331
236 339
236 344
236 357
236 363
236 410
236 509
236 538
236 563
236 574
236 581
236 582
236 589
237 0
237 1
237 2
237 3
237 4
237 13
237 14
237 15
237 16
237 17
237 20
237 21
237 29
237 30
237 31
237 32
237 35
237 36
237 37
237 38
237 39
237 40
237 41
237 42
237 43
237 44
237 45
237 46
237 47
237 48
237 49
237 50
237 51
237 52
237 53
237 54
237 80
237 81
237 83
237 85
237 89
237 90
237 91
237 132
237 137
237 146
237 147
237 148
237 202
237 254
237 258
237 259
237 269
237 270
237 295
237 316
237 332
237 341
237 343
237 353
237 389
237 406
237 444
237 449
237 453
237 454
237 487
237 489
237 493
237 510
237 531
237 550
237 556
237 565
237 569
237 574
237 575
238 0
238 1
238 2
238 3
238 4
238 5
238 7
238 8
238 10
238 11
238 14
238 15
238 18
238 19
238 20
238 21
238 22
238 23
238 24
238 25
238 26
238 27
238 28
238 29
238 30
238 31
238 32
238 33
238 34
238 45
238 46
238 47
238 50
238 52
238 53
238 55
238 56
238 57
238 58
238 59
238 60
238 61
238 62
238 63
238 64
238 65
238 66
238 67
238 68
238 69
238 70
238 71
238 72
238 73
238 74
238 75
238 76
238 77
238 78
238 79
238 80
238 81
238 82
238 83
238 84
238 85
238 86
238 87
238 88
238 90
238 91
238 92
238 96
238 112
238 125
238 128
238 129
238 132
238 140
238 141
238 142
238 144
238 148
238 150
238 155
238 157
238 174
238 176
238 180
238 181
238 182
238 183
238 187
238 188
238 190
238 194
238 195
238 196
238 197
238 199
238 204
238 205
238 206
238 207
238 212
238 213
238 217
238 218
238 220
238 221
238 222
238 223
238 229
238 233
238 234
238 239
238 240
238 241
238 242
238 249
238 254
238 255
238 257
238 265
238 280
238 291
238 292
238 293
238 321
238 333
238 334
238 335
238 338
238 347
238 348
238 350
238 356
238 362
238 370
238 372
238 373
238 380
238 382
238 385
238 386
238 388
238 389
238 396
238 403
238 407
238 414
238 415
238 417
238 418
238 424
238 428
238 445
238 454
238 456
238 457
238 469
238 470
238 473
238 476
238 488
238 490
238 492
238 493
238 496
238 503
238 505
238 511
238 516
238 517
238 525
238 539
238 547
238 554
238 555
238 556
238 567
238 569
238 570
238 585
238 587
238 588
239 0
239 1
239 2
239 3
239 4
239 5
239 6
239 7
239 8
239 10
239 11
239 14
239 15
239 18
239 19
239 20
239 21
239 22
239 23
239 24
239 25
239 26
239 27
239 28
239 29
239 30
239 31
239 32
239 33
239 34
239 36
239 37
239 45
239 46
239 47
239 50
239 51
239 53
239 55
239 56
239 57
239 58
239 59
239 60
239 61
239 62
239 63
239 64
239 65
239 66
239 67
239 68
239 69
239 70
239 71
239 72
239 73
239 74
239 75
239 76
239 77
239 78
239 79
239 80
239 81
239 82
239 83
239 84
239 85
239 86
239 87
239 88
239 89
239 90
239 91
239 92
239 93
239 118
239 125
239 128
239 132
239 140
239 141
239 142
239 144
239 148
239 150
239 151
239 155
239 157
239 176
239 177
239 180
239 181
239 182
239 183
239 185
239 188
239 189
239 191
239 194
239 195
239 196
239 197
239 199
239 204
239 205
239 206
239 211
239 212
239 214
239 217
239 218
239 220
239 221
239 222
239 223
239 227
239 228
239 229
239 230
239 233
239 234
239 236
239 238
239 239
239 240
239 241
239 242
239 249
239 251
239 254
239 257
239 258
239 265
239 280
239 287
239 288
239 291
239 292
239 293
239 318
239 319
239 320
239 321
239 323
239 324
239 333
239 334
239 335
239 336
239 337
239 338
239 344
239 345
239 347
239 348
239 350
239 351
239 356
239 362
239 367
239 368
239 369
239 370
239 371
239 372
239 373
239 374
239 375
239 380
239 382
239 385
239 386
239 388
239 396
239 403
239 406
239 407
239 414
239 415
239 416
239 417
239 418
239 428
239 446
239 451
239 457
239 465
239 469
239 470
239 473
239 476
239 479
239 488
239 492
239 502
239 503
239 505
239 511
239 516
239 517
239 526
239 539
239 547
239 552
239 554
239 556
239 560
239 562
239 563
239 569
239 570
239 585
239 587
239 588
240 0
240 1
240 2
240 3
240 4
240 5
240 6
240 7
240 13
240 14
240 15
240 17
240 18
240 19
240 20
240 21
240 22
240 23
240 24
240 25
240 26
240 27
240 28
240 29
240 30
240 31
240 32
240 33
240 34
240 35
240 37
240 38
240 40
240 43
240 45
240 46
240 47
240 51
240 52
240 53
240 55
240 56
240 57
240 58
240 59
240 60
240 61
240 62
240 63
240 64
240 65
240 66
240 67
240 68
240 69
240 70
240 71
240 72
240 73
240 75
240 76
240 77
240 78
240 79
240 80
240 81
240 82
240 83
240 84
240 85
240 86
240 87
240 88
240 89
240 90
240 91
240 92
240 108
240 124
240 125
240 128
240 132
240 140
240 141
240 142
240 144
240 148
240 150
240 155
240 157
240 167
240 176
240 180
240 181
240 182
240 183
240 186
240 188
240 194
240 195
240 196
240 197
240 199
240 204
240 205
240 206
240 212
240 217
240 219
240 220
240 221
240 222
240 223
240 224
240 229
240 233
240 234
240 235
240 238
240 239
240 241
240 242
240 249
240 251
240 254
240 257
240 265
240 280
240 289
240 291
240 292
240 293
240 318
240 319
240 321
240 323
240 328
240 333
240 334
240 335
240 336
240 338
240 341
240 345
240 346
240 347
240 348
240 356
240 358
240 362
240 373
240 374
240 376
240 380
240 382
240 385
240 386
240 388
240 392
240 396
240 403
240 407
240 414
240 415
240 417
240 418
240 428
240 447
240 454
240 457
240 467
240 469
240 470
240 473
240 476
240 488
240 492
240 498
240 503
240 505
240 511
240 516
240 517
240 519
240 530
240 542
240 547
240 552
240 554
240 556
240 567
240 569
240 570
240 575
240 583
240 585
240 587
240 588
241 0
241 1
241 2
241 3
241 4
241 5
241 6
241 7
241 8
241 11
241 18
241 19
241 20
241 21
241 22
241 23
241 24
241 25
241 26
241 27
241 28
241 29
241 30
241 31
241 32
241 33
241 34
241 45
241 46
241 47
241 53
241 55
241 56
241 57
241 58
241 59
241 60
241 61
241 62
241 63
241 64
241 65
241 66
241 67
241 68
241 69
241 70
241 71
241 72
241 73
241 74
241 75
241 76
241 77
241 78
241 79
241 80
241 81
241 82
241 83
241 84
241 85
241 86
241 87
241 88
241 89
241 90
241 91
241 92
241 108
241 114
241 118
241 125
241 128
241 132
241 140
241 141
241 142
241 144
241 148
241 150
241 154
241 155
241 157
241 163
241 176
241 180
241 181
241 182
241 183
241 184
241 188
241 194
241 195
241 196
241 197
241 199
241 204
241 205
241 206
241 212
241 217
241 218
241 220
241 221
241 222
241 223
241 228
241 229
241 233
241 234
241 238
241 239
241 240
241 242
241 244
241 249
241 254
241 255
241 256
241 257
241 265
241 280
241 291
241 292
241 293
241 296
241 304
241 319
241 321
241 333
241 334
241 335
241 338
241 347
241 348
241 356
241 362
241 367
241 370
241 373
241 380
241 382
241 385
241 386
241 388
241 396
241 403
241 407
241 414
241 415
241 416
241 417
241 418
241 424
241 428
241 432
241 438
241 453
241 457
241 469
241 470
241 473
241 476
241 478
241 480
241 481
241 482
241 483
241 484
241 488
241 492
241 497
241 499
241 500
241 501
241 502
241 503
241 505
241 509
241 511
241 516
241 517
241 521
241 539
241 547
241 554
241 556
241 569
241 570
241 583
241 585
241 587
241 588
242 0
242 1
242 2
242 3
242 4
242 5
242 6
242 18
242 19
242 20
242 21
242 22
242 23
242 24
242 25
242 26
242 27
242 28
242 29
242 30
242 31
242 32
242 33
242 34
242 45
242 46
242 47
242 53
242 55
242 56
242 57
242 58
242 59
242 60
242 61
242 62
242 63
242 64
242 65
242 66
242 67
242 68
242 69
242 70
242 71
242 72
242 73
242 75
242 76
242 77
242 78
242 79
242 80
242 81
242 82
242 83
242 84
242 85
242 86
242 87
242 88
242 90
242 91
242 92
242 118
242 119
242 125
242 128
242 132
242 140
242 141
242 142
242 144
242 148
242 150
242 154
242 155
242 157
242 163
242 174
242 176
242 180
242 181
242 182
242 183
242 188
242 194
242 195
242 196
242 197
242 199
242 202
242 204
242 205
242 206
242 212
242 214
242 215
242 217
242 220
242 221
242 222
242 223
242 226
242 229
242 231
242 233
242 234
242 236
242 238
242 239
242 240
242 241
242 243
242 244
242 249
242 254
242 257
242 262
242 265
242 266
242 272
242 279
242 280
242 286
242 291
242 292
242 293
242 299
242 301
242 310
242 316
242 321
242 325
242 326
242 327
242 329
242 331
242 333
242 334
242 335
242 336
242 338
242 339
242 344
242 347
242 348
242 356
242 362
242 363
242 373
242 380
242 382
242 385
242 386
242 388
242 396
242 403
242 407
242 408
242 414
242 415
242 417
242 418
242 428
242 457
242 469
242 470
242 473
242 476
242 483
242 488
242 492
242 503
242 505
242 511
242 516
242 517
242 528
242 530
242 547
242 554
242 555
242 556
242 557
242 563
242 569
242 570
242 582
242 585
242 587
242 588
243 0
243 1
243 2
243 3
243 4
243 5
243 22
243 92
243 96
243 109
243 118
243 119
243 174
243 179
243 190
243 214
243 215
243 230
243 242
243 243
243 245
243 262
243 266
243 272
243 279
243 284
243 294
243 299
243 305
243 314
243 408
243 589
244 0
244 1
244 2
244 3
244 4
244 5
244 15
244 21
244 22
244 24
244 25
244 26
244 44
244 84
244 87
244 88
244 89
244 91
244 92
244 118
244 123
244 128
244 140
244 174
244 176
244 179
244 215
244 221
244 236
244 241
244 242
244 251
244 257
244 279
244 286
244 331
244 348
244 357
244 363
244 373
244 410
244 478
244 542
244 547
244 574
245 0
245 1
245 2
245 3
245 4
245 5
245 112
245 118
245 119
245 123
245 190
245 195
245 214
245 215
245 225
245 226
245 243
245 246
245 253
245 262
245 266
245 267
245 279
245 284
245 286
245 299
245 301
245 303
245 305
245 329
245 331
245 339
245 344
245 357
245 410
246 0
246 1
246 2
246 3
246 74
246 88
246 91
246 92
246 93
246 94
246 96
246 101
246 110
246 112
246 114
246 124
246 137
246 139
246 146
246 148
246 178
246 185
246 189
246 190
246 197
246 201
246 202
246 210
246 226
246 245
246 252
246 260
246 261
246 263
246 271
246 272
246 274
246 283
246 284
246 285
246 298
246 303
246 305
246 329
246 413
246 430
246 441
246 443
246 526
246 555
246 566
247 2
247 202
247 263
247 268
248 0
248 1
248 2
248 3
248 4
248 5
248 7
248 37
248 47
248 54
248 60
248 63
248 74
248 79
248 88
248 90
248 92
248 102
248 124
248 126
248 132
248 136
248 140
248 143
248 146
248 148
248 149
248 167
248 182
248 184
248 190
248 197
248 205
248 210
248 217
248 219
248 220
248 253
248 260
248 273
248 275
248 282
248 287
248 291
248 304
248 316
248 324
248 345
248 349
248 381
248 384
248 388
248 412
248 419
248 420
248 423
248 426
248 430
248 432
248 448
248 449
248 461
248 466
248 497
248 501
248 504
248 509
248 522
248 553
248 564
248 571
248 582
248 583
249 0
249 1
249 2
249 3
249 4
249 6
249 7
249 11
249 12
249 15
249 18
249 19
249 20
249 21
249 22
249 23
249 24
249 25
249 26
249 27
249 28
249 29
249 30
249 31
249 32
249 33
249 34
249 41
249 45
249 46
249 47
249 50
249 53
249 55
249 56
249 57
249 58
249 59
249 60
249 61
249 62
249 63
249 64
249 65
249 66
249 67
249 68
249 69
249 70
249 71
249 72
249 73
249 74
249 75
249 76
249 77
249 78
249 79
249 80
249 81
249 82
249 83
249 84
249 85
249 86
249 87
249 88
249 89
249 90
249 91
249 92
249 125
249 128
249 132
249 140
249 141
249 142
249 144
249 148
249 150
249 155
249 157
249 158
249 171
249 176
249 180
249 181
249 182
249 183
249 188
249 194
249 195
249 196
249 197
249 199
249 204
249 205
249 206
249 212
249 217
249 220
249 221
249 222
249 223
249 229
249 233
249 234
249 238
249 239
249 240
249 241
249 242
249 254
249 257
249 265
249 280
249 291
249 292
249 293
249 321
249 333
249 334
249 335
249 338
249 347
249 348
249 356
249 362
249 373
249 380
249 382
249 385
249 386
249 388
249 396
249 403
249 407
249 414
249 415
249 417
249 418
249 428
249 447
249 452
249 457
249 458
249 469
249 470
249 473
249 476
249 478
249 479
249 488
249 492
249 503
249 505
249 511
249 516
249 517
249 526
249 547
249 554
249 556
249 558
249 569
249 570
249 585
249 587
249 588
250 1
250 2
250 19
250 75
250 91
250 145
250 167
250 197
250 217
250 298
251 0
251 1
251 2
251 3
251 4
251 17
251 19
251 20
251 21
251 23
251 37
251 43
251 52
251 58
251 63
251 65
251 73
251 74
251 76
251 79
251 83
251 87
251 89
251 91
251 149
251 174
251 180
251 181
251 191
251 220
251 233
251 235
251 239
251 240
251 244
251 251
251 254
251 263
251 271
251 280
251 281
251 287
251 289
251 319
251 321
251 338
251 348
251 369
251 380
251 389
251 392
251 396
251 411
251 414
251 459
251 465
251 469
251 501
251 537
251 539
251 554
251 573
251 575
251 585
252 0
252 1
252 2
252 3
252 4
252 7
252 19
252 20
252 59
252 74
252 78
252 88
252 92
252 93
252 120
252 124
252 233
252 246
252 253
252 261
252 263
252 270
252 271
252 275
252 276
252 297
252 322
252 427
252 543
253 0
253 1
253 2
253 3
253 4
253 5
253 7
253 15
253 20
253 39
253 42
253 48
253 51
253 59
253 76
253 78
253 79
253 86
253 87
253 88
253 89
253 91
253 92
253 93
253 96
253 101
253 102
253 105
253 110
253 120
253 126
253 132
253 139
253 141
253 146
253 174
253 210
253 215
253 225
253 226
253 229
253 245
253 248
253 252
253 253
253 266
253 271
253 273
253 276
253 277
253 278
253 283
253 284
253 285
253 286
253 290
253 297
253 298
253 303
253 304
253 310
253 312
253 315
253 316
253 321
253 324
253 339
253 362
253 384
253 397
253 422
253 424
253 427
253 429
253 483
253 501
253 522
253 533
253 577
253 581
253 582
254 0
254 1
254 2
254 3
254 4
254 5
254 14
254 18
254 19
254 20
254 21
254 22
254 23
254 24
254 25
254 26
254 27
254 28
254 29
254 30
254 31
254 32
254 33
254 34
254 35
254 36
254 37
254 38
254 45
254 46
254 47
254 53
254 55
254 56
254 57
254 58
254 59
254 60
254 61
254 62
254 63
254 64
254 65
254 66
254 67
254 68
254 69
254 70
254 71
254 72
254 73
254 75
254 76
254 77
254 78
254 79
254 80
254 81
254 82
254 83
254 84
254 85
254 86
254 87
254 88
254 89
254 90
254 91
254 92
254 118
254 125
254 128
254 132
254 140
254 141
254 142
254 144
254 148
254 150
254 151
254 155
254 157
254 176
254 180
254 181
254 182
254 183
254 188
254 194
254 195
254 196
254 197
254 199
254 202
254 204
254 205
254 206
254 212
254 217
254 220
254 221
254 222
254 223
254 229
254 233
254 234
254 237
254 238
254 239
254 240
254 241
254 242
254 249
254 251
254 257
254 262
254 265
254 280
254 291
254 292
254 293
254 299
254 321
254 333
254 334
254 335
254 338
254 347
254 348
254 356
254 362
254 373
254 380
254 382
254 385
254 386
254 388
254 396
254 403
254 407
254 414
254 415
254 417
254 418
254 428
254 432
254 445
254 456
254 457
254 465
254 469
254 470
254 473
254 476
254 478
254 488
254 492
254 503
254 505
254 511
254 516
254 517
254 528
254 538
254 547
254 554
254 556
254 569
254 570
254 584
254 585
254 587
254 588
255 0
255 1
255 2
255 3
255 4
255 5
255 6
255 8
255 11
255 18
255 19
255 20
255 21
255 22
255 24
255 25
255 26
255 58
255 64
255 69
255 78
255 84
255 87
255 88
255 89
255 91
255 92
255 96
255 128
255 155
255 166
255 171
255 181
255 183
255 207
255 210
255 213
255 221
255 222
255 234
255 238
255 241
255 260
255 288
255 334
255 347
255 368
255 370
255 372
255 385
255 387
255 430
255 456
255 485
255 488
255 492
255 574
256 0
256 1
256 2
256 3
256 4
256 5
256 6
256 7
256 19
256 20
256 21
256 22
256 24
256 25
256 51
256 52
256 56
256 57
256 63
256 66
256 77
256 84
256 87
256 88
256 89
256 90
256 91
256 92
256 128
256 129
256 154
256 176
256 180
256 205
256 207
256 220
256 221
256 233
256 241
256 259
256 313
256 320
256 324
256 334
256 371
256 376
256 385
256 403
256 485
256 502
256 547
256 556
256 561
256 574
257 0
257 1
257 2
257 3
257 4
257 25
257 26
257 55
257 56
257 57
257 58
257 59
257 60
257 61
257 62
257 63
257 64
257 65
257 66
257 67
257 68
257 69
257 70
257 71
257 72
257 73
257 74
257 75
257 76
257 77
257 78
257 79
257 80
257 81
257 82
257 83
257 84
257 85
257 86
257 87
257 88
257 90
257 91
257 92
257 123
257 125
257 128
257 129
257 132
257 140
257 142
257 144
257 150
257 155
257 175
257 176
257 180
257 181
257 182
257 183
257 186
257 194
257 195
257 197
257 204
257 210
257 212
257 220
257 221
257 222
257 233
257 238
257 239
257 240
257 241
257 242
257 244
257 249
257 254
257 265
257 280
257 291
257 293
257 304
257 321
257 326
257 333
257 334
257 335
257 338
257 347
257 348
257 356
257 362
257 373
257 380
257 382
257 385
257 386
257 388
257 403
257 407
257 414
257 415
257 417
257 418
257 421
257 422
257 428
257 438
257 478
257 505
257 511
257 538
257 584
257 586
258 0
258 1
258 2
258 3
258 4
258 6
258 7
258 13
258 14
258 15
258 16
258 17
258 18
258 19
258 20
258 21
258 23
258 24
258 25
258 29
258 30
258 31
258 32
258 35
258 36
258 37
258 38
258 39
258 40
258 41
258 42
258 43
258 44
258 45
258 46
258 47
258 48
258 49
258 50
258 51
258 52
258 53
258 57
258 58
258 63
258 71
258 74
258 79
258 80
258 81
258 82
258 83
258 84
258 85
258 89
258 90
258 91
258 92
258 128
258 132
258 143
258 146
258 147
258 187
258 203
258 206
258 220
258 237
258 239
258 259
258 269
258 282
258 291
258 295
258 319
258 328
258 332
258 341
258 343
258 353
258 376
258 389
258 411
258 430
258 444
258 446
258 449
258 454
258 487
258 489
258 493
258 510
258 531
258 550
258 563
258 565
258 569
258 574
258 575
258 583
259 0
259 1
259 2
259 3
259 4
259 5
259 6
259 7
259 13
259 14
259 15
259 16
259 17
259 19
259 20
259 21
259 22
259 25
259 29
259 30
259 31
259 32
259 35
259 36
259 37
259 38
259 39
259 40
259 41
259 42
259 43
259 44
259 45
259 46
259 47
259 48
259 49
259 50
259 51
259 52
259 53
259 54
259 69
259 74
259 79
259 80
259 81
259 82
259 83
259 85
259 86
259 88
259 89
259 90
259 92
259 126
259 128
259 132
259 140
259 145
259 147
259 186
259 210
259 220
259 221
259 237
259 256
259 258
259 269
259 282
259 293
259 295
259 322
259 324
259 332
259 341
259 343
259 353
259 367
259 389
259 411
259 424
259 426
259 432
259 444
259 449
259 450
259 454
259 458
259 461
259 478
259 483
259 485
259 487
259 489
259 493
259 510
259 531
259 535
259 550
259 563
259 565
259 574
259 575
259 584
260 0
260 1
260 2
260 3
260 7
260 16
260 19
260 22
260 25
260 42
260 48
260 74
260 86
260 88
260 89
260 90
260 92
260 128
260 132
260 146
260 147
260 148
260 194
260 204
260 209
260 210
260 220
260 246
260 248
260 255
260 260
260 290
260 291
260 305
260 313
260 316
260 349
260 419
260 452
260 504
260 563
260 570
261 0
261 1
261 2
261 3
261 4
261 5
261 6
261 19
261 20
261 21
261 57
261 58
261 59
261 61
261 78
261 93
261 222
261 246
261 252
261 270
261 368
261 374
261 387
261 407
261 428
261 434
261 554
261 563
261 585
262 0
262 1
262 2
262 3
262 4
262 5
262 22
262 96
262 114
262 118
262 119
262 133
262 179
262 190
262 195
262 214
262 215
262 226
262 230
262 242
262 243
262 245
262 254
262 266
262 267
262 272
262 279
262 284
262 299
262 301
262 329
262 339
262 357
262 408
262 410
262 582
263 0
263 1
263 2
263 3
263 4
263 5
263 7
263 18
263 19
263 20
263 22
263 54
263 57
263 59
263 63
263 74
263 78
263 81
263 88
263 89
263 91
263 92
263 93
263 120
263 124
263 132
263 145
263 185
263 186
263 189
263 205
263 233
263 246
263 247
263 251
263 252
263 266
263 268
263 271
263 275
263 276
263 297
263 338
263 348
263 382
263 427
263 441
263 465
263 537
263 539
264 0
264 1
264 2
264 3
264 74
264 88
264 90
264 92
264 202
264 270
264 300
264 327
264 354
264 359
264 363
264 536
264 582
265 0
265 1
265 2
265 3
265 4
265 14
265 16
265 17
265 18
265 19
265 20
265 21
265 22
265 23
265 24
265 25
265 26
265 27
265 28
265 29
265 30
265 31
265 32
265 33
265 34
265 45
265 46
265 47
265 48
265 52
265 53
265 54
265 55
265 56
265 57
265 58
265 59
265 60
265 61
265 62
265 63
265 64
265 65
265 66
265 67
265 68
265 69
265 70
265 71
265 72
265 73
265 75
265 76
265 77
265 78
265 79
265 80
265 81
265 82
265 83
265 84
265 85
265 86
265 87
265 88
265 90
265 91
265 92
265 108
265 124
265 125
265 128
265 132
265 140
265 141
265 142
265 144
265 148
265 150
265 155
265 157
265 174
265 176
265 180
265 181
265 182
265 183
265 188
265 194
265 195
265 196
265 197
265 199
265 201
265 204
265 205
265 206
265 212
265 217
265 220
265 221
265 222
265 223
265 229
265 233
265 234
265 238
265 239
265 240
265 241
265 242
265 249
265 254
265 257
265 269
265 273
265 275
265 280
265 291
265 292
265 293
265 321
265 333
265 334
265 335
265 338
265 347
265 348
265 356
265 362
265 373
265 380
265 382
265 385
265 386
265 388
265 396
265 403
265 407
265 414
265 415
265 417
265 418
265 428
265 441
265 442
265 443
265 457
265 469
265 470
265 473
265 476
265 488
265 492
265 503
265 505
265 511
265 516
265 517
265 530
265 547
265 554
265 556
265 569
265 570
265 585
265 587
265 588
266 0
266 1
266 2
266 3
266 4
266 19
266 22
266 92
266 95
266 96
266 101
266 103
266 105
266 112
266 118
266 119
266 121
266 138
266 152
266 159
266 174
266 190
266 198
266 201
266 214
266 217
266 226
266 231
266 236
266 242
266 243
266 245
266 253
266 262
266 263
266 266
266 268
266 284
266 294
266 299
266 301
266 303
266 307
266 309
266 312
266 314
266 326
266 327
266 329
266 362
266 410
266 443
266 530
266 563
266 577
266 580
267 1
267 2
267 3
267 88
267 89
267 105
267 133
267 139
267 159
267 179
267 190
267 195
267 201
267 226
267 245
267 262
267 272
267 284
267 303
267 339
267 443
268 0
268 1
268 2
268 3
268 52
268 54
268 60
268 66
268 74
268 85
268 88
268 89
268 90
268 91
268 92
268 132
268 140
268 145
268 146
268 190
268 211
268 223
268 247
268 263
268 266
268 273
268 278
268 287
268 359
268 366
268 496
268 518
268 520
268 536
269 1
269 2
269 3
269 4
269 13
269 14
269 15
269 16
269 17
269 20
269 21
269 22
269 29
269 30
269 31
269 32
269 35
269 36
269 37
269 38
269 39
269 40
269 41
269 42
269 43
269 44
269 45
269 46
269 47
269 48
269 49
269 50
269 51
269 52
269 53
269 54
269 59
269 69
269 74
269 80
269 81
269 82
269 83
269 85
269 86
269 89
269 90
269 91
269 92
269 128
269 132
269 146
269 147
269 166
269 220
269 234
269 237
269 258
269 259
269 265
269 291
269 295
269 324
269 332
269 341
269 343
269 353
269 389
269 411
269 422
269 425
269 444
269 449
269 450
269 454
269 487
269 489
269 492
269 493
269 505
269 510
269 531
269 550
269 565
269 574
269 575
270 0
270 1
270 2
270 3
270 4
270 7
270 20
270 58
270 59
270 78
270 89
270 91
270 93
270 120
270 122
270 137
270 145
270 154
270 190
270 202
270 206
270 223
270 237
270 252
270 261
270 264
270 297
270 300
270 304
270 354
270 358
270 359
270 427
270 432
270 434
270 486
270 515
270 533
270 536
270 554
270 572
270 582
271 0
271 1
271 2
271 3
271 4
271 6
271 7
271 21
271 22
271 74
271 87
271 88
271 89
271 92
271 93
271 96
271 124
271 137
271 148
271 152
271 167
271 172
271 178
271 217
271 246
271 251
271 252
271 253
271 263
271 271
271 273
271 283
271 350
271 378
271 394
271 427
271 438
271 439
271 443
271 471
271 514
271 522
271 533
271 542
271 543
272 0
272 1
272 2
272 3
272 4
272 5
272 22
272 118
272 119
272 154
272 159
272 174
272 175
272 179
272 214
272 215
272 236
272 242
272 243
272 246
272 262
272 267
272 279
272 286
272 294
272 299
272 310
272 316
272 325
272 326
272 327
272 329
272 331
272 339
272 483
272 582
272 589
273 1
273 2
273 3
273 4
273 7
273 20
273 21
273 89
273 102
273 109
273 112
273 118
273 120
273 124
273 128
273 139
273 140
273 152
273 162
273 172
273 174
273 178
273 190
273 248
273 253
273 265
273 268
273 271
273 277
273 278
273 284
273 285
273 286
273 290
273 303
273 327
273 358
273 360
273 362
273 378
273 394
273 397
273 422
273 424
273 425
273 427
273 436
273 439
273 443
273 471
273 515
273 538
273 576
273 589
274 0
274 1
274 2
274 3
274 74
274 92
274 122
274 132
274 137
274 174
274 202
274 246
274 302
274 500
274 555
275 0
275 1
275 2
275 3
275 4
275 5
275 7
275 20
275 22
275 54
275 59
275 72
275 75
275 78
275 88
275 89
275 90
275 91
275 92
275 93
275 112
275 118
275 120
275 124
275 146
275 167
275 190
275 248
275 252
275 263
275 265
275 276
275 290
275 297
275 300
275 381
275 391
275 427
275 443
275 519
275 525
275 552
276 0
276 1
276 2
276 3
276 4
276 7
276 20
276 59
276 78
276 93
276 96
276 101
276 112
276 120
276 127
276 190
276 252
276 253
276 263
276 275
276 294
276 297
276 427
276 438
276 440
277 0
277 1
277 2
277 3
277 110
277 139
277 147
277 253
277 273
277 278
277 284
277 285
277 286
277 298
277 303
277 362
277 397
277 424
278 1
278 2
278 3
278 88
278 89
278 105
278 139
278 145
278 253
278 268
278 273
278 277
278 284
278 285
278 286
278 303
278 362
278 397
278 424
278 574
279 1
279 2
279 3
279 4
279 5
279 22
279 96
279 118
279 119
279 179
279 190
279 214
279 215
279 242
279 243
279 244
279 245
279 262
279 272
279 284
279 299
279 303
279 408
279 582
280 0
280 1
280 2
280 3
280 4
280 6
280 14
280 15
280 16
280 18
280 19
280 20
280 21
280 22
280 23
280 24
280 25
280 26
280 27
280 28
280 29
280 30
280 31
280 32
280 33
280 34
280 36
280 42
280 43
280 45
280 46
280 47
280 48
280 50
280 53
280 54
280 55
280 56
280 57
280 58
280 59
280 60
280 61
280 62
280 63
280 64
280 65
280 66
280 67
280 68
280 69
280 70
280 71
280 72
280 73
280 75
280 76
280 77
280 78
280 79
280 80
280 81
280 82
280 83
280 84
280 85
280 86
280 87
280 88
280 89
280 90
280 91
280 92
280 125
280 128
280 132
280 140
280 141
280 142
280 144
280 146
280 148
280 150
280 155
280 157
280 167
280 176
280 180
280 181
280 182
280 183
280 188
280 194
280 195
280 196
280 197
280 199
280 203
280 204
280 205
280 206
280 212
280 217
280 220
280 221
280 222
280 223
280 229
280 233
280 234
280 238
280 239
280 240
280 241
280 242
280 249
280 251
280 254
280 257
280 265
280 287
280 289
280 291
280 292
280 293
280 319
280 321
280 333
280 334
280 335
280 336
280 338
280 343
280 347
280 348
280 356
280 362
280 373
280 380
280 382
280 385
280 386
280 388
280 392
280 396
280 403
280 407
280 412
280 414
280 415
280 417
280 418
280 428
280 451
280 454
280 457
280 460
280 463
280 467
280 469
280 470
280 473
280 476
280 481
280 488
280 492
280 496
280 503
280 505
280 511
280 516
280 517
280 542
280 547
280 554
280 556
280 569
280 570
280 574
280 575
280 585
280 587
280 588
281 0
281 1
281 2
281 3
281 4
281 6
281 7
281 8
281 11
281 14
281 20
281 21
281 22
281 25
281 26
281 34
281 62
281 66
281 68
281 84
281 87
281 89
281 145
281 156
281 166
281 167
281 174
281 176
281 181
281 188
281 190
281 218
281 223
281 235
281 251
281 281
281 292
281 345
281 367
281 370
281 407
281 414
281 416
281 422
281 502
281 520
281 537
281 574
281 583
281 586
282 0
282 1
282 2
282 3
282 6
282 13
282 14
282 15
282 16
282 17
282 19
282 20
282 21
282 22
282 25
282 31
282 35
282 36
282 37
282 38
282 39
282 40
282 48
282 49
282 50
282 51
282 52
282 54
282 57
282 74
282 79
282 83
282 86
282 88
282 89
282 90
282 91
282 92
282 108
282 132
282 143
282 146
282 152
282 190
282 199
282 217
282 220
282 248
282 258
282 259
282 290
282 291
282 293
282 295
282 322
282 358
282 363
282 368
282 384
282 389
282 419
282 467
282 489
282 550
282 553
282 555
282 565
282 569
282 574
282 582
283 0
283 1
283 2
283 3
283 4
283 44
283 51
283 52
283 77
283 90
283 92
283 93
283 102
283 104
283 112
283 124
283 136
283 148
283 167
283 172
283 174
283 178
283 217
283 246
283 253
283 271
283 306
283 378
283 388
283 420
283 421
283 422
283 423
283 425
283 428
283 436
283 437
283 438
283 439
283 440
283 443
283 461
283 471
283 522
283 542
283 543
283 566
284 0
284 1
284 2
284 3
284 4
284 5
284 22
284 89
284 92
284 99
284 139
284 140
284 146
284 184
284 186
284 195
284 215
284 219
284 226
284 243
284 245
284 246
284 253
284 262
284 266
284 267
284 273
284 277
284 278
284 279
284 285
284 286
284 298
284 299
284 301
284 303
284 329
284 331
284 350
284 362
284 397
284 410
284 424
284 450
284 493
284 544
285 0
285 1
285 2
285 3
285 88
285 90
285 92
285 139
285 187
285 246
285 253
285 273
285 277
285 278
285 284
285 286
285 298
285 303
285 362
285 397
285 424
286 0
286 1
286 2
286 3
286 4
286 5
286 15
286 22
286 38
286 87
286 89
286 91
286 97
286 101
286 105
286 118
286 126
286 139
286 140
286 152
286 174
286 195
286 228
286 230
286 236
286 242
286 244
286 245
286 253
286 272
286 273
286 277
286 278
286 284
286 285
286 294
286 298
286 299
286 303
286 310
286 316
286 326
286 329
286 331
286 339
286 352
286 363
286 397
286 419
286 421
286 422
286 424
286 569
286 584
287 1
287 2
287 3
287 4
287 5
287 7
287 13
287 14
287 22
287 23
287 31
287 36
287 37
287 38
287 52
287 54
287 74
287 83
287 88
287 89
287 92
287 126
287 146
287 239
287 248
287 251
287 268
287 280
287 290
287 341
287 343
287 358
287 392
287 489
287 531
287 550
287 555
288 1
288 2
288 3
288 4
288 5
288 6
288 7
288 8
288 11
288 22
288 23
288 24
288 25
288 26
288 34
288 66
288 68
288 70
288 71
288 76
288 78
288 84
288 87
288 91
288 108
288 176
288 181
288 188
288 207
288 218
288 223
288 227
288 239
288 255
288 321
288 367
288 368
288 369
288 370
288 371
288 372
288 373
288 374
288 375
288 385
288 502
288 526
288 539
289 0
289 1
289 2
289 3
289 4
289 5
289 6
289 7
289 10
289 12
289 18
289 20
289 21
289 22
289 24
289 26
289 31
289 37
289 54
289 58
289 60
289 63
289 65
289 76
289 77
289 83
289 87
289 88
289 89
289 91
289 125
289 132
289 144
289 151
289 169
289 184
289 185
289 189
289 190
289 195
289 211
289 228
289 233
289 235
289 240
289 251
289 280
289 318
289 319
289 320
289 323
289 336
289 337
289 344
289 345
289 376
289 377
289 379
289 380
289 381
289 391
289 392
289 393
289 407
289 411
289 560
289 567
290 0
290 1
290 2
290 3
290 5
290 7
290 37
290 47
290 54
290 60
290 63
290 74
290 79
290 88
290 90
290 92
290 102
290 124
290 126
290 132
290 136
290 140
290 143
290 146
290 148
290 149
290 167
290 182
290 184
290 197
290 205
290 210
290 217
290 219
290 220
290 253
290 260
290 273
290 275
290 282
290 287
290 291
290 304
290 316
290 324
290 345
290 349
290 381
290 384
290 388
290 412
290 419
290 420
290 423
290 426
290 430
290 432
290 448
290 449
290 461
290 466
290 497
290 501
290 504
290 509
290 522
290 553
290 564
290 571
290 582
290 583
291 1
291 2
291 3
291 4
291 6
291 13
291 14
291 15
291 18
291 19
291 20
291 21
291 22
291 23
291 24
291 25
291 26
291 27
291 28
291 29
291 30
291 31
291 32
291 33
291 34
291 35
291 37
291 40
291 42
291 43
291 45
291 46
291 47
291 48
291 49
291 51
291 52
291 53
291 54
291 55
291 56
291 57
291 58
291 59
291 60
291 61
291 62
291 63
291 64
291 65
291 66
291 67
291 68
291 69
291 70
291 71
291 72
291 73
291 74
291 75
291 76
291 77
291 78
291 79
291 80
291 81
291 82
291 83
291 84
291 85
291 86
291 87
291 88
291 89
291 90
291 91
291 92
291 108
291 125
291 128
291 131
291 132
291 140
291 141
291 142
291 143
291 144
291 146
291 148
291 150
291 151
291 155
291 157
291 176
291 180
291 181
291 182
291 183
291 188
291 194
291 195
291 196
291 197
291 199
291 204
291 205
291 206
291 212
291 213
291 217
291 220
291 221
291 222
291 223
291 229
291 231
291 233
291 234
291 238
291 239
291 240
291 241
291 242
291 248
291 249
291 254
291 257
291 258
291 260
291 265
291 269
291 280
291 282
291 290
291 292
291 293
291 321
291 322
291 324
291 333
291 334
291 335
291 338
291 347
291 348
291 356
291 362
291 373
291 380
291 382
291 385
291 386
291 388
291 396
291 403
291 407
291 411
291 414
291 415
291 417
291 418
291 428
291 446
291 457
291 467
291 469
291 470
291 473
291 476
291 483
291 487
291 488
291 489
291 490
291 492
291 493
291 494
291 503
291 505
291 511
291 516
291 517
291 522
291 523
291 543
291 547
291 550
291 554
291 556
291 569
291 570
291 575
291 584
291 585
291 587
291 588
292 1
292 2
292 7
292 20
292 33
292 34
292 55
292 56
292 57
292 58
292 59
292 60
292 61
292 62
292 63
292 64
292 65
292 66
292 67
292 68
292 69
292 70
292 71
292 72
292 73
292 75
292 76
292 77
292 78
292 79
292 80
292 81
292 82
292 83
292 84
292 85
292 86
292 87
292 88
292 90
292 91
292 92
292 125
292 128
292 140
292 142
292 144
292 146
292 150
292 155
292 167
292 176
292 180
292 181
292 182
292 183
292 194
292 195
292 197
292 204
292 212
292 218
292 220
292 221
292 222
292 223
292 233
292 238
292 239
292 240
292 241
292 242
292 249
292 254
292 265
292 280
292 281
292 291
292 293
292 321
292 327
292 333
292 334
292 335
292 338
292 347
292 348
292 351
292 356
292 362
292 367
292 369
292 371
292 372
292 373
292 380
292 382
292 385
292 386
292 388
292 403
292 405
292 407
292 413
292 414
292 415
292 416
292 417
292 418
292 428
292 502
292 505
292 511
293 0
293 1
293 2
293 3
293 4
293 18
293 19
293 20
293 21
293 22
293 23
293 24
293 25
293 26
293 27
293 28
293 29
293 30
293 31
293 32
293 33
293 34
293 37
293 42
293 43
293 44
293 45
293 46
293 47
293 48
293 53
293 54
293 55
293 56
293 57
293 58
293 59
293 60
293 61
293 62
293 63
293 64
293 65
293 66
293 67
293 68
293 69
293 70
293 71
293 72
293 73
293 74
293 75
293 76
293 77
293 78
293 79
293 80
293 81
293 82
293 83
293 84
293 85
293 86
293 87
293 88
293 89
293 90
293 91
293 92
293 125
293 128
293 132
293 140
293 141
293 142
293 143
293 144
293 145
293 148
293 150
293 155
293 157
293 166
293 176
293 180
293 181
293 182
293 183
293 188
293 194
293 195
293 196
293 197
293 198
293 199
293 204
293 205
293 206
293 212
293 217
293 219
293 220
293 221
293 222
293 223
293 229
293 233
293 234
293 238
293 239
293 240
293 241
293 242
293 249
293 254
293 257
293 259
293 265
293 280
293 282
293 291
293 292
293 293
293 297
293 298
293 321
293 322
293 333
293 334
293 335
293 338
293 347
293 348
293 350
293 356
293 362
293 366
293 373
293 380
293 382
293 385
293 386
293 388
293 396
293 403
293 407
293 414
293 415
293 417
293 418
293 424
293 425
293 428
293 432
293 457
293 467
293 469
293 470
293 473
293 476
293 488
293 492
293 503
293 505
293 511
293 516
293 517
293 538
293 547
293 554
293 556
293 563
293 569
293 570
293 585
293 587
293 588
294 0
294 1
294 2
294 4
294 97
294 105
294 109
294 114
294 124
294 167
294 174
294 177
294 243
294 266
294 272
294 276
294 286
294 327
295 1
295 2
295 4
295 7
295 13
295 14
295 15
295 16
295 17
295 29
295 30
295 31
295 32
295 35
295 36
295 37
295 38
295 39
295 40
295 41
295 42
295 43
295 44
295 45
295 46
295 47
295 48
295 49
295 50
295 51
295 52
295 53
295 54
295 74
295 80
295 81
295 82
295 83
295 85
295 89
295 90
295 92
295 128
295 132
295 143
295 146
295 147
295 148
295 220
295 237
295 258
295 259
295 269
295 282
295 332
295 341
295 343
295 353
295 389
295 411
295 425
295 430
295 444
295 449
295 454
295 487
295 489
295 493
295 510
295 531
295 535
295 550
295 565
295 574
295 575
296 0
296 1
296 2
296 3
296 4
296 19
296 20
296 21
296 22
296 24
296 25
296 26
296 87
296 91
296 99
296 129
296 141
296 142
296 144
296 157
296 167
296 177
296 183
296 196
296 199
296 223
296 241
296 296
296 357
296 382
296 386
296 403
296 473
296 497
296 538
296 542
297 0
297 1
297 2
297 3
297 4
297 7
297 14
297 20
297 59
297 78
297 93
297 96
297 105
297 109
297 118
297 119
297 120
297 124
297 127
297 145
297 150
297 197
297 198
297 252
297 253
297 263
297 270
297 275
297 276
297 293
297 298
297 366
297 427
298 0
298 1
298 2
298 3
298 4
298 20
298 22
298 57
298 74
298 75
298 92
298 145
298 147
298 150
298 190
298 197
298 207
298 232
298 246
298 250
298 253
298 277
298 284
298 285
298 286
298 293
298 297
298 298
298 350
298 366
298 426
298 432
298 453
298 584
299 0
299 1
299 2
299 3
299 4
299 5
299 22
299 118
299 119
299 185
299 189
299 195
299 214
299 215
299 236
299 242
299 243
299 245
299 254
299 262
299 266
299 272
299 279
299 284
299 286
299 310
299 331
299 408
300 0
300 1
300 2
300 3
300 4
300 49
300 54
300 74
300 88
300 89
300 90
300 92
300 110
300 145
300 147
300 264
300 270
300 275
300 327
300 353
300 354
300 358
300 359
300 363
300 366
300 450
300 500
300 520
300 536
300 582
301 1
301 2
301 5
301 21
301 22
301 60
301 118
301 156
301 159
301 180
301 195
301 231
301 236
301 242
301 245
301 262
301 266
301 284
301 301
301 530
302 1
302 2
302 3
302 4
302 14
302 21
302 137
302 169
302 202
302 221
302 274
302 523
303 0
303 1
303 2
303 3
303 4
303 49
303 51
303 52
303 96
303 99
303 105
303 110
303 112
303 123
303 139
303 174
303 179
303 211
303 215
303 225
303 226
303 245
303 246
303 253
303 266
303 267
303 273
303 277
303 278
303 279
303 284
303 285
303 286
303 315
303 331
303 339
303 362
303 397
303 424
303 491
303 577
303 580
303 581
304 0
304 1
304 2
304 3
304 4
304 5
304 7
304 9
304 15
304 19
304 22
304 37
304 38
304 43
304 57
304 67
304 74
304 75
304 76
304 78
304 89
304 91
304 92
304 102
304 118
304 131
304 132
304 136
304 137
304 140
304 146
304 149
304 165
304 167
304 176
304 186
304 197
304 206
304 210
304 219
304 235
304 241
304 248
304 253
304 257
304 270
304 290
304 328
304 345
304 363
304 396
304 419
304 420
304 421
304 422
304 423
304 424
304 425
304 426
304 427
304 428
304 429
304 430
304 431
304 432
304 434
304 461
304 493
304 504
304 522
304 532
304 534
304 546
304 575
304 582
304 583
304 584
304 585
304 586
304 587
304 588
304 589
305 0
305 1
305 2
305 3
305 4
305 72
305 107
305 108
305 109
305 112
305 137
305 139
305 145
305 146
305 179
305 195
305 214
305 226
305 243
305 245
305 246
305 260
305 305
305 387
305 430
305 568
306 0
306 1
306 2
306 3
306 4
306 93
306 101
306 105
306 112
306 190
306 201
306 283
306 329
306 443
307 0
307 1
307 2
307 4
307 109
307 111
307 121
307 138
307 266
307 308
307 309
307 312
307 315
307 577
307 578
307 579
307 580
308 1
308 2
308 3
308 4
308 121
308 134
308 138
308 195
308 307
308 308
308 309
308 311
308 312
308 314
308 315
308 317
308 577
308 578
308 579
309 0
309 1
309 2
309 3
309 4
309 101
309 103
309 110
309 121
309 134
309 138
309 190
309 193
309 266
309 307
309 308
309 311
309 312
309 314
309 315
309 317
309 577
309 578
309 579
309 580
310 0
310 1
310 2
310 3
310 4
310 22
310 25
310 51
310 56
310 88
310 89
310 99
310 109
310 114
310 123
310 141
310 149
310 158
310 170
310 171
310 176
310 192
310 199
310 221
310 236
310 242
310 253
310 272
310 286
310 299
310 310
310 316
310 326
310 329
310 331
310 339
310 342
310 363
310 400
310 401
310 483
310 576
311 0
311 1
311 4
311 110
311 114
311 121
311 134
311 138
311 146
311 208
311 211
311 215
311 308
311 309
311 311
311 312
311 314
311 317
311 577
311 578
311 579
311 580
312 0
312 1
312 2
312 3
312 4
312 5
312 101
312 103
312 104
312 109
312 110
312 118
312 121
312 134
312 138
312 190
312 215
312 225
312 253
312 266
312 307
312 308
312 309
312 311
312 312
312 314
312 315
312 317
312 329
312 357
312 383
312 577
312 578
312 579
312 580
312 589
313 0
313 1
313 2
313 3
313 5
313 6
313 21
313 22
313 32
313 50
313 75
313 84
313 85
313 86
313 88
313 90
313 148
313 152
313 256
313 260
313 320
313 372
313 386
313 411
313 502
313 513
313 547
313 556
314 0
314 1
314 2
314 3
314 4
314 107
314 121
314 134
314 138
314 243
314 266
314 308
314 309
314 311
314 312
314 315
314 317
314 577
314 578
314 579
314 580
315 1
315 2
315 3
315 96
315 118
315 121
315 134
315 138
315 174
315 226
315 253
315 303
315 307
315 308
315 309
315 312
315 314
315 317
315 577
315 578
315 579
316 0
316 1
316 2
316 3
316 4
316 5
316 6
316 13
316 14
316 20
316 22
316 31
316 35
316 39
316 59
316 72
316 74
316 77
316 83
316 84
316 88
316 90
316 91
316 99
316 109
316 118
316 123
316 132
316 133
316 137
316 146
316 148
316 149
316 161
316 165
316 170
316 176
316 181
316 199
316 205
316 209
316 210
316 215
316 216
316 217
316 236
316 237
316 242
316 248
316 253
316 260
316 272
316 286
316 290
316 310
316 325
316 326
316 329
316 330
316 331
316 339
316 341
316 363
316 386
316 387
316 398
316 406
316 409
316 412
316 417
316 445
316 462
316 555
316 556
316 576
316 582
317 0
317 1
317 4
317 110
317 115
317 121
317 134
317 138
317 308
317 309
317 311
317 312
317 314
317 315
317 577
317 578
317 579
318 0
318 1
318 2
318 3
318 4
318 5
318 6
318 10
318 21
318 22
318 24
318 26
318 60
318 77
318 84
318 86
318 87
318 92
318 125
318 128
318 151
318 176
318 184
318 185
318 189
318 195
318 211
318 228
318 239
318 240
318 289
318 318
318 319
318 320
318 323
318 327
318 328
318 336
318 337
318 376
318 384
318 397
318 541
318 560
318 583
319 0
319 1
319 2
319 3
319 4
319 5
319 6
319 10
319 21
319 22
319 24
319 26
319 57
319 60
319 77
319 84
319 87
319 89
319 91
319 92
319 97
319 125
319 151
319 166
319 184
319 185
319 189
319 191
319 195
319 211
319 228
319 235
319 239
319 240
319 241
319 251
319 258
319 280
319 289
319 318
319 319
319 320
319 323
319 327
319 332
319 336
319 337
319 348
319 351
319 376
319 405
319 465
319 560
319 562
320 0
320 1
320 2
320 3
320 4
320 5
320 6
320 10
320 19
320 20
320 22
320 24
320 26
320 59
320 60
320 75
320 77
320 84
320 87
320 90
320 91
320 92
320 97
320 120
320 125
320 148
320 151
320 168
320 176
320 184
320 185
320 189
320 195
320 211
320 228
320 239
320 256
320 289
320 313
320 318
320 319
320 320
320 323
320 334
320 336
320 337
320 338
320 351
320 382
320 560
320 572
321 0
321 1
321 2
321 3
321 4
321 5
321 6
321 7
321 8
321 11
321 12
321 13
321 15
321 16
321 18
321 19
321 20
321 21
321 22
321 23
321 24
321 25
321 26
321 27
321 28
321 29
321 30
321 31
321 32
321 33
321 34
321 41
321 45
321 46
321 47
321 50
321 53
321 55
321 56
321 57
321 58
321 59
321 60
321 61
321 62
321 63
321 64
321 65
321 66
321 67
321 68
321 69
321 70
321 71
321 72
321 73
321 75
321 76
321 77
321 78
321 79
321 80
321 81
321 82
321 83
321 84
321 85
321 86
321 87
321 88
321 89
321 90
321 91
321 92
321 118
321 123
321 125
321 128
321 132
321 140
321 141
321 142
321 144
321 148
321 150
321 155
321 157
321 176
321 177
321 180
321 181
321 182
321 183
321 187
321 188
321 194
321 195
321 196
321 197
321 199
321 204
321 205
321 206
321 212
321 214
321 217
321 218
321 220
321 221
321 222
321 223
321 224
321 227
321 229
321 231
321 233
321 234
321 238
321 239
321 240
321 241
321 242
321 249
321 251
321 253
321 254
321 257
321 265
321 280
321 288
321 291
321 292
321 293
321 329
321 333
321 334
321 335
321 338
321 347
321 348
321 356
321 362
321 367
321 370
321 373
321 380
321 382
321 385
321 386
321 388
321 396
321 403
321 407
321 414
321 415
321 416
321 417
321 418
321 428
321 444
321 457
321 465
321 469
321 470
321 473
321 474
321 475
321 476
321 478
321 479
321 480
321 483
321 488
321 491
321 492
321 495
321 499
321 502
321 503
321 505
321 511
321 515
321 516
321 517
321 538
321 547
321 548
321 554
321 556
321 558
321 562
321 563
321 569
321 570
321 574
321 585
321 587
321 588
322 1
322 2
322 3
322 4
322 14
322 15
322 16
322 18
322 20
322 21
322 22
322 25
322 31
322 35
322 39
322 48
322 49
322 54
322 56
322 63
322 74
322 79
322 86
322 88
322 89
322 90
322 91
322 92
322 126
322 132
322 143
322 146
322 187
322 203
322 205
322 220
322 252
322 259
322 282
322 291
322 293
322 384
322 445
322 467
322 488
322 505
322 523
322 555
322 565
323 1
323 2
323 3
323 4
323 5
323 6
323 10
323 19
323 22
323 24
323 26
323 57
323 60
323 77
323 84
323 87
323 91
323 97
323 125
323 137
323 151
323 167
323 176
323 184
323 185
323 189
323 195
323 211
323 219
323 228
323 233
323 239
323 240
323 289
323 318
323 319
323 320
323 323
323 327
323 336
323 337
323 338
323 351
323 352
323 544
323 560
324 0
324 2
324 3
324 5
324 14
324 15
324 19
324 20
324 21
324 23
324 25
324 31
324 35
324 37
324 39
324 42
324 44
324 48
324 53
324 74
324 79
324 83
324 90
324 92
324 126
324 132
324 146
324 209
324 220
324 221
324 239
324 248
324 253
324 256
324 259
324 269
324 290
324 291
324 334
324 335
324 376
324 419
324 425
324 483
324 485
325 1
325 2
325 3
325 4
325 236
325 242
325 272
325 316
325 326
325 329
325 410
325 582
326 0
326 1
326 2
326 3
326 4
326 5
326 6
326 22
326 92
326 96
326 109
326 119
326 123
326 133
326 141
326 149
326 165
326 170
326 215
326 216
326 236
326 242
326 257
326 266
326 272
326 286
326 310
326 316
326 325
326 326
326 327
326 329
326 330
326 331
326 339
326 346
326 357
326 358
326 363
326 398
326 401
326 402
326 410
326 530
326 582
327 0
327 1
327 2
327 3
327 4
327 5
327 22
327 59
327 85
327 87
327 88
327 94
327 109
327 110
327 118
327 119
327 133
327 145
327 147
327 149
327 165
327 174
327 185
327 187
327 188
327 189
327 199
327 211
327 216
327 233
327 236
327 242
327 264
327 266
327 272
327 273
327 292
327 294
327 300
327 318
327 319
327 323
327 326
327 327
327 330
327 336
327 337
327 346
327 348
327 351
327 358
327 359
327 361
327 363
327 376
327 388
327 402
327 486
327 500
327 507
327 530
327 536
327 560
327 582
327 584
328 1
328 3
328 9
328 14
328 35
328 37
328 43
328 58
328 63
328 67
328 73
328 74
328 75
328 78
328 85
328 89
328 90
328 91
328 92
328 131
328 132
328 136
328 140
328 146
328 186
328 197
328 206
328 209
328 210
328 219
328 235
328 240
328 258
328 304
328 318
328 341
328 343
328 376
328 382
328 396
328 419
328 420
328 421
328 422
328 423
328 424
328 425
328 426
328 427
328 428
328 429
328 430
328 431
328 432
328 461
328 504
328 534
328 583
328 584
328 585
328 586
328 587
328 588
329 0
329 1
329 2
329 3
329 4
329 6
329 22
329 78
329 90
329 92
329 96
329 105
329 109
329 112
329 118
329 132
329 136
329 141
329 149
329 170
329 176
329 178
329 179
329 199
329 201
329 205
329 214
329 217
329 236
329 242
329 245
329 246
329 262
329 266
329 272
329 284
329 286
329 306
329 310
329 312
329 316
329 321
329 325
329 326
329 331
329 339
329 344
329 360
329 363
329 407
329 410
329 422
329 441
329 442
329 443
329 509
329 539
329 542
329 580
329 582
329 589
330 0
330 1
330 2
330 3
330 4
330 5
330 6
330 25
330 39
330 109
330 119
330 123
330 133
330 149
330 158
330 161
330 165
330 170
330 176
330 192
330 199
330 215
330 316
330 326
330 327
330 340
330 342
330 361
330 364
330 365
330 395
330 402
331 0
331 1
331 2
331 3
331 4
331 22
331 89
331 112
331 140
331 170
331 195
331 214
331 236
331 242
331 244
331 245
331 272
331 284
331 286
331 299
331 303
331 310
331 316
331 326
331 329
331 339
331 344
331 363
331 388
331 400
331 403
331 483
331 509
331 555
331 582
332 0
332 1
332 2
332 3
332 4
332 5
332 13
332 14
332 15
332 16
332 17
332 19
332 24
332 25
332 29
332 30
332 31
332 32
332 35
332 36
332 37
332 38
332 39
332 40
332 41
332 42
332 43
332 44
332 45
332 46
332 47
332 48
332 49
332 50
332 51
332 52
332 53
332 71
332 74
332 80
332 81
332 82
332 83
332 84
332 85
332 89
332 90
332 92
332 143
332 146
332 147
332 148
332 217
332 237
332 258
332 259
332 269
332 295
332 319
332 335
332 341
332 343
332 353
332 376
332 389
332 392
332 411
332 415
332 444
332 447
332 449
332 454
332 456
332 487
332 489
332 493
332 510
332 531
332 550
332 557
332 565
332 574
332 575
333 0
333 1
333 2
333 3
333 18
333 19
333 20
333 21
333 22
333 23
333 24
333 25
333 26
333 27
333 28
333 29
333 30
333 31
333 32
333 33
333 34
333 45
333 46
333 47
333 50
333 53
333 55
333 56
333 57
333 58
333 59
333 60
333 61
333 62
333 63
333 64
333 65
333 66
333 67
333 68
333 69
333 70
333 71
333 72
333 73
333 75
333 76
333 77
333 78
333 79
333 80
333 81
333 82
333 83
333 84
333 85
333 86
333 87
333 88
333 89
333 90
333 91
333 92
333 125
333 128
333 132
333 140
333 141
333 142
333 144
333 148
333 150
333 155
333 157
333 176
333 180
333 181
333 182
333 183
333 188
333 194
333 195
333 196
333 197
333 199
333 204
333 205
333 206
333 212
333 217
333 220
333 221
333 222
333 223
333 229
333 233
333 234
333 238
333 239
333 240
333 241
333 242
333 249
333 254
333 257
333 265
333 280
333 291
333 292
333 293
333 321
333 334
333 335
333 338
333 347
333 348
333 356
333 362
333 373
333 380
333 382
333 385
333 386
333 388
333 396
333 403
333 407
333 414
333 415
333 417
333 418
333 428
333 457
333 469
333 470
333 473
333 476
333 488
333 492
333 503
333 505
333 511
333 516
333 517
333 547
333 554
333 556
333 563
333 569
333 570
333 585
333 587
333 588
334 0
334 1
334 2
334 3
334 4
334 18
334 19
334 20
334 21
334 22
334 23
334 24
334 25
334 26
334 27
334 28
334 29
334 30
334 31
334 32
334 33
334 34
334 45
334 46
334 47
334 53
334 55
334 56
334 57
334 58
334 59
334 60
334 61
334 62
334 63
334 64
334 65
334 66
334 67
334 68
334 69
334 70
334 71
334 72
334 73
334 75
334 76
334 77
334 78
334 79
334 80
334 81
334 82
334 83
334 84
334 85
334 86
334 87
334 88
334 90
334 91
334 92
334 125
334 128
334 132
334 140
334 141
334 142
334 144
334 148
334 150
334 154
334 155
334 157
334 158
334 176
334 180
334 181
334 182
334 183
334 188
334 194
334 195
334 196
334 197
334 199
334 204
334 205
334 206
334 207
334 212
334 217
334 220
334 221
334 222
334 223
334 229
334 233
334 234
334 238
334 239
334 240
334 241
334 242
334 249
334 254
334 255
334 256
334 257
334 265
334 280
334 291
334 292
334 293
334 320
334 321
334 324
334 333
334 335
334 338
334 347
334 348
334 356
334 362
334 373
334 380
334 382
334 385
334 386
334 388
334 396
334 403
334 407
334 414
334 415
334 417
334 418
334 428
334 453
334 457
334 460
334 467
334 469
334 470
334 472
334 473
334 476
334 479
334 488
334 492
334 503
334 505
334 511
334 516
334 517
334 530
334 547
334 554
334 556
334 569
334 570
334 585
334 587
334 588
335 0
335 1
335 2
335 3
335 15
335 16
335 18
335 19
335 20
335 21
335 22
335 23
335 24
335 25
335 26
335 27
335 28
335 29
335 30
335 31
335 32
335 33
335 34
335 42
335 43
335 45
335 46
335 47
335 48
335 49
335 53
335 54
335 55
335 56
335 57
335 58
335 59
335 60
335 61
335 62
335 63
335 64
335 65
335 66
335 67
335 68
335 69
335 70
335 71
335 72
335 73
335 75
335 76
335 77
335 78
335 79
335 80
335 81
335 82
335 83
335 84
335 85
335 86
335 87
335 88
335 90
335 91
335 92
335 125
335 128
335 132
335 140
335 141
335 142
335 144
335 146
335 148
335 150
335 155
335 157
335 176
335 180
335 181
335 182
335 183
335 188
335 194
335 195
335 196
335 197
335 199
335 204
335 205
335 206
335 212
335 217
335 220
335 221
335 222
335 223
335 229
335 233
335 234
335 238
335 239
335 240
335 241
335 242
335 249
335 254
335 257
335 265
335 280
335 291
335 292
335 293
335 321
335 324
335 332
335 333
335 334
335 338
335 347
335 348
335 356
335 362
335 373
335 380
335 382
335 385
335 386
335 388
335 396
335 403
335 407
335 414
335 415
335 417
335 418
335 422
335 428
335 457
335 467
335 469
335 470
335 473
335 476
335 488
335 492
335 503
335 505
335 506
335 511
335 516
335 517
335 547
335 553
335 554
335 556
335 568
335 569
335 570
335 575
335 585
335 587
335 588
336 1
336 3
336 4
336 5
336 6
336 10
336 15
336 21
336 22
336 24
336 26
336 35
336 51
336 54
336 60
336 65
336 70
336 74
336 76
336 77
336 83
336 84
336 85
336 87
336 89
336 90
336 91
336 108
336 125
336 151
336 154
336 169
336 170
336 185
336 189
336 195
336 209
336 211
336 228
336 234
336 239
336 240
336 242
336 280
336 289
336 318
336 319
336 320
336 323
336 327
336 337
336 344
336 376
336 389
336 407
336 411
336 412
336 560
337 0
337 1
337 2
337 3
337 4
337 5
337 6
337 10
337 22
337 24
337 26
337 60
337 77
337 79
337 84
337 87
337 89
337 91
337 125
337 151
337 185
337 189
337 195
337 211
337 223
337 228
337 235
337 239
337 289
337 318
337 319
337 320
337 323
337 327
337 336
337 337
337 338
337 344
337 345
337 351
337 379
337 405
337 546
337 560
338 0
338 1
338 2
338 3
338 4
338 5
338 6
338 7
338 18
338 19
338 20
338 21
338 22
338 23
338 24
338 25
338 26
338 27
338 28
338 29
338 30
338 31
338 32
338 33
338 34
338 45
338 46
338 47
338 53
338 55
338 56
338 57
338 58
338 59
338 60
338 61
338 62
338 63
338 64
338 65
338 66
338 67
338 68
338 69
338 70
338 71
338 72
338 73
338 74
338 75
338 76
338 77
338 78
338 79
338 80
338 81
338 82
338 83
338 84
338 85
338 86
338 87
338 88
338 90
338 91
338 92
338 125
338 128
338 132
338 140
338 141
338 142
338 144
338 148
338 150
338 154
338 155
338 157
338 158
338 168
338 176
338 180
338 181
338 182
338 183
338 185
338 187
338 188
338 189
338 194
338 195
338 196
338 197
338 199
338 204
338 205
338 206
338 211
338 212
338 217
338 220
338 221
338 222
338 223
338 229
338 233
338 234
338 238
338 239
338 240
338 241
338 242
338 249
338 251
338 254
338 257
338 263
338 265
338 280
338 291
338 292
338 293
338 320
338 321
338 323
338 333
338 334
338 335
338 337
338 347
338 348
338 351
338 356
338 362
338 373
338 380
338 382
338 385
338 386
338 388
338 396
338 403
338 405
338 407
338 414
338 415
338 417
338 418
338 428
338 432
338 441
338 457
338 469
338 470
338 473
338 476
338 488
338 492
338 503
338 505
338 507
338 511
338 516
338 517
338 538
338 539
338 547
338 554
338 556
338 557
338 560
338 569
338 570
338 584
338 585
338 587
338 588
339 0
339 1
339 2
339 3
339 4
339 22
339 112
339 179
339 225
339 226
339 236
339 242
339 245
339 253
339 262
339 267
339 272
339 286
339 303
339 310
339 316
339 326
339 329
339 331
339 363
339 530
340 0
340 1
340 2
340 3
340 4
340 6
340 92
340 109
340 133
340 149
340 330
340 346
340 365
340 390
340 402
341 1
341 3
341 4
341 5
341 7
341 13
341 14
341 15
341 16
341 17
341 19
341 29
341 30
341 31
341 32
341 35
341 36
341 37
341 38
341 39
341 40
341 41
341 42
341 43
341 44
341 45
341 46
341 47
341 48
341 49
341 50
341 51
341 52
341 53
341 54
341 73
341 74
341 79
341 80
341 81
341 82
341 83
341 85
341 89
341 90
341 91
341 92
341 132
341 147
341 237
341 240
341 258
341 259
341 269
341 287
341 295
341 316
341 328
341 332
341 343
341 345
341 353
341 376
341 389
341 391
341 411
341 415
341 444
341 447
341 449
341 454
341 487
341 489
341 493
341 510
341 531
341 550
341 565
341 574
341 575
341 583
342 0
342 1
342 2
342 3
342 4
342 5
342 6
342 39
342 52
342 86
342 92
342 109
342 123
342 149
342 158
342 161
342 165
342 170
342 174
342 190
342 199
342 216
342 310
342 330
342 358
342 363
342 364
342 390
342 400
342 511
342 558
342 582
343 3
343 4
343 5
343 13
343 14
343 15
343 16
343 17
343 24
343 25
343 29
343 30
343 31
343 32
343 35
343 36
343 37
343 38
343 39
343 40
343 41
343 42
343 43
343 44
343 45
343 46
343 47
343 48
343 49
343 50
343 51
343 52
343 53
343 65
343 71
343 73
343 74
343 80
343 81
343 82
343 83
343 84
343 85
343 89
343 90
343 91
343 92
343 132
343 146
343 147
343 206
343 209
343 237
343 258
343 259
343 269
343 280
343 287
343 295
343 328
343 332
343 341
343 345
343 353
343 376
343 389
343 392
343 411
343 444
343 449
343 454
343 487
343 489
343 493
343 510
343 531
343 550
343 565
343 574
343 575
343 583
344 0
344 1
344 2
344 3
344 4
344 5
344 6
344 14
344 22
344 23
344 37
344 63
344 73
344 77
344 78
344 91
344 118
344 125
344 144
344 154
344 169
344 185
344 189
344 195
344 211
344 228
344 236
344 239
344 242
344 245
344 289
344 329
344 331
344 336
344 337
344 345
344 368
344 369
344 376
344 407
344 415
344 441
344 480
344 483
345 0
345 1
345 2
345 3
345 4
345 5
345 13
345 14
345 21
345 24
345 35
345 37
345 43
345 52
345 53
345 71
345 73
345 74
345 83
345 84
345 86
345 89
345 90
345 91
345 92
345 108
345 150
345 154
345 176
345 220
345 235
345 239
345 240
345 248
345 281
345 289
345 290
345 304
345 337
345 341
345 343
345 344
345 376
345 380
345 389
345 392
345 560
346 0
346 1
346 2
346 3
346 5
346 65
346 96
346 109
346 119
346 133
346 149
346 165
346 185
346 189
346 197
346 216
346 240
346 326
346 327
346 340
346 358
346 365
346 390
346 402
347 0
347 1
347 2
347 3
347 4
347 6
347 12
347 18
347 19
347 20
347 21
347 22
347 23
347 24
347 25
347 26
347 27
347 28
347 29
347 30
347 31
347 32
347 33
347 34
347 45
347 46
347 47
347 53
347 55
347 56
347 57
347 58
347 59
347 60
347 61
347 62
347 63
347 64
347 65
347 66
347 67
347 68
347 69
347 70
347 71
347 72
347 73
347 75
347 76
347 77
347 78
347 79
347 80
347 81
347 82
347 83
347 84
347 85
347 86
347 87
347 88
347 90
347 91
347 92
347 108
347 125
347 128
347 132
347 140
347 141
347 142
347 144
347 148
347 150
347 155
347 157
347 176
347 180
347 181
347 182
347 183
347 188
347 194
347 195
347 196
347 197
347 199
347 203
347 204
347 205
347 206
347 207
347 211
347 212
347 217
347 220
347 221
347 222
347 223
347 229
347 233
347 234
347 238
347 239
347 240
347 241
347 242
347 249
347 254
347 255
347 257
347 265
347 280
347 291
347 292
347 293
347 321
347 333
347 334
347 335
347 338
347 348
347 350
347 356
347 362
347 373
347 380
347 382
347 385
347 386
347 388
347 396
347 403
347 407
347 414
347 415
347 417
347 418
347 428
347 452
347 457
347 463
347 464
347 469
347 470
347 473
347 476
347 488
347 492
347 496
347 503
347 505
347 511
347 516
347 517
347 519
347 524
347 544
347 547
347 554
347 555
347 556
347 569
347 570
347 585
347 587
347 588
348 0
348 1
348 2
348 3
348 4
348 6
348 13
348 18
348 19
348 20
348 21
348 22
348 23
348 24
348 25
348 26
348 27
348 28
348 29
348 30
348 31
348 32
348 33
348 34
348 36
348 45
348 46
348 47
348 53
348 54
348 55
348 56
348 57
348 58
348 59
348 60
348 61
348 62
348 63
348 64
348 65
348 66
348 67
348 68
348 69
348 70
348 71
348 72
348 73
348 75
348 76
348 77
348 78
348 79
348 80
348 81
348 82
348 83
348 84
348 85
348 86
348 87
348 88
348 90
348 91
348 92
348 112
348 125
348 128
348 132
348 140
348 141
348 142
348 144
348 148
348 150
348 154
348 155
348 157
348 167
348 176
348 180
348 181
348 182
348 183
348 188
348 194
348 195
348 196
348 197
348 199
348 204
348 205
348 206
348 212
348 217
348 220
348 221
348 222
348 223
348 229
348 233
348 234
348 238
348 239
348 240
348 241
348 242
348 244
348 249
348 251
348 254
348 257
348 263
348 265
348 280
348 291
348 292
348 293
348 319
348 321
348 327
348 333
348 334
348 335
348 338
348 347
348 356
348 362
348 373
348 380
348 382
348 385
348 386
348 388
348 396
348 403
348 407
348 414
348 415
348 417
348 418
348 428
348 457
348 469
348 470
348 473
348 476
348 487
348 488
348 492
348 503
348 505
348 511
348 516
348 517
348 547
348 554
348 556
348 569
348 570
348 585
348 587
348 588
349 1
349 2
349 3
349 7
349 74
349 92
349 132
349 146
349 209
349 248
349 260
349 290
349 419
349 430
349 466
349 563
350 0
350 1
350 2
350 3
350 4
350 5
350 6
350 10
350 14
350 18
350 19
350 20
350 22
350 23
350 24
350 25
350 26
350 27
350 34
350 38
350 54
350 56
350 58
350 60
350 62
350 63
350 73
350 74
350 75
350 78
350 84
350 86
350 87
350 89
350 90
350 91
350 92
350 108
350 155
350 169
350 176
350 201
350 203
350 205
350 207
350 211
350 213
350 223
350 235
350 238
350 239
350 271
350 284
350 293
350 298
350 347
350 356
350 366
350 380
350 382
350 385
350 387
350 396
350 397
350 447
350 454
350 456
350 457
350 460
350 467
350 492
350 496
350 538
350 556
350 563
350 574
351 0
351 1
351 2
351 3
351 4
351 5
351 10
351 19
351 22
351 24
351 25
351 58
351 61
351 66
351 68
351 73
351 76
351 77
351 84
351 87
351 108
351 167
351 185
351 189
351 239
351 292
351 319
351 320
351 323
351 327
351 337
351 338
351 376
351 403
351 405
351 413
351 414
351 526
351 560
352 0
352 1
352 3
352 72
352 93
352 97
352 105
352 110
352 111
352 135
352 174
352 286
352 323
352 580
353 2
353 3
353 13
353 14
353 15
353 16
353 17
353 20
353 29
353 30
353 31
353 32
353 35
353 36
353 37
353 38
353 39
353 40
353 41
353 42
353 43
353 44
353 45
353 46
353 47
353 48
353 49
353 50
353 51
353 52
353 53
353 54
353 73
353 79
353 80
353 81
353 82
353 83
353 85
353 88
353 89
353 90
353 91
353 92
353 147
353 237
353 258
353 259
353 269
353 295
353 300
353 332
353 341
353 343
353 389
353 411
353 444
353 449
353 450
353 454
353 487
353 489
353 493
353 510
353 531
353 550
353 565
353 569
353 574
353 575
354 0
354 1
354 2
354 3
354 101
354 264
354 270
354 300
354 533
354 536
354 582
355 3
355 109
355 149
355 192
356 1
356 2
356 3
356 4
356 5
356 6
356 10
356 11
356 12
356 18
356 19
356 20
356 21
356 22
356 23
356 24
356 25
356 26
356 27
356 28
356 29
356 30
356 31
356 32
356 33
356 34
356 45
356 46
356 47
356 50
356 51
356 52
356 53
356 55
356 56
356 57
356 58
356 59
356 60
356 61
356 62
356 63
356 64
356 65
356 66
356 67
356 68
356 69
356 70
356 71
356 72
356 73
356 75
356 76
356 77
356 78
356 79
356 80
356 81
356 82
356 83
356 84
356 85
356 86
356 87
356 88
356 89
356 90
356 91
356 92
356 108
356 125
356 128
356 132
356 140
356 141
356 142
356 144
356 148
356 150
356 155
356 157
356 176
356 180
356 181
356 182
356 183
356 187
356 188
356 194
356 195
356 196
356 197
356 199
356 204
356 205
356 206
356 212
356 217
356 220
356 221
356 222
356 223
356 229
356 233
356 234
356 238
356 239
356 240
356 241
356 242
356 249
356 254
356 257
356 265
356 280
356 291
356 292
356 293
356 321
356 333
356 334
356 335
356 338
356 347
356 348
356 350
356 362
356 373
356 380
356 382
356 385
356 386
356 387
356 388
356 396
356 403
356 407
356 412
356 414
356 415
356 417
356 418
356 428
356 457
356 469
356 470
356 473
356 476
356 488
356 492
356 494
356 503
356 505
356 511
356 516
356 517
356 527
356 547
356 554
356 556
356 569
356 570
356 585
356 587
356 588
357 0
357 1
357 2
357 3
357 4
357 5
357 6
357 92
357 118
357 123
357 133
357 144
357 170
357 199
357 215
357 226
357 236
357 244
357 245
357 262
357 296
357 312
357 326
357 383
357 407
357 410
357 478
357 483
358 0
358 1
358 2
358 3
358 4
358 5
358 13
358 36
358 74
358 76
358 90
358 91
358 92
358 96
358 103
358 109
358 119
358 133
358 149
358 165
358 190
358 216
358 220
358 240
358 270
358 273
358 282
358 287
358 300
358 326
358 327
358 342
358 346
358 358
358 363
358 402
358 422
358 515
358 572
358 582
358 584
359 0
359 1
359 2
359 3
359 92
359 110
359 264
359 268
359 270
359 300
359 327
359 536
359 582
360 0
360 1
360 3
360 109
360 273
360 329
361 0
361 1
361 2
361 3
361 5
361 92
361 109
361 110
361 118
361 119
361 123
361 133
361 149
361 159
361 165
361 230
361 327
361 330
361 395
361 402
361 404
362 0
362 1
362 2
362 3
362 4
362 18
362 19
362 20
362 21
362 22
362 23
362 24
362 25
362 26
362 27
362 28
362 29
362 30
362 31
362 32
362 33
362 34
362 43
362 45
362 46
362 47
362 53
362 55
362 56
362 57
362 58
362 59
362 60
362 61
362 62
362 63
362 64
362 65
362 66
362 67
362 68
362 69
362 70
362 71
362 72
362 73
362 75
362 76
362 77
362 78
362 79
362 80
362 81
362 82
362 83
362 84
362 85
362 86
362 87
362 88
362 90
362 91
362 92
362 125
362 128
362 132
362 139
362 140
362 141
362 142
362 144
362 145
362 148
362 150
362 154
362 155
362 157
362 169
362 174
362 176
362 180
362 181
362 182
362 183
362 188
362 194
362 195
362 196
362 197
362 199
362 204
362 205
362 206
362 212
362 217
362 220
362 221
362 222
362 223
362 229
362 233
362 234
362 238
362 239
362 240
362 241
362 242
362 249
362 253
362 254
362 257
362 265
362 266
362 273
362 277
362 278
362 280
362 284
362 285
362 291
362 292
362 293
362 303
362 321
362 333
362 334
362 335
362 338
362 347
362 348
362 356
362 373
362 379
362 380
362 382
362 385
362 386
362 388
362 396
362 397
362 403
362 407
362 414
362 415
362 417
362 418
362 424
362 428
362 457
362 469
362 470
362 473
362 476
362 488
362 492
362 503
362 505
362 511
362 516
362 517
362 547
362 554
362 556
362 569
362 570
362 575
362 585
362 587
362 588
363 0
363 1
363 2
363 3
363 4
363 5
363 6
363 54
363 85
363 86
363 88
363 89
363 92
363 95
363 101
363 102
363 109
363 119
363 128
363 132
363 145
363 149
363 161
363 165
363 175
363 187
363 195
363 217
363 236
363 242
363 244
363 264
363 282
363 286
363 300
363 304
363 310
363 316
363 326
363 327
363 329
363 331
363 339
363 342
363 358
363 366
363 376
363 390
363 441
363 450
363 472
363 490
363 493
363 536
363 582
364 0
364 1
364 2
364 3
364 4
364 5
364 6
364 19
364 98
364 105
364 109
364 123
364 149
364 158
364 161
364 165
364 170
364 215
364 330
364 342
364 398
364 511
365 0
365 1
365 2
365 3
365 5
365 109
365 119
365 330
365 340
365 346
365 390
366 0
366 1
366 2
366 3
366 4
366 14
366 20
366 35
366 42
366 57
366 86
366 92
366 105
366 137
366 145
366 268
366 293
366 297
366 298
366 300
366 350
366 363
366 366
366 397
366 424
366 536
367 2
367 3
367 4
367 5
367 6
367 7
367 8
367 11
367 20
367 21
367 22
367 23
367 24
367 25
367 26
367 33
367 34
367 62
367 63
367 66
367 68
367 70
367 71
367 76
367 84
367 87
367 91
367 92
367 94
367 142
367 144
367 181
367 188
367 218
367 223
367 227
367 234
367 239
367 241
367 259
367 281
367 288
367 292
367 321
367 368
367 369
367 370
367 371
367 372
367 373
367 374
367 375
367 387
367 407
367 413
367 414
367 415
367 416
367 417
367 418
367 502
367 539
368 0
368 1
368 2
368 3
368 4
368 5
368 6
368 7
368 8
368 11
368 22
368 23
368 24
368 25
368 26
368 34
368 66
368 68
368 70
368 71
368 84
368 87
368 89
368 91
368 108
368 145
368 181
368 188
368 218
368 222
368 223
368 227
368 239
368 255
368 261
368 282
368 288
368 344
368 367
368 369
368 370
368 371
368 372
368 373
368 374
368 375
368 377
368 382
368 387
368 460
368 483
368 502
368 530
368 539
368 562
369 1
369 2
369 4
369 5
369 6
369 7
369 8
369 11
369 20
369 21
369 22
369 23
369 24
369 25
369 26
369 34
369 59
369 60
369 62
369 66
369 68
369 70
369 71
369 77
369 84
369 86
369 87
369 91
369 92
369 128
369 137
369 174
369 181
369 185
369 188
369 189
369 209
369 217
369 218
369 223
369 224
369 227
369 233
369 239
369 251
369 288
369 292
369 344
369 367
369 368
369 369
369 370
369 371
369 372
369 373
369 374
369 375
369 388
369 405
369 407
369 414
369 416
369 480
369 499
369 502
369 526
369 539
370 4
370 5
370 6
370 7
370 8
370 11
370 22
370 23
370 24
370 25
370 26
370 33
370 34
370 50
370 61
370 62
370 63
370 66
370 68
370 70
370 71
370 73
370 74
370 76
370 84
370 87
370 89
370 91
370 108
370 142
370 144
370 155
370 181
370 187
370 188
370 194
370 218
370 222
370 223
370 227
370 238
370 239
370 241
370 255
370 281
370 288
370 321
370 367
370 368
370 369
370 371
370 372
370 373
370 374
370 375
370 385
370 413
370 414
370 415
370 416
370 417
370 418
370 441
370 464
370 502
370 526
370 539
370 552
370 567
371 0
371 1
371 2
371 3
371 4
371 5
371 6
371 7
371 8
371 11
371 14
371 19
371 20
371 21
371 22
371 23
371 24
371 25
371 26
371 34
371 36
371 53
371 57
371 62
371 66
371 68
371 70
371 71
371 72
371 77
371 84
371 87
371 88
371 89
371 92
371 140
371 148
371 155
371 181
371 188
371 217
371 218
371 222
371 223
371 227
371 239
371 256
371 288
371 292
371 367
371 368
371 369
371 370
371 372
371 373
371 374
371 375
371 387
371 403
371 407
371 414
371 416
371 472
371 502
371 539
371 541
371 557
371 563
372 0
372 1
372 2
372 3
372 4
372 5
372 6
372 7
372 8
372 11
372 19
372 20
372 21
372 22
372 23
372 24
372 25
372 26
372 34
372 62
372 66
372 68
372 70
372 71
372 73
372 78
372 84
372 87
372 91
372 92
372 96
372 108
372 148
372 150
372 155
372 181
372 188
372 212
372 218
372 222
372 223
372 227
372 238
372 239
372 255
372 288
372 292
372 313
372 367
372 368
372 369
372 370
372 371
372 373
372 374
372 375
372 385
372 403
372 406
372 407
372 414
372 416
372 472
372 502
372 539
372 563
373 0
373 1
373 2
373 4
373 5
373 6
373 7
373 8
373 11
373 18
373 19
373 20
373 21
373 22
373 23
373 24
373 25
373 26
373 27
373 28
373 29
373 30
373 31
373 32
373 33
373 34
373 45
373 46
373 47
373 50
373 53
373 55
373 56
373 57
373 58
373 59
373 60
373 61
373 62
373 63
373 64
373 65
373 66
373 67
373 68
373 69
373 70
373 71
373 72
373 73
373 75
373 76
373 77
373 78
373 79
373 80
373 81
373 82
373 83
373 84
373 85
373 86
373 87
373 88
373 89
373 90
373 91
373 92
373 125
373 128
373 132
373 140
373 141
373 142
373 144
373 148
373 150
373 155
373 157
373 171
373 176
373 180
373 181
373 182
373 183
373 188
373 194
373 195
373 196
373 197
373 199
373 204
373 205
373 206
373 210
373 212
373 217
373 218
373 220
373 221
373 222
373 223
373 227
373 229
373 233
373 234
373 238
373 239
373 240
373 241
373 242
373 244
373 249
373 254
373 257
373 265
373 280
373 288
373 291
373 292
373 293
373 321
373 333
373 334
373 335
373 338
373 347
373 348
373 356
373 362
373 367
373 368
373 369
373 370
373 371
373 372
373 374
373 375
373 380
373 382
373 383
373 385
373 386
373 388
373 396
373 403
373 406
373 407
373 414
373 415
373 416
373 417
373 418
373 428
373 457
373 469
373 470
373 473
373 476
373 483
373 488
373 492
373 502
373 503
373 505
373 511
373 516
373 517
373 526
373 538
373 539
373 547
373 554
373 555
373 556
373 561
373 569
373 570
373 585
373 587
373 588
374 0
374 1
374 3
374 4
374 5
374 6
374 7
374 8
374 11
374 14
374 19
374 22
374 23
374 24
374 25
374 26
374 34
374 37
374 42
374 63
374 66
374 68
374 70
374 71
374 84
374 87
374 89
374 91
374 148
374 155
374 181
374 188
374 217
374 218
374 222
374 223
374 227
374 239
374 240
374 261
374 288
374 367
374 368
374 369
374 370
374 371
374 372
374 373
374 374
374 375
374 415
374 502
374 539
375 4
375 5
375 6
375 7
375 8
375 11
375 22
375 23
375 24
375 25
375 26
375 34
375 54
375 66
375 68
375 70
375 71
375 84
375 87
375 91
375 93
375 181
375 188
375 218
375 223
375 227
375 239
375 288
375 367
375 368
375 369
375 370
375 371
375 372
375 373
375 374
375 502
375 539
376 1
376 2
376 3
376 4
376 5
376 6
376 14
376 21
376 31
376 32
376 37
376 44
376 48
376 51
376 52
376 70
376 73
376 83
376 85
376 86
376 89
376 90
376 91
376 92
376 185
376 189
376 240
376 256
376 258
376 289
376 318
376 319
376 324
376 327
376 328
376 332
376 336
376 341
376 343
376 344
376 345
376 351
376 363
376 379
376 389
376 407
376 411
376 494
377 0
377 1
377 2
377 3
377 4
377 6
377 51
377 54
377 56
377 72
377 74
377 90
377 91
377 132
377 167
377 174
377 207
377 233
377 289
377 368
377 396
377 442
377 585
378 0
378 1
378 2
378 3
378 4
378 6
378 7
378 9
378 93
378 124
378 152
378 167
378 172
378 178
378 271
378 273
378 283
378 394
378 425
378 427
378 429
378 436
378 437
378 438
378 439
378 440
378 471
378 514
378 522
379 0
379 1
379 2
379 3
379 4
379 6
379 19
379 22
379 75
379 145
379 184
379 185
379 189
379 191
379 197
379 211
379 234
379 289
379 337
379 362
379 376
379 542
379 560
380 1
380 2
380 4
380 5
380 18
380 19
380 20
380 21
380 22
380 23
380 24
380 25
380 26
380 27
380 28
380 29
380 30
380 31
380 32
380 33
380 34
380 42
380 43
380 45
380 46
380 47
380 49
380 52
380 53
380 55
380 56
380 57
380 58
380 59
380 60
380 61
380 62
380 63
380 64
380 65
380 66
380 67
380 68
380 69
380 70
380 71
380 72
380 73
380 74
380 75
380 76
380 77
380 78
380 79
380 80
380 81
380 82
380 83
380 84
380 85
380 86
380 87
380 88
380 89
380 90
380 91
380 92
380 93
380 125
380 128
380 132
380 140
380 141
380 142
380 144
380 148
380 150
380 155
380 157
380 176
380 180
380 181
380 182
380 183
380 187
380 188
380 194
380 195
380 196
380 197
380 199
380 203
380 204
380 205
380 206
380 207
380 212
380 217
380 220
380 221
380 222
380 223
380 229
380 233
380 234
380 238
380 239
380 240
380 241
380 242
380 249
380 251
380 254
380 257
380 265
380 280
380 289
380 291
380 292
380 293
380 321
380 333
380 334
380 335
380 338
380 345
380 347
380 348
380 350
380 356
380 362
380 373
380 382
380 385
380 386
380 388
380 392
380 396
380 403
380 407
380 414
380 415
380 417
380 418
380 428
380 430
380 456
380 457
380 464
380 469
380 470
380 473
380 476
380 488
380 492
380 494
380 503
380 505
380 511
380 516
380 517
380 531
380 547
380 554
380 556
380 569
380 570
380 585
380 587
380 588
381 0
381 2
381 3
381 4
381 25
381 84
381 90
381 124
381 146
381 169
381 248
381 275
381 289
381 290
381 391
381 393
381 559
382 1
382 2
382 3
382 4
382 6
382 18
382 19
382 20
382 21
382 22
382 23
382 24
382 25
382 26
382 27
382 28
382 29
382 30
382 31
382 32
382 33
382 34
382 45
382 46
382 47
382 53
382 55
382 56
382 57
382 58
382 59
382 60
382 61
382 62
382 63
382 64
382 65
382 66
382 67
382 68
382 69
382 70
382 71
382 72
382 73
382 74
382 75
382 76
382 77
382 78
382 79
382 80
382 81
382 82
382 83
382 84
382 85
382 86
382 87
382 88
382 90
382 91
382 92
382 108
382 125
382 128
382 132
382 140
382 141
382 142
382 144
382 148
382 150
382 155
382 157
382 158
382 176
382 180
382 181
382 182
382 183
382 187
382 188
382 194
382 195
382 196
382 197
382 199
382 204
382 205
382 206
382 207
382 212
382 217
382 220
382 221
382 222
382 223
382 229
382 233
382 234
382 238
382 239
382 240
382 241
382 242
382 249
382 254
382 257
382 263
382 265
382 280
382 291
382 292
382 293
382 296
382 320
382 321
382 328
382 333
382 334
382 335
382 338
382 347
382 348
382 350
382 356
382 362
382 368
382 373
382 380
382 382
382 385
382 386
382 388
382 396
382 403
382 407
382 414
382 415
382 417
382 418
382 419
382 428
382 457
382 467
382 469
382 470
382 473
382 476
382 488
382 492
382 498
382 501
382 503
382 505
382 511
382 516
382 517
382 538
382 547
382 554
382 556
382 563
382 569
382 570
382 582
382 583
382 585
382 587
382 588
383 0
383 1
383 2
383 4
383 6
383 11
383 22
383 78
383 181
383 312
383 357
383 373
383 403
384 0
384 1
384 2
384 3
384 4
384 7
384 14
384 25
384 36
384 37
384 92
384 132
384 146
384 184
384 248
384 253
384 282
384 290
384 318
384 322
384 422
384 499
384 501
384 558
384 565
384 582
385 1
385 2
385 3
385 4
385 5
385 8
385 15
385 18
385 19
385 20
385 21
385 22
385 23
385 24
385 25
385 26
385 27
385 28
385 29
385 30
385 31
385 32
385 33
385 34
385 45
385 46
385 47
385 49
385 53
385 55
385 56
385 57
385 58
385 59
385 60
385 61
385 62
385 63
385 64
385 65
385 66
385 67
385 68
385 69
385 70
385 71
385 72
385 73
385 75
385 76
385 77
385 78
385 79
385 80
385 81
385 82
385 83
385 84
385 85
385 86
385 87
385 88
385 89
385 90
385 91
385 92
385 96
385 125
385 128
385 132
385 140
385 141
385 142
385 144
385 148
385 150
385 155
385 157
385 176
385 180
385 181
385 182
385 183
385 187
385 188
385 194
385 195
385 196
385 197
385 199
385 203
385 204
385 205
385 206
385 207
385 212
385 217
385 220
385 221
385 222
385 223
385 227
385 229
385 233
385 234
385 238
385 239
385 240
385 241
385 242
385 249
385 254
385 255
385 256
385 257
385 265
385 280
385 288
385 291
385 292
385 293
385 321
385 333
385 334
385 335
385 338
385 347
385 348
385 350
385 356
385 362
385 370
385 372
385 373
385 380
385 382
385 386
385 387
385 388
385 396
385 403
385 407
385 411
385 414
385 415
385 417
385 418
385 428
385 456
385 457
385 459
385 464
385 469
385 470
385 473
385 476
385 485
385 488
385 492
385 496
385 503
385 505
385 511
385 516
385 517
385 547
385 554
385 556
385 561
385 563
385 569
385 570
385 585
385 587
385 588
386 0
386 1
386 2
386 4
386 5
386 6
386 12
386 18
386 19
386 20
386 21
386 22
386 23
386 24
386 25
386 26
386 27
386 28
386 29
386 30
386 31
386 32
386 33
386 34
386 37
386 45
386 46
386 47
386 53
386 55
386 56
386 57
386 58
386 59
386 60
386 61
386 62
386 63
386 64
386 65
386 66
386 67
386 68
386 69
386 70
386 71
386 72
386 73
386 74
386 75
386 76
386 77
386 78
386 79
386 80
386 81
386 82
386 83
386 84
386 85
386 86
386 87
386 88
386 90
386 91
386 92
386 108
386 118
386 125
386 128
386 132
386 139
386 140
386 141
386 142
386 144
386 148
386 150
386 155
386 157
386 159
386 176
386 177
386 180
386 181
386 182
386 183
386 188
386 194
386 195
386 196
386 197
386 199
386 204
386 205
386 206
386 207
386 212
386 217
386 220
386 221
386 222
386 223
386 229
386 233
386 234
386 238
386 239
386 240
386 241
386 242
386 249
386 254
386 257
386 265
386 280
386 291
386 292
386 293
386 296
386 313
386 316
386 321
386 333
386 334
386 335
386 338
386 347
386 348
386 356
386 362
386 373
386 380
386 382
386 385
386 388
386 396
386 403
386 407
386 413
386 414
386 415
386 416
386 417
386 418
386 428
386 452
386 457
386 469
386 470
386 473
386 474
386 475
386 476
386 480
386 488
386 492
386 503
386 505
386 511
386 516
386 517
386 547
386 554
386 556
386 563
386 569
386 570
386 585
386 587
386 588
387 1
387 2
387 4
387 6
387 11
387 20
387 21
387 50
387 72
387 73
387 74
387 76
387 78
387 91
387 108
387 181
387 183
387 186
387 197
387 207
387 210
387 229
387 234
387 255
387 261
387 305
387 316
387 350
387 356
387 367
387 368
387 371
387 385
387 456
387 563
388 1
388 2
388 3
388 4
388 13
388 14
388 18
388 19
388 20
388 21
388 22
388 23
388 24
388 25
388 26
388 27
388 28
388 29
388 30
388 31
388 32
388 33
388 34
388 35
388 37
388 43
388 45
388 46
388 47
388 53
388 55
388 56
388 57
388 58
388 59
388 60
388 61
388 62
388 63
388 64
388 65
388 66
388 67
388 68
388 69
388 70
388 71
388 72
388 73
388 74
388 75
388 76
388 77
388 78
388 79
388 80
388 81
388 82
388 83
388 84
388 85
388 86
388 87
388 88
388 90
388 91
388 92
388 93
388 110
388 125
388 128
388 132
388 140
388 141
388 142
388 144
388 148
388 150
388 155
388 157
388 166
388 176
388 180
388 181
388 182
388 183
388 188
388 194
388 195
388 196
388 197
388 199
388 204
388 205
388 206
388 207
388 212
388 217
388 220
388 221
388 222
388 223
388 229
388 233
388 234
388 238
388 239
388 240
388 241
388 242
388 248
388 249
388 254
388 257
388 265
388 280
388 283
388 290
388 291
388 292
388 293
388 321
388 327
388 331
388 333
388 334
388 335
388 338
388 347
388 348
388 356
388 362
388 369
388 373
388 380
388 382
388 385
388 386
388 396
388 403
388 407
388 414
388 415
388 417
388 418
388 428
388 446
388 457
388 458
388 469
388 470
388 473
388 476
388 480
388 488
388 490
388 492
388 503
388 505
388 511
388 516
388 517
388 543
388 547
388 554
388 555
388 556
388 557
388 563
388 569
388 570
388 575
388 585
388 587
388 588
389 0
389 1
389 2
389 3
389 4
389 6
389 7
389 13
389 14
389 15
389 16
389 17
389 19
389 20
389 21
389 22
389 29
389 30
389 31
389 32
389 35
389 36
389 37
389 38
389 39
389 40
389 41
389 42
389 43
389 44
389 45
389 46
389 47
389 48
389 49
389 50
389 51
389 52
389 53
389 55
389 57
389 65
389 68
389 71
389 74
389 80
389 81
389 82
389 83
389 84
389 85
389 86
389 89
389 90
389 91
389 92
389 128
389 140
389 143
389 146
389 147
389 176
389 186
389 203
389 206
389 217
389 220
389 237
389 238
389 251
389 258
389 259
389 269
389 282
389 295
389 332
389 336
389 341
389 343
389 345
389 353
389 376
389 389
389 411
389 444
389 446
389 447
389 449
389 454
389 487
389 489
389 493
389 510
389 518
389 531
389 550
389 565
389 569
389 574
389 575
390 0
390 1
390 2
390 3
390 4
390 5
390 6
390 25
390 39
390 109
390 149
390 165
390 199
390 340
390 342
390 346
390 363
390 365
390 395
390 409
390 582
391 0
391 1
391 2
391 4
391 6
391 43
391 92
391 109
391 110
391 146
391 149
391 170
391 190
391 192
391 275
391 289
391 341
391 381
391 401
391 575
392 1
392 2
392 3
392 4
392 17
392 20
392 21
392 31
392 33
392 37
392 51
392 52
392 53
392 54
392 58
392 63
392 65
392 83
392 86
392 89
392 91
392 92
392 240
392 251
392 280
392 287
392 289
392 332
392 343
392 345
392 380
392 447
393 0
393 1
393 2
393 3
393 4
393 92
393 105
393 140
393 168
393 169
393 289
393 381
393 395
393 481
394 0
394 1
394 2
394 3
394 4
394 7
394 105
394 112
394 124
394 131
394 152
394 166
394 172
394 174
394 178
394 190
394 271
394 273
394 378
394 427
394 440
394 443
394 471
394 576
395 0
395 1
395 2
395 3
395 4
395 5
395 6
395 25
395 54
395 91
395 105
395 109
395 119
395 123
395 133
395 148
395 149
395 165
395 168
395 169
395 190
395 199
395 330
395 361
395 390
395 393
395 396
395 481
395 538
396 0
396 1
396 2
396 3
396 4
396 20
396 22
396 49
396 54
396 55
396 56
396 57
396 58
396 59
396 60
396 61
396 62
396 63
396 64
396 65
396 66
396 67
396 68
396 69
396 70
396 71
396 72
396 73
396 75
396 76
396 77
396 78
396 79
396 80
396 81
396 82
396 83
396 84
396 85
396 86
396 87
396 88
396 90
396 91
396 92
396 125
396 128
396 131
396 136
396 140
396 142
396 144
396 146
396 150
396 155
396 169
396 174
396 176
396 180
396 181
396 182
396 183
396 186
396 194
396 195
396 197
396 204
396 205
396 206
396 207
396 210
396 212
396 219
396 220
396 221
396 222
396 233
396 235
396 238
396 239
396 240
396 241
396 242
396 249
396 251
396 254
396 265
396 280
396 291
396 293
396 304
396 321
396 328
396 333
396 334
396 335
396 338
396 347
396 348
396 350
396 356
396 362
396 373
396 377
396 380
396 382
396 385
396 386
396 388
396 395
396 403
396 407
396 414
396 415
396 417
396 418
396 419
396 420
396 421
396 422
396 423
396 424
396 425
396 426
396 427
396 428
396 429
396 430
396 431
396 432
396 461
396 504
396 505
396 511
396 534
396 588
397 0
397 1
397 2
397 4
397 42
397 48
397 49
397 54
397 88
397 132
397 139
397 145
397 169
397 187
397 253
397 273
397 277
397 278
397 284
397 285
397 286
397 303
397 318
397 350
397 362
397 366
397 424
397 450
397 544
398 0
398 1
398 2
398 3
398 4
398 5
398 6
398 110
398 117
398 149
398 170
398 215
398 316
398 326
398 364
399 0
399 4
399 6
399 117
399 130
400 0
400 1
400 3
400 4
400 5
400 6
400 123
400 149
400 170
400 215
400 310
400 331
400 342
400 409
400 576
401 0
401 1
401 2
401 3
401 4
401 6
401 89
401 170
401 192
401 310
401 326
401 391
402 1
402 2
402 3
402 4
402 5
402 6
402 96
402 109
402 119
402 133
402 149
402 161
402 165
402 216
402 326
402 327
402 330
402 340
402 346
402 358
402 361
403 0
403 1
403 2
403 4
403 5
403 6
403 7
403 11
403 18
403 19
403 20
403 21
403 22
403 23
403 24
403 25
403 26
403 27
403 28
403 29
403 30
403 31
403 32
403 33
403 34
403 45
403 46
403 47
403 53
403 56
403 57
403 58
403 59
403 60
403 61
403 62
403 63
403 64
403 65
403 66
403 67
403 68
403 69
403 71
403 72
403 73
403 75
403 76
403 77
403 79
403 80
403 81
403 82
403 83
403 84
403 85
403 86
403 87
403 88
403 90
403 91
403 92
403 125
403 128
403 132
403 140
403 141
403 142
403 144
403 148
403 150
403 155
403 157
403 170
403 176
403 180
403 181
403 182
403 183
403 187
403 188
403 194
403 195
403 196
403 197
403 199
403 204
403 205
403 206
403 215
403 217
403 220
403 221
403 222
403 223
403 229
403 233
403 234
403 238
403 239
403 240
403 241
403 242
403 249
403 254
403 256
403 257
403 265
403 280
403 291
403 292
403 293
403 296
403 321
403 331
403 333
403 334
403 335
403 338
403 347
403 348
403 351
403 356
403 362
403 371
403 372
403 373
403 380
403 382
403 383
403 385
403 386
403 388
403 396
403 405
403 407
403 414
403 415
403 417
403 428
403 434
403 452
403 457
403 469
403 470
403 473
403 476
403 482
403 483
403 488
403 492
403 499
403 503
403 505
403 511
403 512
403 516
403 517
403 526
403 542
403 547
403 552
403 554
403 556
403 561
403 569
403 570
403 585
403 587
403 588
404 1
404 2
404 3
404 5
404 109
404 118
404 119
404 216
404 230
404 361
405 0
405 1
405 2
405 3
405 4
405 5
405 10
405 19
405 58
405 61
405 91
405 180
405 183
405 184
405 185
405 187
405 189
405 209
405 228
405 292
405 319
405 337
405 338
405 351
405 369
405 403
405 413
405 459
405 560
406 0
406 1
406 2
406 3
406 4
406 5
406 8
406 11
406 21
406 23
406 25
406 27
406 58
406 70
406 76
406 84
406 91
406 137
406 148
406 181
406 202
406 218
406 237
406 239
406 316
406 372
406 373
406 502
406 526
406 557
407 0
407 1
407 2
407 3
407 4
407 5
407 18
407 19
407 20
407 21
407 22
407 23
407 24
407 25
407 26
407 27
407 28
407 29
407 30
407 31
407 32
407 33
407 34
407 45
407 46
407 47
407 53
407 55
407 56
407 57
407 58
407 59
407 60
407 61
407 62
407 63
407 64
407 65
407 66
407 67
407 68
407 69
407 70
407 71
407 72
407 73
407 75
407 76
407 77
407 78
407 79
407 80
407 81
407 82
407 83
407 84
407 85
407 86
407 87
407 88
407 90
407 91
407 92
407 108
407 118
407 125
407 128
407 132
407 140
407 141
407 142
407 144
407 148
407 150
407 154
407 155
407 157
407 176
407 180
407 181
407 182
407 183
407 185
407 188
407 189
407 194
407 195
407 196
407 197
407 199
407 204
407 205
407 206
407 212
407 214
407 217
407 218
407 220
407 221
407 222
407 223
407 229
407 233
407 234
407 238
407 239
407 240
407 241
407 242
407 249
407 254
407 257
407 261
407 265
407 280
407 281
407 289
407 291
407 292
407 293
407 321
407 329
407 333
407 334
407 335
407 336
407 338
407 344
407 347
407 348
407 356
407 357
407 362
407 367
407 369
407 371
407 372
407 373
407 376
407 380
407 382
407 385
407 386
407 388
407 396
407 403
407 413
407 414
407 415
407 416
407 417
407 418
407 428
407 457
407 469
407 470
407 473
407 476
407 480
407 483
407 488
407 492
407 502
407 503
407 505
407 511
407 516
407 517
407 539
407 542
407 547
407 554
407 556
407 569
407 570
407 585
407 587
407 588
408 0
408 1
408 2
408 3
408 5
408 22
408 118
408 119
408 214
408 215
408 217
408 242
408 243
408 262
408 279
408 299
409 0
409 1
409 2
409 3
409 4
409 5
409 59
409 123
409 138
409 144
409 157
409 176
409 192
409 215
409 316
409 390
409 400
409 473
409 483
409 577
410 0
410 1
410 2
410 3
410 5
410 119
410 121
410 123
410 170
410 174
410 179
410 190
410 192
410 215
410 236
410 244
410 245
410 262
410 266
410 284
410 325
410 326
410 329
410 357
410 478
410 577
411 1
411 2
411 3
411 4
411 6
411 13
411 14
411 15
411 16
411 17
411 19
411 20
411 29
411 30
411 31
411 32
411 35
411 36
411 37
411 38
411 39
411 40
411 41
411 42
411 43
411 44
411 45
411 46
411 47
411 48
411 49
411 50
411 51
411 52
411 53
411 54
411 76
411 80
411 81
411 83
411 85
411 89
411 90
411 91
411 132
411 141
411 147
411 220
411 251
411 258
411 259
411 269
411 289
411 291
411 295
411 313
411 332
411 336
411 341
411 343
411 353
411 376
411 385
411 389
411 444
411 446
411 447
411 449
411 454
411 485
411 487
411 489
411 493
411 494
411 504
411 510
411 519
411 531
411 532
411 550
411 565
411 574
411 575
412 1
412 2
412 3
412 5
412 6
412 7
412 13
412 14
412 19
412 20
412 22
412 25
412 42
412 54
412 63
412 65
412 79
412 84
412 90
412 91
412 132
412 146
412 205
412 209
412 211
412 248
412 280
412 290
412 316
412 336
412 356
412 447
412 501
412 534
412 558
413 6
413 7
413 8
413 11
413 19
413 20
413 21
413 22
413 25
413 26
413 34
413 61
413 62
413 66
413 68
413 84
413 87
413 91
413 181
413 188
413 218
413 223
413 246
413 292
413 351
413 367
413 370
413 386
413 405
413 407
413 414
413 416
413 502
413 539
414 1
414 2
414 3
414 4
414 5
414 6
414 7
414 8
414 10
414 11
414 18
414 19
414 20
414 21
414 22
414 23
414 24
414 25
414 26
414 27
414 28
414 29
414 30
414 31
414 32
414 33
414 34
414 45
414 46
414 47
414 53
414 55
414 56
414 57
414 58
414 59
414 60
414 61
414 62
414 63
414 64
414 65
414 66
414 67
414 68
414 69
414 70
414 71
414 72
414 73
414 75
414 76
414 77
414 78
414 79
414 80
414 81
414 82
414 83
414 84
414 85
414 86
414 87
414 88
414 90
414 91
414 92
414 125
414 128
414 132
414 140
414 141
414 142
414 144
414 148
414 150
414 155
414 157
414 158
414 167
414 176
414 180
414 181
414 182
414 183
414 188
414 194
414 195
414 196
414 197
414 199
414 204
414 205
414 206
414 207
414 212
414 217
414 218
414 220
414 221
414 222
414 223
414 229
414 233
414 234
414 238
414 239
414 240
414 241
414 242
414 249
414 251
414 254
414 257
414 265
414 280
414 281
414 291
414 292
414 293
414 321
414 333
414 334
414 335
414 338
414 347
414 348
414 351
414 356
414 362
414 367
414 369
414 370
414 371
414 372
414 373
414 380
414 382
414 385
414 386
414 388
414 396
414 403
414 407
414 413
414 415
414 416
414 417
414 418
414 428
414 451
414 457
414 468
414 469
414 470
414 473
414 476
414 488
414 492
414 502
414 503
414 505
414 511
414 516
414 517
414 539
414 542
414 547
414 554
414 556
414 569
414 570
414 585
414 587
414 588
415 1
415 2
415 4
415 5
415 6
415 7
415 8
415 11
415 13
415 18
415 19
415 20
415 21
415 22
415 23
415 24
415 25
415 26
415 27
415 28
415 29
415 30
415 31
415 32
415 33
415 34
415 37
415 45
415 46
415 47
415 51
415 53
415 55
415 56
415 57
415 58
415 59
415 60
415 61
415 62
415 63
415 64
415 65
415 66
415 67
415 68
415 69
415 70
415 71
415 72
415 73
415 75
415 76
415 77
415 78
415 79
415 80
415 81
415 82
415 83
415 84
415 85
415 86
415 87
415 88
415 89
415 90
415 91
415 92
415 125
415 128
415 132
415 140
415 141
415 142
415 144
415 146
415 148
415 150
415 155
415 157
415 176
415 180
415 181
415 182
415 183
415 188
415 194
415 195
415 196
415 197
415 199
415 204
415 205
415 206
415 209
415 212
415 217
415 218
415 220
415 221
415 222
415 223
415 229
415 233
415 234
415 238
415 239
415 240
415 241
415 242
415 249
415 254
415 257
415 265
415 280
415 291
415 292
415 293
415 321
415 332
415 333
415 334
415 335
415 338
415 341
415 344
415 347
415 348
415 356
415 362
415 367
415 370
415 373
415 374
415 380
415 382
415 385
415 386
415 388
415 396
415 403
415 407
415 414
415 415
415 416
415 417
415 418
415 428
415 457
415 469
415 470
415 473
415 476
415 482
415 483
415 488
415 492
415 502
415 503
415 505
415 511
415 516
415 517
415 547
415 554
415 556
415 562
415 569
415 570
415 585
415 587
415 588
416 0
416 1
416 3
416 4
416 6
416 7
416 8
416 11
416 12
416 19
416 20
416 21
416 22
416 23
416 25
416 26
416 27
416 28
416 33
416 34
416 57
416 58
416 59
416 62
416 63
416 66
416 68
416 70
416 71
416 73
416 76
416 84
416 87
416 142
416 144
416 181
416 188
416 196
416 199
416 218
416 223
416 239
416 241
416 281
416 292
416 321
416 367
416 369
416 370
416 371
416 372
416 373
416 386
416 407
416 413
416 414
416 415
416 417
416 418
416 470
416 474
416 475
416 502
416 554
417 2
417 3
417 4
417 6
417 7
417 8
417 11
417 12
417 18
417 19
417 20
417 21
417 22
417 23
417 24
417 25
417 26
417 27
417 28
417 29
417 30
417 31
417 32
417 33
417 34
417 38
417 45
417 46
417 47
417 53
417 55
417 56
417 57
417 58
417 59
417 60
417 61
417 62
417 63
417 64
417 65
417 66
417 67
417 68
417 69
417 70
417 71
417 72
417 73
417 75
417 76
417 77
417 78
417 79
417 80
417 81
417 82
417 83
417 84
417 85
417 86
417 87
417 88
417 90
417 91
417 92
417 125
417 128
417 132
417 140
417 141
417 142
417 144
417 148
417 150
417 155
417 157
417 176
417 180
417 181
417 182
417 183
417 188
417 194
417 195
417 196
417 197
417 199
417 204
417 205
417 206
417 212
417 217
417 218
417 220
417 221
417 222
417 223
417 229
417 233
417 234
417 238
417 239
417 240
417 241
417 242
417 249
417 254
417 257
417 265
417 280
417 291
417 292
417 293
417 316
417 321
417 333
417 334
417 335
417 338
417 347
417 348
417 356
417 362
417 367
417 370
417 373
417 380
417 382
417 385
417 386
417 388
417 396
417 403
417 407
417 414
417 415
417 416
417 418
417 428
417 457
417 469
417 470
417 473
417 474
417 475
417 476
417 488
417 492
417 499
417 502
417 503
417 505
417 511
417 516
417 517
417 547
417 554
417 556
417 569
417 570
417 585
417 587
417 588
418 1
418 2
418 4
418 6
418 7
418 8
418 11
418 12
418 18
418 19
418 20
418 21
418 22
418 23
418 24
418 25
418 26
418 27
418 28
418 29
418 30
418 31
418 32
418 33
418 34
418 45
418 46
418 47
418 53
418 56
418 57
418 58
418 59
418 60
418 61
418 62
418 63
418 64
418 65
418 66
418 67
418 68
418 69
418 71
418 72
418 73
418 75
418 76
418 77
418 79
418 80
418 81
418 82
418 83
418 84
418 85
418 86
418 87
418 88
418 90
418 91
418 92
418 125
418 128
418 132
418 140
418 141
418 142
418 144
418 148
418 150
418 155
418 157
418 176
418 180
418 181
418 182
418 183
418 187
418 188
418 194
418 195
418 196
418 197
418 199
418 204
418 205
418 206
418 217
418 218
418 220
418 221
418 222
418 223
418 229
418 233
418 234
418 238
418 239
418 240
418 241
418 242
418 249
418 254
418 257
418 265
418 280
418 291
418 292
418 293
418 321
418 333
418 334
418 335
418 338
418 347
418 348
418 356
418 362
418 367
418 370
418 373
418 380
418 382
418 385
418 386
418 388
418 396
418 407
418 414
418 415
418 416
418 417
418 428
418 457
418 469
418 470
418 473
418 476
418 479
418 483
418 488
418 492
418 499
418 502
418 503
418 505
418 511
418 516
418 517
418 547
418 554
418 556
418 558
418 569
418 570
418 585
418 587
418 588
419 0
419 1
419 2
419 3
419 4
419 7
419 9
419 15
419 18
419 19
419 22
419 35
419 36
419 38
419 42
419 43
419 48
419 52
419 54
419 56
419 58
419 67
419 71
419 74
419 75
419 78
419 83
419 86
419 90
419 91
419 92
419 102
419 105
419 126
419 131
419 132
419 136
419 140
419 146
419 150
419 152
419 186
419 197
419 206
419 210
419 218
419 219
419 227
419 248
419 260
419 282
419 286
419 290
419 304
419 324
419 328
419 349
419 382
419 396
419 419
419 420
419 421
419 422
419 423
419 424
419 425
419 426
419 427
419 428
419 429
419 430
419 431
419 432
419 461
419 500
419 504
419 509
419 518
419 534
419 555
419 557
419 569
419 583
419 584
419 585
419 586
419 587
419 588
420 0
420 1
420 2
420 3
420 7
420 9
420 44
420 54
420 67
420 74
420 75
420 78
420 91
420 92
420 93
420 102
420 131
420 132
420 136
420 140
420 146
420 186
420 197
420 206
420 210
420 219
420 248
420 283
420 290
420 304
420 328
420 396
420 419
420 421
420 422
420 423
420 424
420 425
420 426
420 427
420 428
420 429
420 430
420 431
420 432
420 435
420 436
420 461
420 504
420 534
420 583
420 584
420 585
420 586
420 587
420 588
421 0
421 1
421 2
421 7
421 9
421 67
421 75
421 78
421 79
421 89
421 90
421 91
421 92
421 93
421 96
421 102
421 131
421 136
421 140
421 146
421 167
421 186
421 197
421 206
421 210
421 219
421 234
421 257
421 283
421 286
421 304
421 328
421 396
421 419
421 420
421 422
421 423
421 424
421 425
421 426
421 427
421 428
421 429
421 430
421 431
421 432
421 461
421 504
421 512
421 534
421 574
421 583
421 584
421 585
421 586
421 587
421 588
422 0
422 1
422 2
422 3
422 4
422 5
422 6
422 7
422 9
422 13
422 14
422 22
422 25
422 35
422 36
422 37
422 44
422 52
422 54
422 67
422 74
422 75
422 78
422 79
422 88
422 89
422 90
422 91
422 92
422 93
422 102
422 122
422 131
422 132
422 136
422 140
422 143
422 146
422 147
422 149
422 165
422 169
422 186
422 197
422 199
422 206
422 210
422 219
422 253
422 257
422 269
422 273
422 281
422 283
422 286
422 304
422 328
422 329
422 335
422 358
422 384
422 396
422 419
422 420
422 421
422 422
422 423
422 424
422 425
422 426
422 427
422 428
422 429
422 430
422 431
422 432
422 436
422 441
422 461
422 501
422 504
422 522
422 534
422 582
422 583
422 584
422 585
422 586
422 587
422 588
423 0
423 1
423 3
423 4
423 7
423 9
423 19
423 44
423 49
423 58
423 67
423 82
423 89
423 90
423 93
423 102
423 131
423 132
423 136
423 140
423 146
423 186
423 219
423 248
423 283
423 290
423 304
423 328
423 396
423 419
423 420
423 421
423 422
423 424
423 425
423 426
423 427
423 428
423 429
423 431
423 432
423 435
423 461
423 534
423 583
423 584
423 585
423 586
423 587
423 588
424 0
424 1
424 2
424 3
424 4
424 9
424 15
424 18
424 19
424 20
424 24
424 38
424 52
424 55
424 57
424 67
424 72
424 75
424 77
424 78
424 81
424 85
424 87
424 89
424 90
424 91
424 92
424 96
424 102
424 110
424 131
424 132
424 136
424 139
424 140
424 146
424 147
424 148
424 150
424 151
424 152
424 169
424 181
424 186
424 197
424 206
424 210
424 217
424 219
424 238
424 241
424 253
424 259
424 273
424 277
424 278
424 284
424 285
424 286
424 293
424 303
424 304
424 328
424 362
424 366
424 396
424 397
424 419
424 420
424 421
424 422
424 423
424 425
424 426
424 427
424 428
424 429
424 430
424 431
424 432
424 461
424 497
424 504
424 534
424 541
424 583
424 584
424 585
424 586
424 587
424 588
425 0
425 1
425 2
425 3
425 4
425 7
425 9
425 14
425 20
425 22
425 35
425 37
425 40
425 42
425 51
425 52
425 55
425 58
425 61
425 67
425 72
425 75
425 78
425 84
425 89
425 90
425 91
425 92
425 93
425 101
425 108
425 109
425 126
425 128
425 131
425 132
425 136
425 140
425 146
425 150
425 186
425 191
425 197
425 206
425 209
425 210
425 219
425 223
425 269
425 273
425 283
425 293
425 295
425 304
425 324
425 328
425 378
425 396
425 419
425 420
425 421
425 422
425 423
425 424
425 425
425 426
425 427
425 428
425 429
425 430
425 431
425 432
425 434
425 436
425 437
425 440
425 441
425 461
425 465
425 490
425 504
425 512
425 522
425 534
425 583
425 584
425 585
425 586
425 587
425 588
426 0
426 1
426 3
426 8
426 9
426 67
426 92
426 102
426 131
426 136
426 150
426 186
426 218
426 219
426 248
426 259
426 290
426 298
426 304
426 328
426 396
426 419
426 420
426 421
426 422
426 423
426 424
426 425
426 428
426 429
426 430
426 431
426 432
426 461
426 534
426 583
426 584
426 585
426 586
426 587
426 588
427 0
427 1
427 2
427 3
427 4
427 6
427 9
427 20
427 22
427 30
427 39
427 44
427 51
427 59
427 67
427 74
427 75
427 78
427 81
427 88
427 90
427 91
427 92
427 93
427 102
427 120
427 124
427 126
427 131
427 136
427 145
427 146
427 152
427 167
427 172
427 174
427 178
427 186
427 206
427 219
427 252
427 253
427 263
427 270
427 271
427 273
427 275
427 276
427 297
427 304
427 328
427 378
427 394
427 396
427 419
427 420
427 421
427 422
427 423
427 424
427 425
427 428
427 429
427 431
427 432
427 435
427 436
427 440
427 441
427 442
427 443
427 461
427 471
427 522
427 533
427 534
427 551
427 583
427 584
427 585
427 586
427 587
427 588
428 0
428 1
428 2
428 3
428 7
428 9
428 18
428 19
428 20
428 21
428 22
428 23
428 24
428 25
428 26
428 27
428 28
428 29
428 30
428 31
428 32
428 33
428 34
428 45
428 46
428 47
428 53
428 55
428 56
428 57
428 58
428 59
428 60
428 61
428 62
428 63
428 64
428 65
428 66
428 67
428 68
428 69
428 70
428 71
428 72
428 73
428 75
428 76
428 77
428 78
428 79
428 80
428 81
428 82
428 83
428 84
428 85
428 86
428 87
428 88
428 90
428 91
428 92
428 93
428 125
428 128
428 131
428 132
428 136
428 140
428 141
428 142
428 144
428 146
428 148
428 150
428 155
428 157
428 176
428 180
428 181
428 182
428 183
428 186
428 188
428 191
428 194
428 195
428 196
428 197
428 199
428 204
428 205
428 206
428 210
428 212
428 217
428 219
428 220
428 221
428 222
428 223
428 229
428 233
428 234
428 238
428 239
428 240
428 241
428 242
428 249
428 254
428 257
428 261
428 265
428 280
428 283
428 291
428 292
428 293
428 304
428 321
428 328
428 333
428 334
428 335
428 338
428 347
428 348
428 356
428 362
428 373
428 380
428 382
428 385
428 386
428 388
428 396
428 403
428 407
428 414
428 415
428 417
428 418
428 419
428 420
428 421
428 422
428 423
428 424
428 425
428 426
428 427
428 429
428 430
428 431
428 432
428 434
428 436
428 437
428 457
428 461
428 469
428 470
428 473
428 476
428 488
428 492
428 503
428 504
428 505
428 511
428 512
428 516
428 517
428 522
428 534
428 547
428 554
428 556
428 558
428 569
428 570
428 583
428 584
428 585
428 586
428 587
428 588
429 0
429 1
429 2
429 3
429 4
429 6
429 7
429 9
429 15
429 44
429 54
429 67
429 74
429 75
429 78
429 89
429 91
429 131
429 136
429 140
429 146
429 167
429 186
429 197
429 206
429 210
429 219
429 220
429 253
429 304
429 328
429 378
429 396
429 419
429 420
429 421
429 422
429 423
429 424
429 425
429 426
429 427
429 428
429 429
429 430
429 431
429 432
429 435
429 436
429 437
429 438
429 439
429 440
429 441
429 442
429 443
429 461
429 504
429 522
429 534
429 574
429 583
429 584
429 585
429 586
429 587
429 588
430 0
430 1
430 2
430 4
430 7
430 9
430 11
430 16
430 19
430 20
430 49
430 50
430 51
430 54
430 67
430 74
430 79
430 82
430 86
430 89
430 90
430 91
430 92
430 131
430 132
430 136
430 140
430 146
430 181
430 186
430 207
430 210
430 219
430 246
430 248
430 255
430 258
430 290
430 295
430 304
430 305
430 328
430 349
430 380
430 396
430 419
430 420
430 421
430 422
430 424
430 425
430 426
430 428
430 429
430 431
430 432
430 461
430 534
430 544
430 583
430 584
430 585
430 586
430 587
430 588
431 0
431 1
431 2
431 9
431 16
431 17
431 43
431 48
431 51
431 52
431 67
431 74
431 75
431 78
431 91
431 122
431 131
431 132
431 136
431 140
431 146
431 186
431 197
431 206
431 210
431 219
431 304
431 328
431 396
431 419
431 420
431 421
431 422
431 423
431 424
431 425
431 426
431 427
431 428
431 429
431 430
431 431
431 432
431 441
431 451
431 461
431 467
431 504
431 534
431 583
431 584
431 585
431 586
431 587
431 588
432 0
432 1
432 2
432 3
432 7
432 9
432 19
432 20
432 21
432 22
432 55
432 59
432 61
432 67
432 72
432 75
432 78
432 91
432 92
432 131
432 136
432 140
432 145
432 146
432 150
432 181
432 186
432 191
432 197
432 206
432 210
432 219
432 234
432 241
432 248
432 254
432 259
432 270
432 290
432 293
432 298
432 304
432 328
432 338
432 396
432 419
432 420
432 421
432 422
432 423
432 424
432 425
432 426
432 427
432 428
432 429
432 430
432 431
432 434
432 453
432 461
432 462
432 504
432 534
432 538
432 583
432 584
432 585
432 586
432 587
432 588
433 75
433 89
433 183
433 186
433 563
433 584
434 2
434 4
434 19
434 20
434 56
434 58
434 67
434 73
434 75
434 78
434 87
434 91
434 146
434 150
434 171
434 181
434 197
434 229
434 261
434 270
434 304
434 403
434 425
434 428
434 432
434 583
434 584
434 585
435 0
435 9
435 92
435 136
435 420
435 423
435 427
435 429
435 535
436 0
436 1
436 2
436 3
436 4
436 6
436 7
436 9
436 15
436 51
436 74
436 86
436 92
436 93
436 122
436 124
436 131
436 136
436 167
436 178
436 207
436 235
436 273
436 283
436 378
436 420
436 422
436 425
436 427
436 428
436 429
436 436
436 437
436 440
436 507
436 512
436 522
436 585
437 0
437 1
437 2
437 3
437 9
437 93
437 131
437 220
437 221
437 283
437 378
437 425
437 428
437 429
437 436
437 437
437 440
437 512
437 522
437 585
438 0
438 1
438 2
438 3
438 4
438 6
438 9
438 25
438 75
438 84
438 87
438 92
438 93
438 124
438 152
438 167
438 172
438 178
438 217
438 241
438 257
438 271
438 276
438 283
438 378
438 429
438 439
438 514
438 522
438 566
438 576
439 0
439 1
439 2
439 3
439 4
439 6
439 9
439 21
439 25
439 84
439 88
439 92
439 93
439 96
439 112
439 124
439 148
439 152
439 167
439 172
439 178
439 191
439 217
439 271
439 273
439 283
439 378
439 429
439 438
439 514
439 522
439 566
440 0
440 1
440 2
440 3
440 4
440 7
440 9
440 24
440 77
440 93
440 112
440 167
440 276
440 283
440 378
440 394
440 425
440 427
440 429
440 436
440 437
440 522
441 0
441 1
441 2
441 3
441 4
441 5
441 7
441 8
441 9
441 18
441 20
441 21
441 76
441 108
441 109
441 112
441 118
441 120
441 122
441 132
441 154
441 158
441 167
441 174
441 185
441 189
441 190
441 211
441 230
441 233
441 246
441 263
441 265
441 329
441 338
441 344
441 363
441 370
441 422
441 425
441 427
441 429
441 431
441 442
441 467
441 552
441 583
441 584
441 586
442 0
442 1
442 2
442 3
442 4
442 9
442 19
442 20
442 21
442 22
442 36
442 63
442 91
442 124
442 158
442 167
442 174
442 201
442 214
442 265
442 329
442 377
442 427
442 429
442 441
442 476
442 537
442 552
443 0
443 1
443 2
443 3
443 4
443 6
443 7
443 9
443 20
443 24
443 77
443 78
443 93
443 105
443 112
443 124
443 178
443 201
443 246
443 265
443 266
443 267
443 271
443 273
443 275
443 283
443 306
443 329
443 394
443 427
443 429
443 495
443 566
444 2
444 14
444 15
444 30
444 31
444 35
444 36
444 37
444 38
444 39
444 40
444 41
444 42
444 43
444 44
444 45
444 46
444 47
444 48
444 49
444 50
444 51
444 52
444 53
444 54
444 80
444 81
444 82
444 83
444 85
444 89
444 90
444 91
444 146
444 147
444 229
444 237
444 258
444 259
444 269
444 295
444 321
444 332
444 341
444 343
444 353
444 389
444 411
444 452
444 487
444 489
444 493
444 510
444 550
444 565
445 2
445 4
445 11
445 14
445 21
445 36
445 37
445 50
445 74
445 85
445 132
445 148
445 181
445 217
445 238
445 254
445 316
445 322
446 0
446 1
446 2
446 3
446 14
446 15
446 19
446 20
446 21
446 22
446 23
446 24
446 36
446 37
446 43
446 51
446 52
446 55
446 57
446 66
446 68
446 71
446 76
446 79
446 89
446 91
446 92
446 141
446 220
446 227
446 239
446 258
446 291
446 388
446 389
446 411
446 447
446 519
446 539
446 569
447 2
447 3
447 4
447 13
447 14
447 15
447 21
447 31
447 35
447 36
447 37
447 39
447 43
447 48
447 50
447 51
447 52
447 53
447 54
447 79
447 83
447 86
447 89
447 90
447 92
447 132
447 180
447 240
447 249
447 332
447 341
447 350
447 389
447 392
447 411
447 412
447 446
447 452
447 527
448 15
448 31
448 32
448 39
448 48
448 49
448 50
448 53
448 74
448 85
448 89
448 92
448 248
448 290
448 515
448 574
449 15
449 16
449 17
449 35
449 36
449 37
449 38
449 39
449 40
449 41
449 42
449 43
449 44
449 45
449 46
449 47
449 48
449 49
449 50
449 51
449 52
449 53
449 80
449 81
449 82
449 83
449 85
449 89
449 90
449 91
449 92
449 132
449 140
449 146
449 147
449 186
449 237
449 248
449 258
449 259
449 269
449 290
449 295
449 332
449 341
449 343
449 353
449 389
449 411
449 461
449 475
449 487
449 489
449 493
449 510
449 513
449 550
449 565
449 574
449 584
450 0
450 1
450 2
450 3
450 4
450 13
450 14
450 16
450 19
450 22
450 33
450 36
450 42
450 43
450 44
450 48
450 49
450 50
450 53
450 54
450 62
450 85
450 89
450 90
450 132
450 145
450 151
450 184
450 207
450 217
450 259
450 269
450 284
450 300
450 353
450 363
450 397
450 492
450 493
450 510
451 1
451 2
451 3
451 6
451 18
451 19
451 20
451 23
451 25
451 35
451 73
451 76
451 142
451 199
451 229
451 239
451 280
451 414
451 431
451 486
451 542
451 554
451 584
452 1
452 2
452 3
452 4
452 13
452 15
452 18
452 19
452 20
452 21
452 24
452 25
452 30
452 41
452 46
452 51
452 55
452 56
452 57
452 58
452 59
452 64
452 73
452 87
452 89
452 91
452 155
452 157
452 171
452 176
452 180
452 183
452 194
452 196
452 197
452 199
452 205
452 222
452 229
452 249
452 260
452 347
452 386
452 403
452 444
452 447
452 463
452 476
452 492
452 505
452 574
453 0
453 1
453 2
453 3
453 18
453 19
453 20
453 22
453 49
453 56
453 61
453 62
453 75
453 78
453 87
453 91
453 92
453 141
453 147
453 150
453 176
453 186
453 194
453 197
453 220
453 229
453 233
453 237
453 241
453 298
453 334
453 432
453 519
453 530
454 0
454 1
454 2
454 4
454 13
454 14
454 15
454 19
454 20
454 21
454 35
454 36
454 37
454 38
454 39
454 40
454 41
454 42
454 43
454 44
454 45
454 46
454 47
454 48
454 49
454 50
454 51
454 52
454 53
454 58
454 65
454 72
454 80
454 81
454 82
454 83
454 85
454 88
454 89
454 90
454 128
454 147
454 220
454 234
454 237
454 238
454 240
454 258
454 259
454 269
454 280
454 295
454 332
454 341
454 343
454 350
454 353
454 389
454 411
454 459
454 487
454 489
454 492
454 493
454 510
454 550
454 565
455 19
455 79
455 90
455 92
455 146
455 197
456 0
456 1
456 3
456 4
456 19
456 21
456 22
456 24
456 51
456 52
456 58
456 83
456 88
456 89
456 91
456 92
456 187
456 203
456 207
456 233
456 234
456 238
456 254
456 255
456 332
456 350
456 380
456 385
456 387
456 539
456 574
457 0
457 2
457 19
457 20
457 21
457 22
457 25
457 50
457 55
457 56
457 57
457 58
457 59
457 60
457 61
457 62
457 63
457 64
457 65
457 66
457 67
457 68
457 69
457 70
457 71
457 72
457 73
457 74
457 75
457 76
457 77
457 78
457 79
457 80
457 81
457 82
457 83
457 84
457 85
457 86
457 87
457 88
457 89
457 90
457 91
457 92
457 108
457 125
457 128
457 132
457 140
457 142
457 144
457 150
457 155
457 176
457 180
457 181
457 182
457 183
457 194
457 195
457 197
457 204
457 212
457 213
457 220
457 221
457 222
457 233
457 238
457 239
457 240
457 241
457 242
457 249
457 254
457 265
457 280
457 291
457 293
457 321
457 333
457 334
457 335
457 338
457 347
457 348
457 350
457 356
457 362
457 373
457 380
457 382
457 385
457 386
457 388
457 403
457 407
457 414
457 415
457 417
457 418
457 428
457 475
457 505
457 510
457 511
457 555
457 556
458 1
458 6
458 19
458 20
458 21
458 41
458 50
458 56
458 92
458 128
458 180
458 220
458 222
458 249
458 259
458 388
458 476
458 478
458 503
459 1
459 2
459 3
459 14
459 15
459 19
459 20
459 21
459 36
459 42
459 49
459 53
459 56
459 57
459 58
459 64
459 86
459 91
459 92
459 128
459 155
459 180
459 194
459 207
459 220
459 229
459 251
459 385
459 405
459 454
459 485
459 490
459 498
459 563
460 0
460 1
460 4
460 5
460 6
460 11
460 12
460 19
460 20
460 22
460 55
460 56
460 62
460 64
460 70
460 72
460 86
460 89
460 91
460 92
460 108
460 181
460 235
460 280
460 334
460 350
460 368
460 481
460 524
461 0
461 1
461 2
461 3
461 5
461 7
461 9
461 13
461 14
461 15
461 19
461 39
461 52
461 67
461 74
461 75
461 78
461 79
461 89
461 90
461 91
461 92
461 93
461 102
461 131
461 132
461 136
461 140
461 146
461 167
461 186
461 197
461 206
461 209
461 210
461 219
461 248
461 259
461 283
461 290
461 304
461 328
461 396
461 419
461 420
461 421
461 422
461 423
461 424
461 425
461 426
461 427
461 428
461 429
461 430
461 431
461 432
461 449
461 504
461 534
461 571
461 583
461 584
461 585
461 586
461 587
461 588
462 0
462 1
462 2
462 3
462 4
462 19
462 20
462 74
462 86
462 91
462 92
462 146
462 150
462 167
462 169
462 197
462 217
462 316
462 432
462 481
462 584
463 2
463 3
463 4
463 5
463 6
463 19
463 23
463 24
463 43
463 54
463 56
463 71
463 72
463 73
463 74
463 89
463 91
463 92
463 203
463 207
463 211
463 280
463 347
463 452
463 496
463 574
463 575
464 0
464 1
464 2
464 4
464 6
464 8
464 11
464 19
464 20
464 22
464 24
464 49
464 58
464 74
464 77
464 91
464 148
464 169
464 181
464 187
464 203
464 207
464 211
464 218
464 223
464 233
464 347
464 370
464 380
464 385
464 573
465 0
465 1
465 2
465 3
465 4
465 5
465 19
465 20
465 21
465 22
465 23
465 24
465 56
465 57
465 58
465 67
465 70
465 75
465 77
465 78
465 82
465 91
465 176
465 180
465 185
465 189
465 191
465 195
465 220
465 239
465 251
465 254
465 263
465 319
465 321
465 425
465 481
465 539
465 583
465 587
466 0
466 2
466 20
466 22
466 43
466 62
466 79
466 86
466 92
466 132
466 146
466 248
466 290
466 349
466 500
466 575
467 0
467 1
467 2
467 3
467 7
467 15
467 16
467 20
467 28
467 35
467 41
467 43
467 48
467 51
467 56
467 58
467 72
467 73
467 74
467 79
467 82
467 85
467 88
467 89
467 91
467 92
467 132
467 140
467 146
467 147
467 157
467 174
467 186
467 199
467 205
467 209
467 217
467 220
467 224
467 240
467 280
467 282
467 291
467 293
467 322
467 334
467 335
467 350
467 382
467 431
467 441
467 467
467 503
467 519
467 535
467 553
467 584
468 0
468 1
468 2
468 3
468 4
468 12
468 20
468 22
468 73
468 79
468 91
468 223
468 414
469 1
469 2
469 3
469 4
469 18
469 19
469 20
469 22
469 55
469 56
469 57
469 58
469 59
469 60
469 61
469 62
469 63
469 64
469 65
469 66
469 67
469 68
469 69
469 70
469 71
469 72
469 73
469 75
469 76
469 77
469 78
469 79
469 80
469 81
469 82
469 83
469 84
469 85
469 86
469 87
469 88
469 90
469 91
469 92
469 125
469 128
469 140
469 142
469 144
469 150
469 155
469 157
469 166
469 176
469 180
469 181
469 182
469 183
469 194
469 195
469 197
469 203
469 204
469 212
469 220
469 221
469 222
469 233
469 238
469 239
469 240
469 241
469 242
469 249
469 251
469 254
469 265
469 280
469 291
469 293
469 321
469 333
469 334
469 335
469 338
469 347
469 348
469 356
469 362
469 373
469 380
469 382
469 385
469 386
469 388
469 403
469 407
469 414
469 415
469 417
469 418
469 428
469 505
469 511
469 521
469 563
470 0
470 1
470 2
470 4
470 6
470 12
470 20
470 21
470 22
470 23
470 27
470 28
470 33
470 55
470 56
470 57
470 58
470 59
470 60
470 61
470 62
470 63
470 64
470 65
470 66
470 67
470 68
470 69
470 70
470 71
470 72
470 73
470 75
470 76
470 77
470 78
470 79
470 80
470 81
470 82
470 83
470 84
470 85
470 86
470 87
470 88
470 90
470 91
470 92
470 125
470 128
470 140
470 142
470 144
470 150
470 155
470 176
470 180
470 181
470 182
470 183
470 194
470 195
470 197
470 199
470 204
470 212
470 220
470 221
470 222
470 229
470 233
470 238
470 239
470 240
470 241
470 242
470 249
470 254
470 265
470 280
470 291
470 293
470 321
470 333
470 334
470 335
470 338
470 347
470 348
470 356
470 362
470 373
470 380
470 382
470 385
470 386
470 388
470 403
470 407
470 414
470 415
470 416
470 417
470 418
470 428
470 474
470 475
470 505
470 511
470 554
471 1
471 2
471 3
471 4
471 7
471 20
471 54
471 79
471 88
471 93
471 124
471 152
471 172
471 178
471 271
471 273
471 283
471 378
471 394
471 427
471 514
471 522
471 543
472 1
472 5
472 7
472 14
472 20
472 21
472 32
472 36
472 41
472 50
472 63
472 72
472 84
472 85
472 89
472 91
472 92
472 155
472 181
472 217
472 234
472 334
472 363
472 371
472 372
473 1
473 2
473 3
473 5
473 19
473 20
473 21
473 22
473 24
473 55
473 56
473 57
473 58
473 59
473 60
473 61
473 62
473 63
473 64
473 65
473 66
473 67
473 68
473 69
473 70
473 71
473 72
473 73
473 75
473 76
473 77
473 78
473 79
473 80
473 81
473 82
473 83
473 84
473 85
473 86
473 87
473 88
473 89
473 90
473 91
473 92
473 125
473 128
473 129
473 132
473 140
473 141
473 142
473 144
473 150
473 155
473 157
473 176
473 177
473 180
473 181
473 182
473 183
473 191
473 194
473 195
473 197
473 204
473 212
473 215
473 220
473 221
473 222
473 233
473 238
473 239
473 240
473 241
473 242
473 249
473 254
473 265
473 280
473 291
473 293
473 296
473 321
473 333
473 334
473 335
473 338
473 347
473 348
473 356
473 362
473 373
473 380
473 382
473 385
473 386
473 388
473 403
473 407
473 409
473 414
473 415
473 417
473 418
473 428
473 473
473 505
473 511
473 562
474 3
474 4
474 6
474 12
474 19
474 20
474 21
474 22
474 23
474 25
474 27
474 28
474 33
474 57
474 58
474 59
474 62
474 63
474 70
474 73
474 76
474 84
474 89
474 142
474 144
474 181
474 196
474 199
474 321
474 386
474 416
474 417
474 470
474 475
475 0
475 4
475 6
475 12
475 15
475 16
475 19
475 20
475 21
475 22
475 23
475 25
475 27
475 28
475 30
475 31
475 33
475 41
475 50
475 53
475 57
475 58
475 59
475 62
475 63
475 70
475 73
475 76
475 81
475 84
475 85
475 89
475 90
475 91
475 92
475 132
475 142
475 144
475 145
475 155
475 181
475 196
475 199
475 321
475 386
475 416
475 417
475 449
475 457
475 470
475 474
475 513
475 517
475 574
476 0
476 1
476 2
476 3
476 19
476 20
476 21
476 41
476 55
476 56
476 57
476 58
476 59
476 60
476 61
476 62
476 63
476 64
476 65
476 66
476 67
476 68
476 69
476 70
476 71
476 72
476 73
476 74
476 75
476 76
476 77
476 78
476 79
476 80
476 81
476 82
476 83
476 84
476 85
476 86
476 87
476 88
476 89
476 90
476 91
476 92
476 125
476 128
476 140
476 142
476 144
476 146
476 150
476 155
476 176
476 180
476 181
476 182
476 183
476 194
476 195
476 197
476 204
476 206
476 212
476 220
476 221
476 222
476 229
476 233
476 238
476 239
476 240
476 241
476 242
476 249
476 254
476 265
476 280
476 291
476 293
476 321
476 333
476 334
476 335
476 338
476 347
476 348
476 356
476 362
476 373
476 380
476 382
476 385
476 386
476 388
476 403
476 407
476 414
476 415
476 417
476 418
476 428
476 442
476 452
476 458
476 478
476 503
476 505
476 509
476 511
476 542
477 21
477 234
478 0
478 1
478 2
478 3
478 4
478 19
478 20
478 21
478 22
478 41
478 44
478 50
478 58
478 60
478 61
478 62
478 77
478 86
478 87
478 89
478 91
478 92
478 100
478 107
478 114
478 123
478 125
478 129
478 137
478 157
478 174
478 180
478 208
478 220
478 221
478 222
478 229
478 241
478 244
478 249
478 254
478 257
478 259
478 321
478 357
478 410
478 458
478 476
478 483
478 503
478 521
479 12
479 21
479 59
479 62
479 89
479 92
479 157
479 183
479 196
479 239
479 249
479 321
479 334
479 418
480 0
480 1
480 2
480 5
480 13
480 20
480 21
480 35
480 53
480 72
480 84
480 86
480 88
480 89
480 91
480 92
480 110
480 154
480 155
480 180
480 183
480 199
480 221
480 229
480 241
480 321
480 344
480 369
480 386
480 388
480 407
480 483
480 487
480 548
480 563
481 0
481 1
481 2
481 3
481 4
481 5
481 12
481 16
481 19
481 21
481 48
481 70
481 74
481 75
481 86
481 88
481 91
481 92
481 105
481 123
481 132
481 146
481 148
481 150
481 168
481 176
481 183
481 197
481 215
481 217
481 234
481 241
481 280
481 393
481 395
481 460
481 462
481 465
481 525
482 0
482 7
482 19
482 21
482 74
482 86
482 91
482 221
482 241
482 403
482 415
482 499
483 1
483 2
483 3
483 4
483 5
483 6
483 7
483 14
483 18
483 19
483 20
483 21
483 22
483 39
483 48
483 54
483 58
483 63
483 73
483 74
483 76
483 86
483 87
483 88
483 89
483 90
483 91
483 92
483 99
483 102
483 123
483 124
483 126
483 132
483 140
483 155
483 163
483 170
483 174
483 181
483 182
483 188
483 190
483 194
483 195
483 199
483 209
483 220
483 221
483 226
483 227
483 234
483 241
483 242
483 253
483 259
483 272
483 291
483 310
483 321
483 324
483 331
483 344
483 357
483 368
483 373
483 403
483 407
483 409
483 415
483 418
483 478
483 480
483 499
483 504
483 548
483 558
483 569
484 0
484 1
484 21
484 26
484 57
484 87
484 183
484 241
485 1
485 2
485 3
485 21
485 22
485 63
485 69
485 74
485 88
485 89
485 91
485 128
485 205
485 207
485 220
485 255
485 256
485 259
485 324
485 385
485 411
485 459
485 520
485 555
486 0
486 1
486 2
486 3
486 4
486 18
486 19
486 20
486 21
486 36
486 56
486 57
486 59
486 84
486 91
486 122
486 128
486 154
486 183
486 270
486 327
486 451
486 547
487 0
487 1
487 13
487 14
487 15
487 16
487 17
487 21
487 29
487 30
487 31
487 32
487 35
487 36
487 37
487 38
487 39
487 40
487 41
487 42
487 43
487 44
487 45
487 46
487 47
487 48
487 49
487 50
487 51
487 52
487 53
487 54
487 74
487 80
487 81
487 82
487 83
487 85
487 89
487 90
487 91
487 92
487 128
487 132
487 140
487 146
487 147
487 220
487 221
487 237
487 258
487 259
487 269
487 291
487 295
487 332
487 341
487 343
487 348
487 353
487 389
487 411
487 444
487 449
487 454
487 480
487 487
487 489
487 493
487 508
487 510
487 531
487 550
487 565
487 574
487 575
488 19
488 20
488 21
488 50
488 55
488 56
488 57
488 58
488 59
488 60
488 61
488 62
488 63
488 64
488 65
488 66
488 67
488 68
488 69
488 70
488 71
488 72
488 73
488 75
488 76
488 77
488 78
488 79
488 80
488 81
488 82
488 83
488 84
488 85
488 86
488 87
488 88
488 89
488 90
488 91
488 92
488 125
488 128
488 140
488 142
488 144
488 150
488 155
488 176
488 180
488 181
488 182
488 183
488 194
488 195
488 197
488 204
488 212
488 220
488 221
488 222
488 229
488 233
488 238
488 239
488 240
488 241
488 242
488 249
488 254
488 255
488 265
488 280
488 291
488 293
488 321
488 322
488 333
488 334
488 335
488 338
488 347
488 348
488 356
488 362
488 373
488 380
488 382
488 385
488 386
488 388
488 403
488 407
488 414
488 415
488 417
488 418
488 428
488 492
488 505
488 511
488 574
489 1
489 3
489 4
489 13
489 14
489 15
489 16
489 17
489 21
489 29
489 30
489 31
489 32
489 35
489 36
489 37
489 38
489 39
489 40
489 41
489 42
489 43
489 44
489 45
489 46
489 47
489 48
489 49
489 50
489 51
489 52
489 53
489 54
489 74
489 79
489 80
489 81
489 82
489 83
489 85
489 89
489 90
489 92
489 128
489 147
489 220
489 237
489 258
489 259
489 269
489 282
489 287
489 291
489 295
489 332
489 341
489 343
489 353
489 389
489 411
489 444
489 449
489 454
489 487
489 493
489 510
489 531
489 550
489 565
489 574
489 575
490 0
490 3
490 21
490 22
490 25
490 86
490 88
490 91
490 92
490 128
490 188
490 205
490 238
490 291
490 363
490 388
490 425
490 459
490 502
490 507
491 0
491 1
491 2
491 19
491 20
491 21
491 23
491 26
491 64
491 87
491 99
491 176
491 177
491 180
491 183
491 303
491 321
491 495
492 0
492 4
492 5
492 7
492 13
492 14
492 15
492 18
492 20
492 21
492 38
492 43
492 48
492 49
492 50
492 55
492 56
492 57
492 58
492 59
492 60
492 61
492 62
492 63
492 64
492 65
492 66
492 67
492 68
492 69
492 70
492 71
492 72
492 73
492 75
492 76
492 77
492 78
492 79
492 80
492 81
492 82
492 83
492 84
492 85
492 86
492 87
492 88
492 89
492 90
492 91
492 92
492 125
492 128
492 132
492 140
492 142
492 144
492 150
492 155
492 171
492 176
492 180
492 181
492 182
492 183
492 194
492 195
492 197
492 204
492 207
492 212
492 220
492 221
492 222
492 229
492 233
492 234
492 238
492 239
492 240
492 241
492 242
492 249
492 254
492 255
492 265
492 269
492 280
492 291
492 293
492 321
492 333
492 334
492 335
492 338
492 347
492 348
492 350
492 356
492 362
492 373
492 380
492 382
492 385
492 386
492 388
492 403
492 407
492 414
492 415
492 417
492 418
492 428
492 450
492 452
492 454
492 488
492 505
492 506
492 511
493 1
493 4
493 13
493 14
493 15
493 16
493 17
493 21
493 22
493 29
493 30
493 31
493 32
493 35
493 36
493 37
493 38
493 39
493 40
493 41
493 42
493 43
493 44
493 45
493 46
493 47
493 48
493 49
493 50
493 51
493 52
493 53
493 54
493 69
493 74
493 79
493 80
493 81
493 82
493 83
493 85
493 86
493 89
493 90
493 91
493 92
493 108
493 128
493 132
493 146
493 147
493 220
493 234
493 237
493 238
493 258
493 259
493 269
493 284
493 291
493 295
493 304
493 332
493 341
493 343
493 353
493 363
493 389
493 411
493 444
493 449
493 450
493 454
493 487
493 489
493 510
493 520
493 531
493 550
493 565
493 574
493 575
493 583
494 0
494 1
494 2
494 3
494 19
494 20
494 21
494 36
494 65
494 69
494 76
494 86
494 89
494 90
494 92
494 108
494 291
494 356
494 376
494 380
494 411
495 1
495 2
495 19
495 20
495 21
495 23
495 26
495 64
495 87
495 176
495 177
495 180
495 183
495 321
495 443
495 491
496 0
496 1
496 2
496 3
496 4
496 11
496 19
496 21
496 32
496 43
496 54
496 74
496 85
496 89
496 91
496 92
496 132
496 148
496 181
496 187
496 203
496 207
496 217
496 234
496 238
496 268
496 280
496 347
496 350
496 385
496 463
496 500
496 557
496 575
497 1
497 2
497 21
497 32
497 74
497 85
497 89
497 146
497 217
497 221
497 241
497 248
497 290
497 296
497 424
497 532
497 574
498 0
498 1
498 15
498 20
498 21
498 25
498 31
498 47
498 50
498 58
498 59
498 72
498 79
498 85
498 88
498 89
498 90
498 91
498 92
498 180
498 183
498 199
498 240
498 382
498 459
498 550
498 574
499 0
499 1
499 2
499 4
499 5
499 7
499 21
499 26
499 84
499 86
499 87
499 91
499 125
499 137
499 187
499 217
499 221
499 241
499 321
499 369
499 384
499 403
499 417
499 418
499 482
499 483
499 499
499 507
499 539
499 546
499 558
500 0
500 2
500 3
500 21
500 22
500 60
500 92
500 132
500 146
500 203
500 217
500 221
500 241
500 274
500 300
500 327
500 419
500 466
500 496
501 1
501 2
501 3
501 7
501 11
501 15
501 20
501 21
501 25
501 26
501 34
501 44
501 74
501 84
501 87
501 92
501 132
501 146
501 157
501 181
501 206
501 222
501 224
501 241
501 248
501 251
501 253
501 290
501 382
501 384
501 412
501 422
501 555
501 558
501 562
501 582
501 584
501 588
502 0
502 1
502 2
502 3
502 4
502 5
502 6
502 7
502 8
502 11
502 20
502 21
502 22
502 23
502 24
502 25
502 26
502 33
502 34
502 43
502 49
502 53
502 58
502 62
502 63
502 66
502 68
502 70
502 71
502 72
502 74
502 76
502 84
502 87
502 88
502 89
502 90
502 91
502 142
502 144
502 148
502 152
502 155
502 171
502 181
502 188
502 207
502 218
502 223
502 227
502 239
502 241
502 256
502 281
502 288
502 292
502 313
502 321
502 367
502 368
502 369
502 370
502 371
502 372
502 373
502 374
502 375
502 406
502 407
502 413
502 414
502 415
502 416
502 417
502 418
502 490
502 502
502 539
503 1
503 2
503 3
503 6
503 19
503 20
503 21
503 36
503 55
503 56
503 57
503 58
503 59
503 60
503 61
503 62
503 63
503 64
503 65
503 66
503 67
503 68
503 69
503 70
503 71
503 72
503 73
503 75
503 76
503 77
503 78
503 79
503 80
503 81
503 82
503 83
503 84
503 85
503 86
503 87
503 88
503 89
503 90
503 91
503 92
503 125
503 128
503 140
503 141
503 142
503 144
503 150
503 155
503 176
503 180
503 181
503 182
503 183
503 186
503 194
503 195
503 197
503 199
503 204
503 212
503 217
503 220
503 221
503 222
503 233
503 238
503 239
503 240
503 241
503 242
503 249
503 254
503 265
503 280
503 291
503 293
503 321
503 333
503 334
503 335
503 338
503 347
503 348
503 356
503 362
503 373
503 380
503 382
503 385
503 386
503 388
503 403
503 407
503 414
503 415
503 417
503 418
503 428
503 458
503 467
503 476
503 478
503 505
503 511
504 1
504 3
504 9
504 18
504 21
504 56
504 58
504 59
504 67
504 91
504 131
504 132
504 136
504 186
504 209
504 210
504 219
504 221
504 248
504 260
504 290
504 304
504 328
504 396
504 411
504 419
504 420
504 421
504 422
504 424
504 425
504 428
504 429
504 431
504 432
504 461
504 483
504 534
504 583
504 584
504 585
504 586
504 587
504 588
505 0
505 1
505 2
505 3
505 4
505 5
505 13
505 14
505 18
505 19
505 20
505 21
505 22
505 23
505 24
505 25
505 26
505 27
505 28
505 29
505 30
505 31
505 32
505 33
505 34
505 37
505 38
505 44
505 45
505 46
505 47
505 48
505 49
505 50
505 53
505 55
505 56
505 57
505 58
505 59
505 60
505 61
505 62
505 63
505 64
505 65
505 66
505 67
505 68
505 69
505 70
505 71
505 72
505 73
505 74
505 75
505 76
505 77
505 78
505 79
505 80
505 81
505 82
505 83
505 84
505 85
505 86
505 87
505 88
505 89
505 90
505 91
505 92
505 125
505 128
505 132
505 140
505 141
505 142
505 144
505 148
505 150
505 155
505 157
505 176
505 180
505 181
505 182
505 183
505 188
505 194
505 195
505 196
505 197
505 199
505 204
505 205
505 206
505 207
505 212
505 217
505 220
505 221
505 222
505 223
505 229
505 233
505 234
505 238
505 239
505 240
505 241
505 242
505 249
505 254
505 257
505 265
505 269
505 280
505 291
505 292
505 293
505 321
505 322
505 333
505 334
505 335
505 338
505 347
505 348
505 356
505 362
505 373
505 380
505 382
505 385
505 386
505 388
505 396
505 403
505 407
505 414
505 415
505 417
505 418
505 428
505 452
505 457
505 469
505 470
505 473
505 476
505 488
505 492
505 503
505 505
505 511
505 516
505 517
505 547
505 554
505 556
505 569
505 570
505 574
505 585
505 587
505 588
506 1
506 19
506 22
506 74
506 89
506 90
506 91
506 92
506 132
506 139
506 140
506 335
506 492
506 520
506 574
507 0
507 1
507 3
507 14
507 19
507 22
507 75
507 86
507 88
507 91
507 92
507 125
507 126
507 132
507 140
507 146
507 150
507 182
507 223
507 327
507 338
507 436
507 490
507 499
507 512
507 516
507 522
508 13
508 22
508 88
508 91
508 125
508 195
508 199
508 487
508 523
509 0
509 1
509 2
509 3
509 4
509 7
509 19
509 20
509 22
509 73
509 74
509 79
509 82
509 86
509 88
509 89
509 90
509 91
509 92
509 97
509 122
509 128
509 140
509 146
509 154
509 186
509 205
509 220
509 236
509 241
509 248
509 290
509 329
509 331
509 419
509 476
509 542
509 574
510 1
510 2
510 5
510 13
510 14
510 15
510 16
510 17
510 22
510 29
510 30
510 31
510 32
510 35
510 36
510 37
510 38
510 39
510 40
510 41
510 42
510 43
510 44
510 45
510 46
510 47
510 48
510 49
510 50
510 51
510 52
510 53
510 54
510 74
510 79
510 80
510 81
510 82
510 83
510 85
510 88
510 89
510 90
510 91
510 92
510 128
510 146
510 147
510 155
510 220
510 237
510 258
510 259
510 269
510 295
510 332
510 341
510 343
510 353
510 389
510 411
510 444
510 449
510 450
510 454
510 457
510 487
510 489
510 493
510 531
510 550
510 565
510 574
510 575
511 0
511 1
511 2
511 4
511 18
511 19
511 20
511 21
511 22
511 23
511 24
511 25
511 26
511 27
511 28
511 29
511 30
511 31
511 32
511 33
511 34
511 42
511 43
511 45
511 46
511 47
511 53
511 54
511 55
511 56
511 57
511 58
511 59
511 60
511 61
511 62
511 63
511 64
511 65
511 66
511 67
511 68
511 69
511 70
511 71
511 72
511 73
511 74
511 75
511 76
511 77
511 78
511 79
511 80
511 81
511 82
511 83
511 84
511 85
511 86
511 87
511 88
511 89
511 90
511 91
511 92
511 94
511 125
511 128
511 132
511 140
511 141
511 142
511 144
511 148
511 149
511 150
511 155
511 157
511 176
511 180
511 181
511 182
511 183
511 184
511 188
511 190
511 194
511 195
511 196
511 197
511 199
511 204
511 205
511 206
511 212
511 217
511 220
511 221
511 222
511 223
511 229
511 233
511 234
511 238
511 239
511 240
511 241
511 242
511 249
511 254
511 257
511 265
511 280
511 291
511 292
511 293
511 321
511 333
511 334
511 335
511 338
511 342
511 347
511 348
511 356
511 362
511 364
511 373
511 380
511 382
511 385
511 386
511 388
511 396
511 403
511 407
511 414
511 415
511 417
511 418
511 428
511 457
511 469
511 470
511 473
511 476
511 488
511 492
511 503
511 505
511 516
511 517
511 547
511 554
511 556
511 568
511 569
511 570
511 574
511 575
511 585
511 587
511 588
512 1
512 2
512 3
512 4
512 15
512 19
512 22
512 39
512 63
512 87
512 88
512 91
512 182
512 187
512 205
512 207
512 403
512 421
512 425
512 428
512 436
512 437
512 507
512 516
512 522
512 553
512 583
512 585
513 0
513 1
513 13
513 89
513 90
513 91
513 125
513 132
513 140
513 146
513 206
513 313
513 449
513 475
513 513
513 574
514 0
514 1
514 2
514 3
514 4
514 6
514 20
514 22
514 88
514 150
514 152
514 167
514 172
514 178
514 271
514 378
514 438
514 439
514 471
514 522
514 576
515 0
515 1
515 2
515 3
515 17
515 40
515 50
515 52
515 74
515 76
515 87
515 89
515 90
515 91
515 92
515 102
515 132
515 190
515 270
515 273
515 321
515 358
515 448
515 574
516 0
516 1
516 2
516 3
516 20
516 22
516 26
516 42
516 55
516 56
516 57
516 58
516 59
516 60
516 61
516 62
516 63
516 64
516 65
516 66
516 67
516 68
516 69
516 70
516 71
516 72
516 73
516 75
516 76
516 77
516 78
516 79
516 80
516 81
516 82
516 83
516 84
516 85
516 86
516 87
516 88
516 89
516 90
516 91
516 92
516 125
516 128
516 140
516 142
516 144
516 150
516 155
516 176
516 180
516 181
516 182
516 183
516 194
516 195
516 197
516 204
516 205
516 212
516 220
516 221
516 222
516 233
516 238
516 239
516 240
516 241
516 242
516 249
516 254
516 265
516 280
516 291
516 293
516 321
516 333
516 334
516 335
516 338
516 347
516 348
516 356
516 362
516 373
516 380
516 382
516 385
516 386
516 388
516 403
516 407
516 414
516 415
516 417
516 418
516 428
516 505
516 507
516 511
516 512
516 522
516 523
517 0
517 1
517 19
517 20
517 22
517 55
517 56
517 57
517 58
517 59
517 60
517 61
517 62
517 63
517 64
517 65
517 66
517 67
517 68
517 69
517 70
517 71
517 72
517 73
517 75
517 76
517 77
517 78
517 79
517 80
517 81
517 82
517 83
517 84
517 85
517 86
517 87
517 88
517 89
517 90
517 91
517 92
517 125
517 128
517 132
517 140
517 142
517 144
517 150
517 155
517 176
517 180
517 181
517 182
517 183
517 188
517 194
517 195
517 197
517 204
517 212
517 220
517 221
517 222
517 233
517 238
517 239
517 240
517 241
517 242
517 249
517 254
517 265
517 280
517 291
517 293
517 321
517 333
517 334
517 335
517 338
517 347
517 348
517 356
517 362
517 373
517 380
517 382
517 385
517 386
517 388
517 403
517 407
517 414
517 415
517 417
517 418
517 428
517 475
517 505
517 511
517 524
517 574
518 0
518 1
518 2
518 3
518 13
518 15
518 22
518 24
518 31
518 36
518 37
518 38
518 43
518 51
518 52
518 54
518 71
518 73
518 74
518 83
518 88
518 89
518 90
518 91
518 132
518 145
518 147
518 152
518 190
518 224
518 268
518 389
518 419
518 520
518 536
518 574
519 0
519 1
519 2
519 3
519 20
519 22
519 54
519 59
519 72
519 86
519 88
519 89
519 92
519 132
519 176
519 188
519 240
519 275
519 347
519 411
519 446
519 453
519 467
519 538
520 0
520 2
520 3
520 4
520 13
520 14
520 18
520 22
520 35
520 36
520 56
520 74
520 88
520 89
520 91
520 132
520 166
520 188
520 268
520 281
520 300
520 485
520 493
520 506
520 518
520 535
520 574
521 0
521 1
521 18
521 21
521 22
521 23
521 74
521 79
521 88
521 91
521 102
521 132
521 136
521 146
521 151
521 183
521 217
521 220
521 221
521 241
521 469
521 478
521 521
521 563
522 0
522 1
522 2
522 3
522 4
522 6
522 7
522 9
522 19
522 22
522 39
522 84
522 88
522 89
522 92
522 93
522 105
522 112
522 124
522 136
522 152
522 167
522 174
522 182
522 190
522 248
522 253
522 271
522 283
522 290
522 291
522 304
522 378
522 422
522 425
522 427
522 428
522 429
522 436
522 437
522 438
522 439
522 440
522 471
522 507
522 512
522 514
522 516
522 585
523 0
523 1
523 2
523 4
523 19
523 22
523 25
523 86
523 88
523 92
523 213
523 217
523 220
523 291
523 302
523 322
523 508
523 516
523 523
523 555
524 2
524 19
524 20
524 24
524 55
524 58
524 65
524 74
524 89
524 91
524 92
524 171
524 194
524 199
524 203
524 347
524 460
524 517
524 547
524 574
525 0
525 1
525 2
525 4
525 5
525 20
525 21
525 22
525 88
525 89
525 90
525 91
525 92
525 190
525 217
525 238
525 275
525 481
525 556
525 564
525 568
525 574
526 0
526 1
526 2
526 4
526 5
526 7
526 8
526 11
526 18
526 19
526 21
526 22
526 23
526 25
526 57
526 59
526 62
526 84
526 87
526 91
526 125
526 176
526 181
526 218
526 239
526 246
526 249
526 288
526 351
526 369
526 370
526 373
526 403
526 406
526 539
526 562
527 1
527 2
527 3
527 5
527 13
527 14
527 19
527 21
527 31
527 35
527 38
527 53
527 85
527 89
527 90
527 91
527 92
527 148
527 356
527 447
527 563
527 574
528 0
528 1
528 2
528 5
528 19
528 22
528 125
528 185
528 189
528 195
528 202
528 228
528 231
528 233
528 242
528 254
528 546
529 0
529 2
529 6
529 22
529 77
529 97
529 125
529 185
529 189
529 202
529 211
529 545
530 0
530 1
530 2
530 4
530 6
530 14
530 15
530 19
530 21
530 22
530 44
530 91
530 142
530 154
530 159
530 163
530 174
530 182
530 226
530 240
530 242
530 265
530 266
530 301
530 326
530 327
530 334
530 339
530 368
530 453
530 547
530 557
530 563
531 0
531 35
531 36
531 37
531 38
531 39
531 40
531 41
531 42
531 43
531 44
531 45
531 46
531 47
531 48
531 49
531 50
531 51
531 52
531 53
531 54
531 69
531 74
531 77
531 80
531 81
531 82
531 83
531 85
531 88
531 89
531 90
531 91
531 92
531 146
531 147
531 220
531 237
531 258
531 259
531 269
531 287
531 295
531 332
531 341
531 343
531 353
531 380
531 389
531 411
531 487
531 489
531 493
531 510
531 550
531 565
531 574
532 1
532 3
532 5
532 25
532 32
532 36
532 39
532 54
532 85
532 89
532 90
532 92
532 132
532 145
532 146
532 148
532 304
532 411
532 497
532 574
532 583
533 0
533 1
533 2
533 3
533 4
533 5
533 7
533 15
533 39
533 57
533 69
533 89
533 92
533 102
533 110
533 122
533 174
533 216
533 253
533 270
533 271
533 354
533 427
533 533
533 574
534 1
534 3
534 7
534 9
534 19
534 58
534 67
534 73
534 74
534 75
534 78
534 82
534 89
534 90
534 91
534 102
534 131
534 136
534 140
534 146
534 186
534 197
534 206
534 210
534 217
534 219
534 304
534 328
534 396
534 412
534 419
534 420
534 421
534 422
534 423
534 424
534 425
534 426
534 427
534 428
534 429
534 430
534 431
534 432
534 461
534 504
534 544
534 574
534 583
534 584
534 585
534 586
534 587
534 588
535 0
535 1
535 2
535 3
535 13
535 15
535 16
535 48
535 49
535 89
535 90
535 92
535 132
535 145
535 147
535 209
535 259
535 295
535 435
535 467
535 520
535 574
536 0
536 1
536 2
536 3
536 89
536 264
536 268
536 270
536 300
536 327
536 354
536 359
536 363
536 366
536 518
536 574
536 582
537 1
537 2
537 4
537 5
537 24
537 77
537 87
537 88
537 91
537 92
537 109
537 132
537 137
537 148
537 151
537 154
537 158
537 185
537 189
537 195
537 199
537 228
537 251
537 263
537 281
537 442
537 544
537 547
537 573
538 0
538 1
538 2
538 3
538 4
538 5
538 11
538 20
538 22
538 24
538 25
538 34
538 63
538 72
538 74
538 75
538 77
538 78
538 84
538 86
538 87
538 91
538 92
538 109
538 140
538 142
538 145
538 146
538 148
538 149
538 176
538 181
538 190
538 194
538 197
538 199
538 206
538 216
538 223
538 229
538 236
538 254
538 257
538 273
538 293
538 296
538 321
538 338
538 350
538 373
538 382
538 395
538 432
538 519
538 542
538 547
538 548
539 0
539 1
539 2
539 3
539 4
539 5
539 6
539 7
539 8
539 11
539 18
539 20
539 21
539 22
539 23
539 24
539 25
539 26
539 28
539 34
539 58
539 59
539 60
539 61
539 64
539 66
539 68
539 70
539 71
539 76
539 77
539 84
539 87
539 91
539 92
539 108
539 132
539 148
539 181
539 185
539 187
539 188
539 189
539 202
539 207
539 214
539 218
539 223
539 227
539 228
539 238
539 239
539 241
539 251
539 263
539 288
539 329
539 338
539 367
539 368
539 369
539 370
539 371
539 372
539 373
539 374
539 375
539 407
539 413
539 414
539 446
539 456
539 465
539 499
539 502
539 526
539 539
539 552
539 567
540 2
540 24
540 77
540 91
540 92
541 4
541 21
541 22
541 24
541 60
541 77
541 92
541 148
541 151
541 185
541 189
541 217
541 318
541 371
541 424
542 0
542 1
542 2
542 3
542 4
542 19
542 24
542 57
542 61
542 73
542 75
542 76
542 77
542 91
542 92
542 93
542 118
542 119
542 120
542 148
542 154
542 172
542 174
542 176
542 178
542 180
542 183
542 191
542 194
542 195
542 196
542 197
542 199
542 205
542 206
542 230
542 240
542 244
542 271
542 280
542 283
542 296
542 329
542 379
542 403
542 407
542 414
542 451
542 476
542 509
542 538
542 543
542 544
542 546
542 547
542 576
543 1
543 2
543 3
543 4
543 6
543 24
543 77
543 88
543 90
543 92
543 93
543 96
543 148
543 172
543 178
543 217
543 220
543 252
543 271
543 283
543 291
543 388
543 471
543 542
544 1
544 2
544 3
544 4
544 24
544 77
544 92
544 102
544 132
544 136
544 167
544 187
544 219
544 284
544 323
544 347
544 397
544 430
544 534
544 537
544 542
544 583
545 0
545 2
545 24
545 77
545 86
545 90
545 125
545 137
545 148
545 202
545 529
546 0
546 1
546 3
546 4
546 5
546 24
546 77
546 127
546 151
546 185
546 189
546 195
546 219
546 228
546 304
546 337
546 499
546 528
546 542
546 546
547 0
547 1
547 2
547 3
547 4
547 6
547 20
547 21
547 22
547 24
547 28
547 34
547 36
547 38
547 42
547 49
547 53
547 55
547 56
547 57
547 58
547 59
547 60
547 61
547 62
547 63
547 64
547 65
547 66
547 67
547 68
547 69
547 70
547 71
547 72
547 73
547 75
547 76
547 77
547 78
547 79
547 80
547 81
547 82
547 83
547 84
547 85
547 86
547 87
547 88
547 89
547 90
547 91
547 92
547 109
547 125
547 128
547 140
547 142
547 144
547 146
547 150
547 155
547 157
547 176
547 180
547 181
547 182
547 183
547 193
547 194
547 195
547 197
547 199
547 203
547 204
547 206
547 212
547 220
547 221
547 222
547 224
547 233
547 235
547 238
547 239
547 240
547 241
547 242
547 244
547 249
547 254
547 256
547 265
547 280
547 291
547 293
547 313
547 321
547 333
547 334
547 335
547 338
547 347
547 348
547 356
547 362
547 373
547 380
547 382
547 385
547 386
547 388
547 403
547 407
547 414
547 415
547 417
547 418
547 428
547 486
547 505
547 511
547 524
547 530
547 537
547 538
547 542
547 548
547 550
548 1
548 2
548 4
548 19
548 20
548 23
548 24
548 25
548 56
548 57
548 61
548 66
548 90
548 91
548 157
548 176
548 199
548 229
548 321
548 480
548 483
548 538
548 547
548 554
549 5
549 21
549 24
549 88
549 91
549 118
549 129
549 144
549 183
550 13
550 14
550 15
550 16
550 17
550 19
550 21
550 22
550 24
550 29
550 30
550 31
550 32
550 35
550 36
550 37
550 38
550 39
550 40
550 41
550 42
550 43
550 44
550 45
550 46
550 47
550 48
550 49
550 50
550 51
550 52
550 53
550 54
550 59
550 69
550 79
550 80
550 81
550 82
550 83
550 85
550 88
550 89
550 90
550 91
550 92
550 147
550 176
550 220
550 237
550 258
550 259
550 269
550 282
550 287
550 291
550 295
550 332
550 341
550 343
550 353
550 389
550 411
550 444
550 449
550 454
550 487
550 489
550 493
550 498
550 510
550 531
550 547
550 565
550 574
550 575
551 0
551 1
551 2
551 3
551 4
551 7
551 24
551 91
551 120
551 122
551 146
551 167
551 202
551 206
551 427
552 0
552 1
552 2
552 4
552 7
552 8
552 18
552 21
552 22
552 24
552 26
552 54
552 58
552 59
552 66
552 68
552 71
552 73
552 75
552 84
552 87
552 91
552 108
552 124
552 169
552 174
552 191
552 194
552 239
552 240
552 275
552 370
552 403
552 441
552 442
552 539
553 1
553 7
553 22
553 24
553 27
553 41
553 50
553 53
553 54
553 63
553 74
553 90
553 91
553 92
553 132
553 137
553 146
553 155
553 186
553 205
553 207
553 217
553 221
553 248
553 282
553 290
553 335
553 467
553 512
554 0
554 1
554 3
554 6
554 19
554 20
554 22
554 24
554 28
554 42
554 55
554 56
554 57
554 58
554 59
554 60
554 61
554 62
554 63
554 64
554 65
554 66
554 67
554 68
554 69
554 70
554 71
554 72
554 73
554 75
554 76
554 77
554 78
554 79
554 80
554 81
554 82
554 83
554 84
554 85
554 86
554 87
554 88
554 90
554 91
554 92
554 125
554 128
554 140
554 142
554 144
554 146
554 150
554 155
554 176
554 180
554 181
554 182
554 183
554 194
554 195
554 197
554 199
554 203
554 204
554 206
554 212
554 220
554 221
554 222
554 224
554 233
554 238
554 239
554 240
554 241
554 242
554 249
554 251
554 254
554 261
554 265
554 270
554 280
554 291
554 293
554 321
554 333
554 334
554 335
554 338
554 347
554 348
554 356
554 362
554 373
554 380
554 382
554 385
554 386
554 388
554 403
554 407
554 414
554 415
554 416
554 417
554 418
554 428
554 451
554 470
554 505
554 511
554 548
555 0
555 1
555 2
555 3
555 4
555 20
555 22
555 25
555 54
555 74
555 86
555 88
555 90
555 91
555 92
555 132
555 137
555 146
555 148
555 154
555 185
555 189
555 207
555 213
555 217
555 238
555 242
555 246
555 274
555 282
555 287
555 316
555 322
555 331
555 347
555 373
555 388
555 419
555 457
555 485
555 501
555 523
555 556
556 0
556 1
556 2
556 3
556 4
556 14
556 19
556 21
556 25
556 32
556 38
556 54
556 55
556 56
556 57
556 58
556 59
556 60
556 61
556 62
556 63
556 64
556 65
556 66
556 67
556 68
556 69
556 70
556 71
556 72
556 73
556 74
556 75
556 76
556 77
556 78
556 79
556 80
556 81
556 82
556 83
556 84
556 85
556 86
556 87
556 88
556 89
556 90
556 91
556 92
556 125
556 128
556 132
556 140
556 142
556 144
556 148
556 150
556 155
556 176
556 180
556 181
556 182
556 183
556 194
556 195
556 197
556 204
556 207
556 212
556 217
556 220
556 221
556 222
556 233
556 237
556 238
556 239
556 240
556 241
556 242
556 249
556 254
556 256
556 265
556 280
556 291
556 293
556 313
556 316
556 321
556 333
556 334
556 335
556 338
556 347
556 348
556 350
556 356
556 362
556 373
556 380
556 382
556 385
556 386
556 388
556 403
556 407
556 414
556 415
556 417
556 418
556 428
556 457
556 505
556 511
556 525
556 555
556 567
557 0
557 1
557 2
557 3
557 19
557 21
557 22
557 24
557 25
557 26
557 51
557 71
557 74
557 76
557 84
557 87
557 88
557 89
557 90
557 91
557 92
557 132
557 146
557 154
557 163
557 166
557 181
557 182
557 207
557 242
557 332
557 338
557 371
557 388
557 406
557 419
557 496
557 530
557 557
557 563
558 0
558 1
558 4
558 5
558 7
558 19
558 20
558 21
558 22
558 23
558 25
558 37
558 41
558 50
558 59
558 66
558 70
558 74
558 78
558 84
558 89
558 91
558 92
558 132
558 146
558 148
558 155
558 188
558 222
558 223
558 227
558 229
558 249
558 321
558 342
558 384
558 412
558 418
558 428
558 483
558 499
558 501
558 582
558 585
559 0
559 4
559 25
559 84
559 89
559 169
559 381
560 0
560 1
560 2
560 3
560 4
560 5
560 6
560 10
560 22
560 24
560 25
560 26
560 60
560 75
560 77
560 84
560 87
560 97
560 125
560 151
560 167
560 168
560 174
560 176
560 185
560 189
560 191
560 195
560 211
560 219
560 228
560 233
560 239
560 289
560 318
560 319
560 320
560 323
560 327
560 336
560 337
560 338
560 345
560 351
560 379
560 405
560 583
561 1
561 4
561 18
561 21
561 22
561 25
561 57
561 66
561 72
561 84
561 89
561 128
561 174
561 176
561 181
561 188
561 220
561 223
561 256
561 373
561 385
561 403
562 1
562 2
562 4
562 6
562 21
562 23
562 25
562 59
562 62
562 66
562 74
562 78
562 84
562 87
562 89
562 91
562 125
562 171
562 177
562 183
562 209
562 222
562 223
562 227
562 239
562 319
562 321
562 368
562 415
562 473
562 501
562 526
563 0
563 1
563 2
563 3
563 5
563 14
563 15
563 18
563 19
563 20
563 21
563 22
563 25
563 36
563 42
563 43
563 48
563 49
563 53
563 54
563 55
563 56
563 57
563 58
563 61
563 74
563 78
563 82
563 84
563 86
563 87
563 88
563 89
563 90
563 91
563 92
563 154
563 155
563 163
563 166
563 180
563 181
563 182
563 183
563 186
563 207
563 210
563 213
563 214
563 217
563 218
563 222
563 223
563 224
563 231
563 234
563 236
563 239
563 242
563 258
563 259
563 260
563 261
563 266
563 293
563 321
563 333
563 349
563 350
563 371
563 372
563 382
563 385
563 386
563 387
563 388
563 433
563 459
563 469
563 480
563 521
563 527
563 530
563 557
563 575
563 582
564 1
564 20
564 25
564 79
564 92
564 132
564 146
564 248
564 290
564 525
564 568
565 2
565 4
565 7
565 13
565 14
565 15
565 16
565 17
565 22
565 25
565 29
565 30
565 31
565 32
565 35
565 36
565 37
565 38
565 39
565 40
565 41
565 42
565 43
565 44
565 45
565 46
565 47
565 48
565 49
565 50
565 51
565 52
565 53
565 54
565 74
565 80
565 81
565 82
565 83
565 85
565 89
565 90
565 92
565 128
565 132
565 146
565 147
565 220
565 237
565 258
565 259
565 269
565 282
565 295
565 322
565 332
565 341
565 343
565 353
565 384
565 389
565 411
565 444
565 449
565 454
565 487
565 489
565 493
565 510
565 531
565 550
565 574
565 575
566 0
566 1
566 2
566 3
566 4
566 25
566 88
566 90
566 92
566 93
566 96
566 124
566 178
566 209
566 246
566 283
566 438
566 439
566 443
567 0
567 1
567 2
567 3
567 4
567 8
567 20
567 22
567 25
567 73
567 87
567 91
567 92
567 125
567 187
567 207
567 213
567 238
567 240
567 289
567 370
567 539
567 556
568 1
568 2
568 19
568 22
568 25
568 51
568 57
568 58
568 90
568 91
568 92
568 140
568 177
568 207
568 305
568 335
568 511
568 525
568 564
569 0
569 1
569 3
569 6
569 15
569 20
569 25
569 36
569 37
569 38
569 40
569 43
569 52
569 53
569 55
569 56
569 57
569 58
569 59
569 60
569 61
569 62
569 63
569 64
569 65
569 66
569 67
569 68
569 69
569 70
569 71
569 72
569 73
569 75
569 76
569 77
569 78
569 79
569 80
569 81
569 82
569 83
569 84
569 85
569 86
569 87
569 88
569 89
569 90
569 91
569 92
569 125
569 126
569 128
569 140
569 142
569 144
569 150
569 152
569 155
569 174
569 176
569 180
569 181
569 182
569 183
569 194
569 195
569 197
569 199
569 204
569 212
569 220
569 221
569 222
569 233
569 237
569 238
569 239
569 240
569 241
569 242
569 249
569 254
569 258
569 265
569 280
569 282
569 286
569 291
569 293
569 321
569 333
569 334
569 335
569 338
569 347
569 348
569 353
569 356
569 362
569 373
569 380
569 382
569 385
569 386
569 388
569 389
569 403
569 407
569 414
569 415
569 417
569 418
569 419
569 428
569 446
569 483
569 505
569 511
570 1
570 2
570 3
570 4
570 25
570 55
570 56
570 57
570 58
570 59
570 60
570 61
570 62
570 63
570 64
570 65
570 66
570 67
570 68
570 69
570 70
570 71
570 72
570 73
570 75
570 76
570 77
570 78
570 79
570 80
570 81
570 82
570 83
570 84
570 85
570 86
570 87
570 88
570 90
570 91
570 92
570 110
570 125
570 128
570 140
570 142
570 144
570 150
570 155
570 176
570 180
570 181
570 182
570 183
570 194
570 195
570 197
570 204
570 212
570 220
570 221
570 222
570 233
570 238
570 239
570 240
570 241
570 242
570 249
570 254
570 260
570 265
570 280
570 291
570 293
570 321
570 333
570 334
570 335
570 338
570 347
570 348
570 356
570 362
570 373
570 380
570 382
570 385
570 386
570 388
570 403
570 407
570 414
570 415
570 417
570 418
570 428
570 505
570 511
571 2
571 22
571 32
571 85
571 92
571 132
571 140
571 146
571 205
571 210
571 248
571 290
571 461
571 584
572 1
572 2
572 3
572 17
572 32
572 49
572 51
572 52
572 54
572 74
572 85
572 89
572 122
572 146
572 174
572 270
572 320
572 358
573 1
573 2
573 3
573 5
573 8
573 22
573 32
573 70
573 85
573 91
573 123
573 212
573 218
573 223
573 227
573 251
573 464
573 537
574 35
574 36
574 37
574 38
574 39
574 40
574 41
574 42
574 43
574 44
574 45
574 46
574 47
574 48
574 49
574 50
574 51
574 52
574 53
574 54
574 64
574 65
574 69
574 72
574 73
574 74
574 79
574 80
574 81
574 82
574 83
574 85
574 86
574 87
574 88
574 89
574 90
574 91
574 92
574 94
574 128
574 132
574 136
574 140
574 145
574 146
574 147
574 180
574 186
574 187
574 199
574 203
574 207
574 213
574 219
574 220
574 223
574 224
574 229
574 236
574 237
574 244
574 255
574 256
574 258
574 259
574 269
574 278
574 280
574 281
574 282
574 295
574 321
574 332
574 341
574 343
574 350
574 353
574 389
574 411
574 421
574 429
574 448
574 449
574 452
574 456
574 463
574 475
574 487
574 488
574 489
574 493
574 497
574 498
574 505
574 506
574 509
574 510
574 511
574 513
574 515
574 517
574 518
574 520
574 524
574 525
574 527
574 531
574 532
574 533
574 534
574 535
574 536
574 550
574 565
575 0
575 1
575 3
575 7
575 35
575 36
575 37
575 38
575 39
575 40
575 41
575 42
575 43
575 44
575 45
575 46
575 47
575 48
575 49
575 50
575 51
575 52
575 53
575 54
575 63
575 65
575 74
575 79
575 80
575 81
575 82
575 83
575 85
575 86
575 88
575 89
575 90
575 91
575 92
575 122
575 128
575 132
575 145
575 146
575 147
575 149
575 158
575 166
575 184
575 186
575 197
575 199
575 201
575 203
575 206
575 207
575 217
575 220
575 224
575 237
575 240
575 251
575 258
575 259
575 269
575 280
575 291
575 295
575 304
575 332
575 335
575 341
575 343
575 353
575 362
575 388
575 389
575 391
575 411
575 463
575 466
575 487
575 489
575 493
575 496
575 510
575 511
575 550
575 563
575 565
576 0
576 1
576 2
576 3
576 104
576 105
576 156
576 273
576 310
576 316
576 394
576 400
576 438
576 514
576 542
576 576
577 0
577 1
577 2
577 3
577 4
577 95
577 104
577 107
577 110
577 112
577 115
577 118
577 121
577 134
577 138
577 190
577 208
577 225
577 253
577 266
577 303
577 307
577 308
577 309
577 311
577 312
577 314
577 315
577 317
577 409
577 410
577 577
577 579
577 580
577 589
578 0
578 1
578 2
578 110
578 115
578 121
578 134
578 138
578 307
578 308
578 309
578 311
578 312
578 314
578 315
578 317
578 578
578 579
578 580
579 2
579 3
579 118
579 121
579 134
579 138
579 307
579 308
579 309
579 311
579 312
579 314
579 315
579 317
579 577
579 578
580 0
580 1
580 2
580 4
580 104
580 107
580 110
580 118
580 121
580 134
580 138
580 266
580 303
580 307
580 309
580 311
580 312
580 314
580 329
580 352
580 577
580 578
581 1
581 2
581 3
581 4
581 96
581 159
581 174
581 226
581 236
581 253
581 303
582 0
582 1
582 2
582 3
582 4
582 5
582 6
582 7
582 14
582 16
582 22
582 25
582 36
582 37
582 39
582 48
582 74
582 79
582 90
582 102
582 109
582 123
582 132
582 133
582 136
582 140
582 143
582 145
582 146
582 149
582 158
582 161
582 165
582 174
582 195
582 199
582 208
582 209
582 236
582 242
582 248
582 253
582 262
582 264
582 270
582 272
582 279
582 282
582 290
582 300
582 304
582 316
582 325
582 326
582 327
582 329
582 331
582 342
582 354
582 358
582 359
582 363
582 382
582 384
582 390
582 422
582 501
582 536
582 558
582 563
582 583
583 0
583 1
583 2
583 3
583 5
583 43
583 54
583 55
583 58
583 61
583 63
583 67
583 72
583 73
583 74
583 75
583 76
583 78
583 84
583 85
583 88
583 89
583 90
583 91
583 92
583 101
583 102
583 108
583 118
583 131
583 132
583 136
583 137
583 140
583 146
583 147
583 149
583 150
583 152
583 165
583 167
583 176
583 186
583 197
583 206
583 209
583 210
583 212
583 217
583 219
583 240
583 241
583 248
583 258
583 281
583 290
583 304
583 318
583 328
583 341
583 343
583 382
583 419
583 420
583 421
583 422
583 423
583 424
583 425
583 426
583 427
583 428
583 429
583 430
583 431
583 432
583 434
583 441
583 461
583 465
583 493
583 504
583 512
583 532
583 534
583 544
583 560
583 582
583 589
584 1
584 2
584 3
584 5
584 43
584 51
584 52
584 54
584 59
584 64
584 67
584 72
584 73
584 74
584 75
584 78
584 79
584 86
584 89
584 90
584 91
584 92
584 102
584 122
584 131
584 132
584 136
584 140
584 145
584 146
584 150
584 167
584 181
584 186
584 191
584 197
584 206
584 209
584 210
584 219
584 220
584 229
584 234
584 254
584 257
584 259
584 286
584 291
584 298
584 304
584 327
584 328
584 338
584 358
584 419
584 420
584 421
584 422
584 423
584 424
584 425
584 426
584 427
584 428
584 429
584 430
584 431
584 432
584 433
584 434
584 441
584 449
584 451
584 461
584 462
584 467
584 501
584 504
584 534
584 571
585 1
585 2
585 3
585 49
585 54
585 55
585 56
585 57
585 58
585 59
585 60
585 61
585 62
585 63
585 64
585 65
585 66
585 67
585 68
585 69
585 70
585 71
585 72
585 73
585 75
585 76
585 77
585 78
585 79
585 80
585 81
585 82
585 83
585 84
585 85
585 86
585 87
585 88
585 90
585 91
585 92
585 125
585 128
585 131
585 136
585 140
585 142
585 144
585 146
585 150
585 155
585 169
585 176
585 180
585 181
585 182
585 183
585 186
585 194
585 195
585 197
585 204
585 206
585 210
585 212
585 219
585 220
585 221
585 222
585 223
585 229
585 233
585 235
585 238
585 239
585 240
585 241
585 242
585 249
585 251
585 254
585 261
585 265
585 280
585 291
585 293
585 304
585 321
585 328
585 333
585 334
585 335
585 338
585 347
585 348
585 356
585 362
585 373
585 377
585 380
585 382
585 385
585 386
585 388
585 403
585 407
585 414
585 415
585 417
585 418
585 419
585 420
585 421
585 422
585 423
585 424
585 425
585 426
585 427
585 428
585 429
585 430
585 431
585 432
585 434
585 436
585 437
585 461
585 504
585 505
585 511
585 512
585 522
585 534
585 558
585 588
586 1
586 2
586 44
586 67
586 75
586 78
586 89
586 91
586 102
586 131
586 132
586 136
586 140
586 146
586 186
586 197
586 206
586 210
586 219
586 257
586 281
586 304
586 328
586 419
586 420
586 421
586 422
586 423
586 424
586 425
586 426
586 427
586 428
586 429
586 430
586 431
586 432
586 441
586 461
586 504
586 534
587 55
587 56
587 57
587 58
587 59
587 60
587 61
587 62
587 63
587 64
587 65
587 66
587 68
587 69
587 70
587 71
587 72
587 73
587 75
587 76
587 77
587 78
587 79
587 80
587 81
587 82
587 83
587 84
587 85
587 86
587 87
587 88
587 89
587 90
587 91
587 92
587 108
587 125
587 128
587 131
587 136
587 140
587 142
587 144
587 146
587 150
587 155
587 176
587 180
587 181
587 182
587 183
587 186
587 191
587 194
587 195
587 197
587 204
587 206
587 210
587 212
587 219
587 220
587 221
587 222
587 223
587 233
587 238
587 239
587 240
587 241
587 242
587 249
587 254
587 265
587 280
587 291
587 293
587 304
587 321
587 328
587 333
587 334
587 335
587 338
587 347
587 348
587 356
587 362
587 373
587 380
587 382
587 385
587 386
587 388
587 403
587 407
587 414
587 415
587 417
587 418
587 419
587 420
587 421
587 422
587 423
587 424
587 425
587 426
587 427
587 428
587 429
587 430
587 431
587 432
587 461
587 465
587 504
587 505
587 511
587 534
588 0
588 1
588 3
588 55
588 56
588 57
588 58
588 59
588 60
588 61
588 62
588 63
588 64
588 65
588 66
588 67
588 68
588 69
588 70
588 71
588 72
588 73
588 75
588 76
588 77
588 78
588 79
588 80
588 81
588 82
588 83
588 84
588 85
588 86
588 87
588 88
588 89
588 90
588 91
588 92
588 125
588 128
588 131
588 136
588 140
588 142
588 144
588 146
588 149
588 150
588 155
588 174
588 176
588 180
588 181
588 182
588 183
588 186
588 194
588 195
588 197
588 204
588 206
588 209
588 210
588 212
588 219
588 220
588 221
588 222
588 233
588 235
588 238
588 239
588 240
588 241
588 242
588 249
588 254
588 265
588 280
588 291
588 293
588 304
588 321
588 328
588 333
588 334
588 335
588 338
588 347
588 348
588 356
588 362
588 373
588 380
588 382
588 385
588 386
588 388
588 396
588 403
588 407
588 414
588 415
588 417
588 418
588 419
588 420
588 421
588 422
588 423
588 424
588 425
588 426
588 427
588 428
588 429
588 430
588 431
588 432
588 461
588 501
588 504
588 505
588 511
588 534
588 585
589 0
589 1
589 2
589 3
589 4
589 5
589 6
589 96
589 110
589 114
589 118
589 119
589 138
589 174
589 198
589 211
589 215
589 236
589 243
589 272
589 273
589 304
589 312
589 329
589 577
589 583
