0 0
0 1
0 2
0 3
0 4
0 5
0 6
0 7
0 8
0 9
0 10
0 11
0 12
0 13
0 14
0 15
0 16
0 17
0 18
0 19
0 20
0 21
0 24
0 25
0 26
0 27
0 28
0 29
0 30
0 31
0 32
0 33
0 34
0 35
0 36
0 37
0 38
0 39
0 40
0 41
0 42
0 43
0 44
0 45
0 46
0 47
0 48
0 49
0 50
0 51
0 52
0 53
0 54
0 55
0 56
0 57
0 58
0 59
0 60
0 61
0 62
0 63
0 64
0 65
0 66
0 67
0 68
0 69
0 70
0 71
0 72
0 73
0 74
0 75
0 76
0 77
0 78
0 79
0 80
0 81
0 82
0 83
0 84
0 85
0 86
0 87
0 88
0 89
0 90
0 91
0 92
0 93
0 94
0 95
0 96
0 97
0 98
0 99
0 100
0 101
0 102
0 103
0 104
0 105
0 106
0 107
0 108
0 109
0 110
0 111
0 112
0 113
0 114
0 115
0 116
0 117
0 118
0 119
0 120
0 121
0 122
0 123
0 124
0 125
0 126
0 127
0 128
0 129
0 130
0 131
0 132
0 133
0 134
0 135
0 136
0 137
0 138
0 139
0 140
0 141
0 142
0 143
0 144
0 145
0 146
0 147
0 148
0 149
0 150
0 151
0 152
0 153
0 154
0 155
0 156
0 157
0 158
0 159
0 160
0 161
0 162
0 163
0 164
0 165
0 166
0 167
0 168
0 169
0 170
0 171
0 172
0 173
0 174
0 175
0 176
0 177
0 178
0 179
0 180
0 181
0 182
0 183
0 184
0 185
0 186
0 187
0 188
0 189
0 190
0 191
0 192
0 193
0 194
0 195
0 196
0 197
0 198
0 199
0 201
0 202
0 203
0 204
0 205
0 207
0 208
0 209
0 211
0 212
0 213
0 214
0 215
0 216
0 217
0 218
0 219
0 220
0 221
0 222
0 224
0 225
0 226
0 228
0 231
0 232
0 233
0 234
0 235
0 236
0 237
1 0
1 1
1 2
1 3
1 4
1 5
1 6
1 7
1 8
1 9
1 10
1 11
1 12
1 13
1 14
1 15
1 16
1 17
1 18
1 19
1 20
1 21
1 23
1 24
1 25
1 26
1 27
1 28
1 29
1 30
1 31
1 32
1 33
1 34
1 36
1 37
1 38
1 39
1 40
1 41
1 42
1 43
1 44
1 45
1 46
1 47
1 48
1 49
1 50
1 51
1 52
1 53
1 54
1 55
1 56
1 57
1 58
1 59
1 60
1 61
1 62
1 63
1 64
1 65
1 66
1 67
1 68
1 69
1 70
1 71
1 72
1 73
1 74
1 75
1 76
1 77
1 78
1 79
1 80
1 81
1 82
1 83
1 84
1 85
1 86
1 87
1 88
1 89
1 90
1 91
1 92
1 93
1 94
1 95
1 96
1 97
1 98
1 99
1 100
1 101
1 102
1 103
1 104
1 105
1 106
1 107
1 108
1 109
1 110
1 111
1 112
1 113
1 114
1 115
1 116
1 117
1 118
1 119
1 120
1 121
1 122
1 123
1 124
1 125
1 126
1 127
1 128
1 129
1 130
1 131
1 132
1 133
1 134
1 135
1 136
1 137
1 138
1 139
1 140
1 141
1 142
1 143
1 144
1 145
1 146
1 147
1 148
1 149
1 150
1 151
1 152
1 153
1 154
1 155
1 156
1 157
1 158
1 159
1 160
1 161
1 162
1 163
1 164
1 165
1 166
1 167
1 168
1 169
1 170
1 171
1 172
1 173
1 174
1 175
1 176
1 177
1 178
1 179
1 180
1 181
1 182
1 183
1 184
1 185
1 186
1 187
1 189
1 190
1 192
1 193
1 194
1 195
1 196
1 197
1 198
1 199
1 200
1 201
1 202
1 203
1 204
1 205
1 206
1 208
1 209
1 210
1 213
1 214
1 215
1 216
1 217
1 218
1 219
1 220
1 221
1 222
1 225
1 226
1 228
1 229
1 231
1 232
1 233
1 234
1 235
1 236
1 237
2 0
2 1
2 2
2 3
2 4
2 5
2 6
2 7
2 8
2 9
2 10
2 11
2 12
2 13
2 14
2 15
2 16
2 17
2 18
2 19
2 20
2 21
2 22
2 23
2 24
2 25
2 26
2 27
2 28
2 29
2 30
2 31
2 32
2 33
2 34
2 36
2 37
2 38
2 39
2 40
2 41
2 42
2 43
2 44
2 45
2 46
2 47
2 48
2 49
2 50
2 51
2 52
2 53
2 54
2 55
2 56
2 57
2 59
2 60
2 61
2 62
2 63
2 64
2 65
2 66
2 67
2 68
2 69
2 70
2 71
2 72
2 73
2 74
2 75
2 76
2 77
2 78
2 79
2 80
2 81
2 82
2 83
2 84
2 85
2 86
2 87
2 88
2 89
2 90
2 91
2 92
2 93
2 94
2 95
2 96
2 97
2 98
2 99
2 100
2 101
2 102
2 103
2 104
2 105
2 106
2 107
2 108
2 109
2 110
2 111
2 112
2 113
2 114
2 115
2 116
2 117
2 118
2 119
2 120
2 121
2 122
2 123
2 124
2 126
2 127
2 128
2 129
2 130
2 131
2 132
2 133
2 134
2 135
2 136
2 137
2 138
2 139
2 140
2 141
2 142
2 143
2 144
2 146
2 147
2 148
2 149
2 150
2 151
2 152
2 153
2 154
2 155
2 156
2 157
2 158
2 159
2 160
2 161
2 162
2 163
2 164
2 165
2 166
2 167
2 168
2 169
2 170
2 171
2 172
2 173
2 175
2 176
2 178
2 179
2 180
2 181
2 182
2 183
2 184
2 185
2 187
2 188
2 189
2 190
2 191
2 195
2 196
2 197
2 198
2 199
2 200
2 201
2 202
2 203
2 204
2 205
2 207
2 208
2 209
2 210
2 213
2 214
2 215
2 216
2 217
2 218
2 219
2 220
2 221
2 225
2 226
2 228
2 229
2 232
2 233
2 235
2 236
2 237
3 0
3 1
3 2
3 3
3 4
3 5
3 6
3 7
3 8
3 9
3 10
3 11
3 12
3 14
3 15
3 16
3 17
3 18
3 19
3 20
3 21
3 23
3 24
3 25
3 26
3 27
3 28
3 29
3 30
3 31
3 32
3 33
3 34
3 35
3 37
3 38
3 39
3 40
3 41
3 44
3 45
3 46
3 47
3 48
3 49
3 50
3 51
3 52
3 53
3 54
3 56
3 57
3 59
3 60
3 62
3 63
3 65
3 66
3 67
3 69
3 70
3 71
3 72
3 74
3 75
3 76
3 77
3 78
3 79
3 81
3 82
3 83
3 84
3 85
3 86
3 87
3 88
3 89
3 90
3 92
3 93
3 94
3 95
3 96
3 97
3 98
3 99
3 100
3 101
3 102
3 103
3 104
3 105
3 107
3 108
3 109
3 111
3 112
3 113
3 114
3 115
3 116
3 117
3 118
3 119
3 120
3 121
3 122
3 127
3 128
3 129
3 130
3 131
3 132
3 134
3 135
3 136
3 138
3 139
3 140
3 141
3 142
3 143
3 145
3 146
3 147
3 149
3 150
3 151
3 153
3 154
3 155
3 156
3 157
3 158
3 159
3 160
3 161
3 162
3 163
3 164
3 165
3 166
3 168
3 171
3 173
3 174
3 175
3 176
3 177
3 178
3 179
3 180
3 181
3 182
3 183
3 184
3 185
3 187
3 188
3 190
3 191
3 195
3 196
3 197
3 198
3 199
3 200
3 201
3 202
3 203
3 204
3 205
3 206
3 208
3 209
3 214
3 215
3 217
3 218
3 219
3 220
3 223
3 226
3 232
3 237
4 0
4 1
4 2
4 3
4 4
4 5
4 6
4 7
4 8
4 9
4 10
4 11
4 12
4 14
4 15
4 16
4 17
4 18
4 19
4 20
4 23
4 24
4 25
4 27
4 29
4 30
4 31
4 32
4 33
4 34
4 35
4 37
4 38
4 39
4 40
4 41
4 44
4 45
4 46
4 47
4 48
4 49
4 50
4 51
4 52
4 53
4 54
4 57
4 59
4 63
4 65
4 67
4 73
4 74
4 78
4 79
4 82
4 84
4 85
4 86
4 87
4 88
4 92
4 93
4 94
4 95
4 96
4 97
4 99
4 101
4 102
4 103
4 104
4 105
4 109
4 111
4 112
4 113
4 114
4 115
4 116
4 117
4 118
4 119
4 120
4 121
4 122
4 123
4 124
4 127
4 129
4 131
4 132
4 134
4 135
4 136
4 137
4 138
4 139
4 141
4 142
4 144
4 145
4 146
4 147
4 149
4 150
4 152
4 153
4 154
4 155
4 156
4 158
4 159
4 160
4 161
4 162
4 163
4 164
4 165
4 167
4 170
4 173
4 174
4 175
4 176
4 177
4 178
4 179
4 180
4 181
4 183
4 185
4 190
4 193
4 194
4 196
4 198
4 203
4 205
4 211
4 213
4 218
4 219
4 220
4 221
4 223
4 224
4 226
4 227
4 232
4 233
4 236
4 237
5 0
5 1
5 2
5 3
5 4
5 5
5 6
5 7
5 9
5 11
5 12
5 14
5 16
5 17
5 18
5 20
5 23
5 25
5 26
5 27
5 29
5 31
5 32
5 33
5 34
5 37
5 39
5 41
5 45
5 46
5 48
5 49
5 50
5 51
5 52
5 53
5 59
5 63
5 69
5 70
5 71
5 75
5 76
5 77
5 78
5 82
5 83
5 84
5 86
5 87
5 88
5 91
5 93
5 94
5 95
5 97
5 98
5 99
5 101
5 102
5 103
5 105
5 106
5 107
5 109
5 112
5 116
5 119
5 120
5 122
5 126
5 127
5 134
5 138
5 140
5 142
5 143
5 145
5 146
5 147
5 151
5 154
5 155
5 158
5 159
5 160
5 161
5 162
5 163
5 164
5 165
5 173
5 174
5 175
5 176
5 181
5 182
5 183
5 190
5 196
5 200
5 204
5 205
5 220
5 223
5 226
5 227
5 231
5 234
5 236
6 0
6 1
6 2
6 3
6 4
6 5
6 6
6 7
6 8
6 9
6 10
6 11
6 12
6 14
6 15
6 16
6 17
6 18
6 19
6 20
6 21
6 22
6 23
6 24
6 25
6 26
6 27
6 28
6 29
6 30
6 31
6 32
6 33
6 34
6 36
6 38
6 41
6 42
6 43
6 44
6 46
6 47
6 48
6 49
6 50
6 51
6 52
6 53
6 54
6 57
6 61
6 63
6 67
6 69
6 73
6 76
6 77
6 81
6 82
6 83
6 84
6 87
6 88
6 91
6 92
6 93
6 94
6 95
6 97
6 98
6 99
6 100
6 101
6 103
6 105
6 106
6 107
6 109
6 112
6 114
6 116
6 119
6 120
6 121
6 126
6 127
6 128
6 130
6 131
6 132
6 138
6 143
6 144
6 146
6 147
6 148
6 151
6 159
6 161
6 173
6 175
6 176
6 179
6 180
6 182
6 183
6 184
6 185
6 197
6 204
6 205
6 207
6 209
6 211
6 213
6 214
6 215
6 216
6 217
6 220
6 223
6 226
6 227
6 228
6 229
6 232
6 236
6 237
7 0
7 1
7 2
7 3
7 4
7 5
7 6
7 9
7 10
7 16
7 17
7 18
7 19
7 20
7 21
7 22
7 23
7 24
7 25
7 26
7 27
7 28
7 29
7 31
7 33
7 36
7 38
7 41
7 42
7 43
7 44
7 45
7 46
7 47
7 49
7 50
7 51
7 52
7 53
7 63
7 65
7 67
7 69
7 73
7 77
7 78
7 83
7 84
7 86
7 88
7 91
7 94
7 95
7 99
7 101
7 103
7 105
7 106
7 107
7 114
7 120
7 126
7 127
7 131
7 132
7 138
7 139
7 145
7 158
7 159
7 161
7 162
7 174
7 175
7 176
7 182
7 196
7 204
7 205
7 209
7 213
7 216
7 223
7 237
8 0
8 1
8 2
8 3
8 4
8 6
8 8
8 9
8 10
8 11
8 13
8 15
8 16
8 17
8 18
8 19
8 20
8 23
8 24
8 25
8 26
8 27
8 28
8 29
8 30
8 31
8 32
8 33
8 34
8 35
8 36
8 37
8 38
8 39
8 40
8 41
8 42
8 43
8 44
8 45
8 46
8 47
8 48
8 49
8 50
8 51
8 52
8 53
8 54
8 57
8 59
8 61
8 63
8 65
8 67
8 69
8 70
8 71
8 73
8 74
8 76
8 77
8 81
8 82
8 83
8 84
8 86
8 87
8 88
8 89
8 90
8 91
8 92
8 93
8 94
8 95
8 96
8 97
8 98
8 99
8 100
8 101
8 102
8 103
8 105
8 106
8 107
8 109
8 111
8 112
8 113
8 114
8 116
8 117
8 119
8 120
8 121
8 124
8 126
8 127
8 128
8 129
8 130
8 131
8 132
8 134
8 135
8 137
8 138
8 140
8 141
8 142
8 144
8 145
8 146
8 147
8 150
8 151
8 153
8 155
8 158
8 159
8 161
8 162
8 163
8 164
8 167
8 173
8 174
8 176
8 178
8 180
8 181
8 182
8 183
8 184
8 185
8 186
8 187
8 188
8 189
8 190
8 191
8 192
8 194
8 197
8 198
8 199
8 200
8 201
8 202
8 203
8 204
8 205
8 206
8 207
8 208
8 209
8 210
8 211
8 212
8 213
8 214
8 215
8 217
8 219
8 220
8 225
8 232
8 233
8 235
8 236
8 237
9 0
9 1
9 2
9 3
9 4
9 5
9 6
9 7
9 8
9 9
9 10
9 11
9 12
9 13
9 15
9 16
9 17
9 18
9 19
9 20
9 21
9 23
9 24
9 25
9 26
9 27
9 28
9 29
9 30
9 31
9 32
9 33
9 34
9 35
9 36
9 37
9 38
9 39
9 40
9 41
9 42
9 43
9 44
9 45
9 46
9 47
9 48
9 49
9 50
9 51
9 52
9 53
9 54
9 57
9 59
9 61
9 65
9 67
9 69
9 70
9 71
9 72
9 73
9 74
9 75
9 76
9 77
9 78
9 79
9 81
9 82
9 83
9 84
9 85
9 86
9 87
9 88
9 89
9 90
9 91
9 92
9 93
9 94
9 95
9 96
9 97
9 98
9 99
9 100
9 101
9 102
9 103
9 104
9 105
9 106
9 108
9 109
9 111
9 112
9 113
9 114
9 115
9 116
9 117
9 119
9 120
9 121
9 122
9 123
9 124
9 126
9 127
9 129
9 130
9 131
9 132
9 134
9 135
9 136
9 137
9 138
9 139
9 140
9 141
9 142
9 143
9 144
9 145
9 146
9 147
9 148
9 149
9 150
9 151
9 152
9 153
9 154
9 155
9 156
9 158
9 159
9 160
9 161
9 162
9 163
9 164
9 165
9 166
9 167
9 171
9 172
9 173
9 174
9 176
9 178
9 180
9 181
9 182
9 184
9 185
9 186
9 187
9 188
9 189
9 190
9 191
9 192
9 193
9 194
9 195
9 196
9 197
9 198
9 199
9 200
9 201
9 202
9 203
9 204
9 205
9 207
9 208
9 209
9 210
9 211
9 212
9 213
9 215
9 217
9 220
9 226
9 228
9 232
9 233
9 235
9 236
9 237
10 0
10 1
10 2
10 3
10 4
10 6
10 7
10 8
10 9
10 10
10 11
10 12
10 15
10 16
10 17
10 18
10 19
10 20
10 23
10 24
10 25
10 26
10 27
10 28
10 29
10 30
10 31
10 32
10 33
10 34
10 35
10 36
10 37
10 38
10 39
10 40
10 41
10 42
10 43
10 44
10 45
10 46
10 47
10 48
10 49
10 50
10 51
10 52
10 53
10 54
10 55
10 57
10 59
10 65
10 66
10 67
10 69
10 70
10 71
10 72
10 73
10 74
10 75
10 76
10 77
10 78
10 79
10 82
10 83
10 84
10 85
10 86
10 87
10 88
10 89
10 90
10 91
10 92
10 93
10 94
10 95
10 96
10 97
10 98
10 99
10 100
10 101
10 102
10 103
10 104
10 105
10 106
10 107
10 108
10 109
10 111
10 112
10 113
10 114
10 115
10 116
10 117
10 118
10 119
10 120
10 121
10 123
10 124
10 126
10 127
10 128
10 129
10 131
10 132
10 134
10 135
10 136
10 137
10 138
10 139
10 140
10 141
10 142
10 143
10 144
10 145
10 146
10 147
10 148
10 149
10 150
10 151
10 152
10 153
10 154
10 155
10 158
10 159
10 160
10 161
10 162
10 163
10 164
10 165
10 166
10 167
10 170
10 172
10 173
10 174
10 175
10 176
10 177
10 178
10 179
10 180
10 181
10 182
10 184
10 185
10 186
10 187
10 190
10 191
10 192
10 195
10 196
10 197
10 198
10 199
10 200
10 201
10 202
10 203
10 204
10 205
10 206
10 207
10 208
10 209
10 210
10 212
10 213
10 214
10 215
10 218
10 219
10 220
10 221
10 232
10 233
10 234
10 235
10 237
11 0
11 1
11 2
11 3
11 4
11 5
11 6
11 8
11 9
11 10
11 11
11 13
11 14
11 15
11 16
11 17
11 18
11 19
11 20
11 24
11 25
11 26
11 27
11 28
11 29
11 30
11 31
11 32
11 33
11 34
11 35
11 36
11 37
11 38
11 39
11 40
11 41
11 42
11 43
11 44
11 45
11 46
11 47
11 48
11 49
11 50
11 51
11 52
11 53
11 54
11 55
11 56
11 57
11 59
11 60
11 63
11 65
11 66
11 69
11 71
11 73
11 74
11 76
11 77
11 81
11 82
11 83
11 84
11 85
11 86
11 88
11 89
11 90
11 91
11 92
11 93
11 94
11 95
11 96
11 97
11 98
11 99
11 100
11 101
11 102
11 103
11 104
11 105
11 106
11 107
11 111
11 112
11 113
11 114
11 115
11 116
11 117
11 119
11 120
11 121
11 124
11 126
11 129
11 131
11 132
11 134
11 135
11 136
11 137
11 138
11 139
11 140
11 141
11 142
11 143
11 144
11 145
11 146
11 147
11 148
11 149
11 150
11 151
11 152
11 153
11 154
11 155
11 156
11 158
11 159
11 160
11 161
11 162
11 163
11 164
11 165
11 166
11 167
11 168
11 171
11 173
11 174
11 175
11 176
11 177
11 178
11 179
11 180
11 181
11 182
11 184
11 185
11 186
11 187
11 190
11 192
11 194
11 197
11 198
11 199
11 200
11 201
11 202
11 204
11 205
11 206
11 207
11 208
11 209
11 210
11 212
11 213
11 214
11 215
11 218
11 219
11 220
11 226
11 233
11 235
11 236
11 237
12 0
12 1
12 2
12 3
12 4
12 5
12 6
12 9
12 10
12 13
12 15
12 23
12 25
12 26
12 29
12 30
12 31
12 32
12 33
12 34
12 35
12 36
12 37
12 38
12 39
12 40
12 41
12 42
12 43
12 44
12 45
12 46
12 47
12 48
12 49
12 50
12 51
12 52
12 53
12 69
12 70
12 72
12 73
12 75
12 77
12 82
12 83
12 84
12 88
12 89
12 91
12 92
12 93
12 94
12 95
12 96
12 98
12 99
12 101
12 102
12 103
12 106
12 109
12 111
12 112
12 113
12 116
12 119
12 120
12 121
12 124
12 126
12 129
12 131
12 134
12 135
12 137
12 142
12 146
12 147
12 153
12 156
12 159
12 161
12 162
12 167
12 178
12 180
12 182
12 184
12 198
12 205
12 207
12 208
12 209
12 210
12 233
13 0
13 1
13 2
13 8
13 9
13 11
13 12
13 29
13 30
13 31
13 32
13 33
13 34
13 35
13 36
13 37
13 38
13 39
13 40
13 41
13 42
13 43
13 44
13 45
13 46
13 47
13 48
13 49
13 51
13 52
13 53
13 65
13 69
13 73
13 77
13 82
13 83
13 85
13 86
13 88
13 89
13 92
13 93
13 94
13 96
13 99
13 102
13 106
13 111
13 112
13 113
13 114
13 116
13 119
13 120
13 121
13 124
13 129
13 131
13 132
13 134
13 135
13 137
13 142
13 146
13 147
13 153
13 156
13 159
13 161
13 162
13 167
13 173
13 174
13 175
13 176
13 177
13 178
13 179
13 180
13 181
13 182
13 207
13 208
13 209
13 210
13 218
13 219
13 220
13 233
13 237
14 0
14 1
14 2
14 3
14 4
14 5
14 6
14 11
14 16
14 17
14 18
14 19
14 20
14 21
14 22
14 23
14 24
14 25
14 26
14 27
14 28
14 29
14 30
14 31
14 32
14 33
14 34
14 35
14 36
14 37
14 38
14 39
14 40
14 41
14 42
14 43
14 44
14 45
14 46
14 47
14 48
14 49
14 50
14 51
14 52
14 53
14 63
14 69
14 73
14 77
14 78
14 81
14 82
14 83
14 84
14 88
14 89
14 91
14 92
14 93
14 94
14 95
14 96
14 98
14 99
14 100
14 102
14 103
14 105
14 106
14 107
14 112
14 113
14 114
14 116
14 119
14 120
14 124
14 126
14 127
14 129
14 131
14 132
14 134
14 135
14 137
14 138
14 141
14 142
14 147
14 153
14 159
14 161
14 162
14 167
14 178
14 180
14 182
14 196
14 197
14 204
14 205
14 207
14 208
14 209
14 210
14 213
14 215
14 217
14 225
14 227
14 228
14 229
14 233
14 236
15 0
15 1
15 2
15 3
15 4
15 6
15 8
15 9
15 10
15 11
15 12
15 17
15 18
15 23
15 25
15 26
15 29
15 30
15 31
15 32
15 33
15 34
15 35
15 36
15 37
15 38
15 39
15 40
15 41
15 42
15 43
15 44
15 45
15 46
15 47
15 48
15 49
15 50
15 51
15 52
15 53
15 56
15 69
15 73
15 77
15 82
15 83
15 88
15 89
15 90
15 92
15 93
15 94
15 95
15 96
15 97
15 100
15 102
15 106
15 112
15 113
15 114
15 119
15 120
15 124
15 129
15 131
15 132
15 134
15 135
15 137
15 138
15 139
15 140
15 142
15 147
15 153
15 154
15 156
15 158
15 159
15 161
15 162
15 167
15 178
15 180
15 181
15 182
15 196
15 197
15 204
15 207
15 208
15 209
15 210
15 213
15 215
15 218
15 229
15 232
15 233
16 0
16 1
16 2
16 3
16 4
16 5
16 6
16 7
16 8
16 9
16 10
16 11
16 14
16 16
16 17
16 18
16 19
16 20
16 21
16 22
16 23
16 24
16 25
16 26
16 27
16 28
16 29
16 32
16 33
16 36
16 38
16 41
16 42
16 43
16 44
16 46
16 47
16 49
16 50
16 51
16 52
16 53
16 56
16 58
16 61
16 67
16 73
16 75
16 76
16 77
16 82
16 84
16 87
16 88
16 91
16 95
16 99
16 100
16 101
16 103
16 105
16 106
16 107
16 111
16 112
16 113
16 114
16 116
16 119
16 120
16 123
16 124
16 126
16 127
16 128
16 131
16 134
16 138
16 139
16 147
16 159
16 161
16 173
16 174
16 175
16 183
16 187
16 194
16 196
16 197
16 205
16 209
16 214
16 217
16 220
16 223
16 224
16 229
16 230
16 231
16 232
16 237
17 0
17 1
17 2
17 3
17 4
17 5
17 6
17 7
17 8
17 9
17 10
17 11
17 14
17 15
17 16
17 17
17 18
17 19
17 20
17 21
17 22
17 23
17 24
17 25
17 26
17 27
17 28
17 29
17 30
17 31
17 32
17 33
17 36
17 38
17 41
17 42
17 43
17 44
17 46
17 47
17 48
17 49
17 50
17 51
17 52
17 53
17 63
17 65
17 67
17 73
17 77
17 78
17 84
17 86
17 88
17 93
17 94
17 95
17 99
17 100
17 101
17 103
17 105
17 106
17 107
17 111
17 112
17 114
17 116
17 119
17 120
17 121
17 123
17 126
17 127
17 132
17 134
17 138
17 141
17 144
17 147
17 151
17 161
17 173
17 174
17 175
17 176
17 180
17 182
17 185
17 186
17 196
17 205
17 207
17 209
17 214
17 217
17 223
17 224
17 228
17 229
17 230
17 231
17 232
17 236
18 0
18 1
18 2
18 3
18 4
18 5
18 6
18 7
18 8
18 9
18 10
18 11
18 14
18 15
18 16
18 17
18 18
18 19
18 20
18 21
18 22
18 23
18 24
18 25
18 26
18 27
18 28
18 29
18 31
18 32
18 33
18 36
18 38
18 41
18 42
18 43
18 44
18 45
18 46
18 47
18 50
18 51
18 52
18 53
18 54
18 59
18 60
18 61
18 63
18 66
18 67
18 73
18 78
18 79
18 81
18 84
18 85
18 87
18 88
18 95
18 99
18 100
18 103
18 105
18 107
18 111
18 112
18 114
18 116
18 119
18 120
18 126
18 127
18 130
18 131
18 138
18 146
18 161
18 166
18 168
18 171
18 173
18 175
18 176
18 180
18 196
18 205
18 209
18 210
18 216
18 217
18 223
18 224
18 227
18 228
18 229
18 230
18 231
18 232
19 0
19 1
19 2
19 3
19 4
19 6
19 7
19 8
19 9
19 10
19 11
19 14
19 16
19 17
19 18
19 19
19 20
19 21
19 22
19 23
19 24
19 25
19 26
19 27
19 28
19 29
19 33
19 34
19 42
19 43
19 44
19 46
19 50
19 51
19 52
19 53
19 63
19 69
19 77
19 84
19 90
19 91
19 95
19 99
19 100
19 105
19 107
19 114
19 119
19 120
19 132
19 134
19 139
19 141
19 173
19 184
19 197
19 204
19 205
19 223
19 224
19 228
19 229
19 230
19 231
19 232
20 0
20 1
20 2
20 3
20 4
20 5
20 6
20 7
20 8
20 9
20 10
20 11
20 14
20 16
20 17
20 18
20 19
20 20
20 21
20 22
20 23
20 24
20 25
20 26
20 27
20 28
20 29
20 30
20 31
20 32
20 33
20 36
20 37
20 38
20 41
20 42
20 43
20 44
20 45
20 46
20 47
20 48
20 49
20 50
20 51
20 52
20 53
20 61
20 63
20 67
20 73
20 75
20 78
20 82
20 84
20 86
20 88
20 92
20 93
20 94
20 95
20 97
20 99
20 100
20 101
20 103
20 105
20 106
20 107
20 111
20 112
20 113
20 114
20 116
20 119
20 120
20 123
20 127
20 128
20 130
20 131
20 132
20 139
20 145
20 151
20 159
20 160
20 161
20 173
20 174
20 175
20 183
20 196
20 204
20 205
20 208
20 209
20 213
20 223
20 224
20 228
20 229
20 230
20 231
20 232
20 237
21 0
21 1
21 2
21 3
21 6
21 7
21 9
21 14
21 16
21 17
21 18
21 19
21 20
21 22
21 23
21 24
21 25
21 26
21 27
21 28
21 29
21 41
21 42
21 43
21 44
21 46
21 50
21 51
21 52
21 53
21 56
21 61
21 65
21 67
21 74
21 81
21 92
21 99
21 105
21 107
21 114
21 123
21 130
21 145
21 173
21 182
21 183
21 205
21 216
21 220
21 223
21 224
21 229
21 230
21 231
21 232
22 2
22 6
22 7
22 14
22 16
22 17
22 18
22 19
22 20
22 21
22 23
22 24
22 25
22 26
22 27
22 28
22 30
22 31
22 32
22 33
22 34
22 35
22 36
22 37
22 38
22 39
22 40
22 41
22 42
22 43
22 44
22 45
22 46
22 47
22 48
22 49
22 50
22 51
22 52
22 53
22 69
22 73
22 77
22 82
22 83
22 88
22 89
22 93
22 94
22 96
22 102
22 105
22 106
22 107
22 112
22 113
22 114
22 119
22 120
22 124
22 129
22 131
22 134
22 135
22 137
22 142
22 147
22 153
22 159
22 161
22 162
22 167
22 178
22 180
22 182
22 207
22 208
22 209
22 210
22 223
22 224
22 229
22 230
22 231
22 232
22 233
23 1
23 2
23 3
23 4
23 5
23 6
23 7
23 8
23 9
23 10
23 12
23 14
23 15
23 16
23 17
23 18
23 19
23 20
23 21
23 22
23 23
23 24
23 25
23 26
23 27
23 28
23 29
23 30
23 31
23 32
23 33
23 34
23 35
23 36
23 37
23 38
23 39
23 40
23 41
23 42
23 43
23 44
23 45
23 46
23 47
23 48
23 49
23 50
23 51
23 52
23 53
23 63
23 69
23 73
23 77
23 82
23 83
23 84
23 88
23 89
23 93
23 94
23 95
23 96
23 98
23 102
23 105
23 106
23 107
23 112
23 113
23 114
23 119
23 120
23 124
23 129
23 131
23 134
23 135
23 137
23 142
23 147
23 153
23 159
23 161
23 162
23 167
23 178
23 180
23 182
23 184
23 196
23 207
23 208
23 209
23 210
23 223
23 224
23 229
23 230
23 231
23 232
23 233
23 236
24 0
24 1
24 2
24 3
24 4
24 6
24 7
24 8
24 9
24 10
24 11
24 14
24 16
24 17
24 18
24 19
24 20
24 21
24 22
24 23
24 25
24 26
24 27
24 28
24 29
24 31
24 32
24 33
24 36
24 41
24 42
24 43
24 44
24 46
24 47
24 49
24 50
24 51
24 52
24 53
24 61
24 73
24 77
24 83
24 84
24 95
24 99
24 103
24 105
24 106
24 107
24 111
24 114
24 116
24 119
24 120
24 126
24 127
24 131
24 132
24 145
24 146
24 158
24 161
24 174
24 175
24 196
24 205
24 209
24 210
24 213
24 223
24 224
24 227
24 228
24 229
24 230
24 231
24 232
24 237
25 0
25 1
25 2
25 3
25 4
25 5
25 6
25 7
25 8
25 9
25 10
25 11
25 12
25 14
25 15
25 16
25 17
25 18
25 19
25 20
25 21
25 22
25 23
25 24
25 26
25 27
25 28
25 29
25 30
25 31
25 32
25 33
25 40
25 42
25 43
25 44
25 45
25 46
25 49
25 50
25 51
25 52
25 53
25 61
25 69
25 73
25 77
25 83
25 84
25 88
25 91
25 94
25 95
25 99
25 103
25 105
25 107
25 111
25 114
25 120
25 127
25 131
25 138
25 147
25 160
25 162
25 176
25 186
25 197
25 204
25 207
25 209
25 212
25 216
25 223
25 224
25 227
25 229
25 230
25 231
25 232
25 236
25 237
26 0
26 1
26 2
26 3
26 5
26 6
26 7
26 8
26 9
26 10
26 11
26 12
26 14
26 15
26 16
26 17
26 18
26 19
26 20
26 21
26 22
26 23
26 24
26 25
26 27
26 28
26 29
26 30
26 31
26 32
26 38
26 42
26 43
26 44
26 45
26 46
26 50
26 51
26 52
26 53
26 57
26 60
26 73
26 84
26 85
26 88
26 91
26 93
26 95
26 99
26 101
26 103
26 105
26 107
26 111
26 114
26 119
26 120
26 127
26 139
26 147
26 161
26 173
26 175
26 176
26 183
26 184
26 205
26 213
26 215
26 223
26 224
26 228
26 229
26 230
26 231
26 232
27 0
27 1
27 2
27 3
27 4
27 5
27 6
27 7
27 8
27 9
27 10
27 11
27 14
27 16
27 17
27 18
27 19
27 20
27 21
27 22
27 23
27 24
27 25
27 26
27 27
27 28
27 29
27 30
27 31
27 32
27 33
27 36
27 38
27 41
27 42
27 43
27 44
27 45
27 46
27 47
27 49
27 50
27 51
27 52
27 53
27 65
27 67
27 73
27 83
27 84
27 93
27 94
27 95
27 96
27 99
27 103
27 105
27 107
27 111
27 114
27 119
27 120
27 127
27 132
27 159
27 161
27 173
27 174
27 175
27 176
27 185
27 205
27 209
27 213
27 215
27 216
27 223
27 224
27 228
27 229
27 230
27 231
27 232
28 0
28 1
28 2
28 3
28 6
28 7
28 8
28 9
28 10
28 11
28 14
28 16
28 17
28 18
28 19
28 20
28 21
28 22
28 23
28 24
28 25
28 26
28 27
28 29
28 30
28 31
28 32
28 33
28 34
28 35
28 36
28 37
28 38
28 39
28 40
28 41
28 42
28 43
28 44
28 45
28 46
28 47
28 48
28 49
28 50
28 51
28 52
28 53
28 69
28 73
28 76
28 77
28 82
28 83
28 84
28 88
28 89
28 91
28 93
28 94
28 95
28 96
28 98
28 100
28 102
28 105
28 106
28 107
28 112
28 113
28 114
28 116
28 119
28 120
28 124
28 127
28 129
28 131
28 132
28 134
28 135
28 137
28 142
28 147
28 153
28 159
28 160
28 161
28 162
28 167
28 178
28 180
28 182
28 196
28 204
28 207
28 208
28 209
28 210
28 215
28 217
28 223
28 224
28 227
28 229
28 230
28 231
28 232
28 233
29 0
29 1
29 2
29 3
29 4
29 5
29 6
29 7
29 8
29 9
29 10
29 11
29 12
29 13
29 14
29 15
29 16
29 17
29 18
29 19
29 20
29 21
29 23
29 24
29 25
29 26
29 27
29 28
29 30
29 31
29 32
29 33
29 36
29 41
29 42
29 44
29 46
29 47
29 49
29 50
29 51
29 52
29 53
29 61
29 67
29 73
29 78
29 84
29 88
29 91
29 92
29 95
29 99
29 103
29 105
29 106
29 109
29 111
29 113
29 114
29 119
29 120
29 121
29 122
29 123
29 126
29 127
29 130
29 131
29 138
29 139
29 141
29 151
29 152
29 153
29 156
29 173
29 174
29 175
29 176
29 179
29 183
29 185
29 200
29 205
29 208
29 209
29 213
29 216
29 220
29 224
29 229
29 230
29 231
29 232
29 233
30 0
30 1
30 2
30 3
30 4
30 6
30 8
30 9
30 10
30 11
30 12
30 13
30 14
30 15
30 17
30 20
30 22
30 23
30 25
30 26
30 27
30 28
30 29
30 30
30 31
30 32
30 33
30 34
30 35
30 36
30 37
30 38
30 39
30 40
30 41
30 42
30 43
30 44
30 45
30 46
30 47
30 48
30 49
30 50
30 51
30 52
30 53
30 56
30 61
30 65
30 69
30 73
30 77
30 78
30 82
30 83
30 84
30 88
30 89
30 90
30 91
30 92
30 93
30 94
30 95
30 96
30 97
30 98
30 100
30 101
30 102
30 103
30 106
30 109
30 111
30 112
30 113
30 115
30 119
30 120
30 121
30 124
30 126
30 129
30 131
30 134
30 135
30 136
30 137
30 138
30 139
30 142
30 144
30 147
30 153
30 159
30 161
30 162
30 165
30 167
30 173
30 178
30 180
30 181
30 182
30 183
30 184
30 185
30 186
30 188
30 189
30 192
30 194
30 195
30 198
30 200
30 203
30 205
30 206
30 207
30 208
30 209
30 210
30 212
30 214
30 217
30 220
30 229
30 233
30 235
30 237
31 0
31 1
31 2
31 3
31 4
31 5
31 6
31 7
31 8
31 9
31 10
31 11
31 12
31 13
31 14
31 15
31 17
31 18
31 20
31 22
31 23
31 24
31 25
31 26
31 27
31 28
31 29
31 30
31 31
31 32
31 33
31 34
31 35
31 36
31 37
31 38
31 39
31 40
31 41
31 42
31 43
31 44
31 45
31 46
31 47
31 48
31 49
31 50
31 51
31 52
31 53
31 57
31 61
31 65
31 69
31 73
31 74
31 76
31 77
31 79
31 81
31 82
31 83
31 84
31 86
31 87
31 88
31 89
31 90
31 91
31 92
31 93
31 94
31 95
31 96
31 97
31 98
31 99
31 100
31 101
31 102
31 103
31 105
31 106
31 109
31 111
31 112
31 113
31 114
31 117
31 119
31 120
31 121
31 124
31 127
31 128
31 129
31 131
31 132
31 134
31 135
31 137
31 138
31 140
31 141
31 142
31 145
31 146
31 147
31 150
31 153
31 154
31 155
31 158
31 159
31 160
31 161
31 162
31 164
31 165
31 167
31 173
31 174
31 175
31 178
31 180
31 182
31 183
31 184
31 185
31 186
31 188
31 189
31 190
31 191
31 194
31 195
31 198
31 200
31 201
31 202
31 203
31 204
31 206
31 207
31 208
31 209
31 210
31 212
31 213
31 215
31 219
31 220
31 226
31 229
31 232
31 233
31 235
31 236
32 0
32 1
32 2
32 3
32 4
32 5
32 6
32 8
32 9
32 10
32 11
32 12
32 13
32 14
32 15
32 16
32 17
32 18
32 20
32 22
32 23
32 24
32 25
32 26
32 27
32 28
32 29
32 30
32 31
32 32
32 33
32 34
32 35
32 36
32 37
32 38
32 39
32 40
32 41
32 42
32 43
32 44
32 45
32 46
32 47
32 48
32 49
32 50
32 51
32 52
32 53
32 54
32 57
32 67
32 69
32 72
32 73
32 74
32 77
32 79
32 81
32 82
32 83
32 84
32 85
32 87
32 88
32 89
32 90
32 91
32 92
32 93
32 94
32 95
32 96
32 97
32 98
32 99
32 100
32 101
32 102
32 103
32 104
32 105
32 106
32 107
32 109
32 111
32 112
32 113
32 114
32 115
32 116
32 117
32 119
32 120
32 121
32 122
32 124
32 127
32 129
32 131
32 132
32 134
32 135
32 136
32 137
32 138
32 139
32 140
32 141
32 142
32 144
32 146
32 147
32 148
32 149
32 150
32 151
32 152
32 153
32 154
32 155
32 158
32 159
32 160
32 161
32 162
32 164
32 165
32 167
32 173
32 176
32 178
32 180
32 181
32 182
32 184
32 185
32 186
32 188
32 189
32 190
32 191
32 193
32 195
32 197
32 198
32 200
32 201
32 204
32 207
32 208
32 209
32 210
32 212
32 213
32 215
32 217
32 224
32 229
32 233
32 235
32 236
33 0
33 1
33 2
33 3
33 4
33 5
33 6
33 7
33 8
33 9
33 10
33 11
33 12
33 13
33 14
33 15
33 16
33 17
33 18
33 19
33 20
33 22
33 23
33 24
33 25
33 27
33 28
33 29
33 30
33 31
33 32
33 33
33 34
33 35
33 36
33 37
33 38
33 39
33 40
33 41
33 42
33 43
33 44
33 45
33 46
33 47
33 48
33 49
33 50
33 51
33 52
33 53
33 54
33 57
33 59
33 61
33 67
33 69
33 70
33 73
33 74
33 75
33 76
33 77
33 78
33 79
33 82
33 83
33 84
33 87
33 88
33 89
33 90
33 91
33 92
33 93
33 94
33 95
33 96
33 97
33 98
33 99
33 100
33 101
33 102
33 103
33 105
33 106
33 109
33 111
33 112
33 113
33 114
33 115
33 116
33 117
33 118
33 119
33 120
33 121
33 122
33 123
33 124
33 126
33 127
33 129
33 131
33 132
33 134
33 135
33 136
33 137
33 138
33 139
33 140
33 141
33 142
33 143
33 144
33 146
33 147
33 151
33 153
33 154
33 155
33 156
33 158
33 159
33 160
33 161
33 162
33 163
33 164
33 165
33 166
33 167
33 168
33 170
33 175
33 178
33 180
33 182
33 184
33 185
33 186
33 188
33 189
33 190
33 191
33 195
33 197
33 198
33 199
33 200
33 201
33 202
33 204
33 207
33 208
33 209
33 210
33 212
33 213
33 226
33 228
33 229
33 231
33 232
33 233
34 0
34 1
34 2
34 3
34 4
34 5
34 6
34 8
34 9
34 10
34 11
34 12
34 13
34 14
34 15
34 19
34 22
34 23
34 28
34 30
34 31
34 32
34 33
34 34
34 35
34 36
34 37
34 38
34 39
34 40
34 41
34 42
34 43
34 44
34 45
34 46
34 47
34 48
34 49
34 50
34 51
34 52
34 53
34 69
34 71
34 73
34 76
34 77
34 82
34 83
34 84
34 88
34 89
34 90
34 91
34 92
34 93
34 94
34 96
34 97
34 98
34 100
34 101
34 102
34 103
34 106
34 111
34 112
34 113
34 114
34 117
34 119
34 120
34 121
34 124
34 129
34 131
34 132
34 134
34 135
34 137
34 138
34 140
34 142
34 143
34 147
34 153
34 154
34 155
34 158
34 159
34 160
34 161
34 162
34 163
34 164
34 165
34 167
34 178
34 180
34 182
34 186
34 187
34 188
34 189
34 190
34 195
34 198
34 200
34 207
34 208
34 209
34 210
34 212
34 213
34 215
34 229
34 233
35 0
35 3
35 4
35 8
35 9
35 10
35 11
35 12
35 13
35 14
35 15
35 22
35 23
35 28
35 30
35 31
35 32
35 33
35 34
35 36
35 37
35 38
35 39
35 40
35 41
35 42
35 43
35 44
35 45
35 46
35 47
35 48
35 49
35 50
35 51
35 52
35 53
35 65
35 69
35 73
35 77
35 82
35 83
35 84
35 85
35 86
35 88
35 89
35 90
35 91
35 93
35 94
35 96
35 97
35 98
35 99
35 100
35 101
35 102
35 106
35 111
35 112
35 113
35 119
35 120
35 124
35 129
35 131
35 134
35 135
35 137
35 138
35 142
35 146
35 147
35 153
35 159
35 161
35 162
35 165
35 167
35 173
35 174
35 175
35 176
35 177
35 178
35 179
35 180
35 181
35 182
35 185
35 186
35 188
35 189
35 195
35 198
35 200
35 203
35 207
35 208
35 209
35 210
35 212
35 218
35 219
35 220
35 229
35 233
35 237
36 0
36 1
36 2
36 6
36 7
36 8
36 9
36 10
36 11
36 12
36 13
36 14
36 15
36 16
36 17
36 18
36 20
36 22
36 23
36 24
36 27
36 28
36 29
36 30
36 31
36 32
36 33
36 34
36 35
36 37
36 38
36 39
36 40
36 41
36 42
36 43
36 44
36 45
36 46
36 47
36 48
36 49
36 50
36 51
36 52
36 53
36 69
36 73
36 77
36 82
36 83
36 84
36 88
36 89
36 90
36 91
36 92
36 93
36 94
36 96
36 97
36 98
36 99
36 100
36 101
36 102
36 105
36 106
36 111
36 112
36 113
36 119
36 120
36 124
36 129
36 131
36 132
36 134
36 135
36 137
36 138
36 140
36 142
36 147
36 153
36 159
36 161
36 162
36 165
36 167
36 178
36 180
36 182
36 186
36 188
36 189
36 195
36 198
36 200
36 207
36 208
36 209
36 210
36 212
36 217
36 224
36 229
36 230
36 231
36 233
37 0
37 1
37 2
37 3
37 4
37 5
37 8
37 9
37 10
37 11
37 12
37 13
37 14
37 15
37 20
37 22
37 23
37 28
37 30
37 31
37 32
37 33
37 34
37 35
37 36
37 38
37 39
37 40
37 41
37 42
37 43
37 44
37 45
37 46
37 47
37 48
37 49
37 51
37 52
37 53
37 57
37 65
37 67
37 69
37 73
37 74
37 77
37 82
37 83
37 84
37 86
37 88
37 89
37 90
37 91
37 93
37 94
37 95
37 96
37 97
37 98
37 100
37 101
37 102
37 106
37 111
37 112
37 113
37 114
37 119
37 120
37 124
37 129
37 131
37 132
37 134
37 135
37 137
37 138
37 142
37 146
37 147
37 153
37 159
37 161
37 162
37 165
37 167
37 173
37 174
37 175
37 176
37 178
37 179
37 180
37 181
37 182
37 183
37 184
37 186
37 188
37 189
37 195
37 198
37 200
37 207
37 208
37 209
37 210
37 212
37 218
37 219
37 220
37 229
37 232
37 233
37 237
38 0
38 1
38 2
38 3
38 4
38 6
38 7
38 8
38 9
38 10
38 11
38 12
38 13
38 14
38 15
38 16
38 17
38 18
38 20
38 22
38 23
38 26
38 27
38 28
38 30
38 31
38 32
38 33
38 34
38 35
38 36
38 37
38 39
38 40
38 41
38 42
38 43
38 44
38 45
38 46
38 47
38 48
38 49
38 50
38 51
38 52
38 53
38 54
38 59
38 67
38 69
38 73
38 77
38 82
38 83
38 84
38 88
38 89
38 90
38 91
38 93
38 94
38 96
38 97
38 98
38 100
38 101
38 102
38 104
38 106
38 111
38 112
38 113
38 116
38 119
38 120
38 124
38 127
38 129
38 131
38 132
38 134
38 135
38 137
38 138
38 139
38 141
38 142
38 144
38 147
38 151
38 153
38 159
38 161
38 162
38 165
38 167
38 175
38 178
38 180
38 182
38 185
38 186
38 188
38 189
38 195
38 198
38 200
38 204
38 207
38 208
38 209
38 210
38 212
38 220
38 228
38 229
38 231
38 232
38 233
38 236
38 237
39 0
39 1
39 2
39 3
39 4
39 5
39 8
39 9
39 10
39 11
39 12
39 13
39 14
39 15
39 22
39 23
39 28
39 30
39 31
39 32
39 33
39 34
39 35
39 36
39 37
39 38
39 40
39 41
39 42
39 43
39 44
39 45
39 46
39 47
39 48
39 49
39 51
39 52
39 53
39 65
39 69
39 73
39 74
39 77
39 78
39 82
39 83
39 84
39 85
39 86
39 88
39 89
39 90
39 91
39 92
39 93
39 94
39 96
39 97
39 98
39 100
39 101
39 102
39 104
39 106
39 111
39 112
39 113
39 115
39 119
39 120
39 121
39 122
39 124
39 129
39 130
39 131
39 132
39 134
39 135
39 137
39 138
39 142
39 147
39 149
39 150
39 153
39 156
39 159
39 161
39 162
39 165
39 167
39 173
39 174
39 175
39 176
39 178
39 179
39 180
39 181
39 182
39 186
39 188
39 189
39 195
39 198
39 200
39 203
39 207
39 208
39 209
39 210
39 212
39 218
39 219
39 220
39 229
39 233
39 237
40 0
40 1
40 2
40 3
40 4
40 8
40 9
40 10
40 11
40 12
40 13
40 14
40 15
40 22
40 23
40 25
40 28
40 30
40 31
40 32
40 33
40 34
40 35
40 36
40 37
40 38
40 39
40 41
40 42
40 43
40 44
40 45
40 46
40 47
40 48
40 49
40 50
40 51
40 52
40 53
40 65
40 69
40 70
40 71
40 73
40 75
40 76
40 77
40 82
40 83
40 84
40 87
40 88
40 90
40 91
40 93
40 94
40 96
40 97
40 98
40 100
40 101
40 102
40 106
40 111
40 112
40 113
40 119
40 120
40 124
40 129
40 131
40 132
40 134
40 135
40 137
40 138
40 140
40 142
40 143
40 146
40 147
40 151
40 153
40 154
40 155
40 158
40 159
40 160
40 161
40 162
40 163
40 164
40 165
40 167
40 176
40 178
40 180
40 181
40 182
40 186
40 188
40 189
40 190
40 195
40 197
40 198
40 200
40 201
40 204
40 207
40 208
40 209
40 210
40 212
40 226
40 229
40 233
40 234
41 0
41 1
41 2
41 3
41 4
41 5
41 6
41 7
41 8
41 9
41 10
41 11
41 12
41 13
41 14
41 15
41 16
41 17
41 18
41 20
41 21
41 22
41 23
41 24
41 27
41 28
41 29
41 30
41 31
41 32
41 33
41 34
41 35
41 36
41 37
41 38
41 39
41 40
41 41
41 42
41 43
41 44
41 45
41 46
41 47
41 48
41 49
41 50
41 51
41 52
41 53
41 60
41 69
41 73
41 77
41 82
41 83
41 84
41 88
41 89
41 90
41 91
41 93
41 94
41 95
41 96
41 97
41 98
41 100
41 101
41 102
41 103
41 105
41 106
41 109
41 111
41 112
41 113
41 114
41 116
41 119
41 120
41 124
41 126
41 129
41 130
41 131
41 132
41 134
41 135
41 137
41 138
41 142
41 147
41 150
41 153
41 158
41 159
41 161
41 162
41 165
41 167
41 173
41 175
41 176
41 178
41 180
41 182
41 183
41 185
41 186
41 188
41 189
41 195
41 196
41 197
41 198
41 200
41 205
41 207
41 208
41 209
41 210
41 212
41 213
41 218
41 229
41 230
41 231
41 232
41 233
41 236
42 0
42 1
42 2
42 6
42 7
42 8
42 9
42 10
42 11
42 12
42 13
42 14
42 15
42 16
42 17
42 18
42 19
42 20
42 21
42 22
42 23
42 24
42 25
42 26
42 27
42 28
42 29
42 30
42 31
42 32
42 33
42 34
42 35
42 36
42 37
42 38
42 39
42 40
42 41
42 42
42 43
42 44
42 45
42 46
42 47
42 48
42 49
42 50
42 51
42 52
42 53
42 65
42 69
42 73
42 77
42 82
42 83
42 84
42 85
42 88
42 89
42 90
42 91
42 93
42 94
42 95
42 96
42 97
42 98
42 99
42 100
42 101
42 102
42 105
42 106
42 107
42 109
42 111
42 112
42 113
42 114
42 119
42 120
42 124
42 129
42 131
42 134
42 135
42 137
42 138
42 142
42 147
42 153
42 159
42 161
42 162
42 165
42 167
42 178
42 180
42 182
42 186
42 188
42 189
42 195
42 198
42 200
42 204
42 207
42 208
42 209
42 210
42 212
42 223
42 224
42 225
42 229
42 230
42 231
42 232
42 233
43 0
43 1
43 2
43 6
43 7
43 8
43 9
43 10
43 11
43 12
43 13
43 14
43 15
43 16
43 17
43 18
43 19
43 20
43 21
43 22
43 23
43 24
43 25
43 26
43 27
43 28
43 30
43 31
43 32
43 33
43 34
43 35
43 36
43 37
43 38
43 39
43 40
43 41
43 42
43 44
43 45
43 46
43 47
43 48
43 49
43 50
43 51
43 52
43 53
43 69
43 73
43 77
43 81
43 82
43 83
43 84
43 88
43 89
43 90
43 91
43 93
43 94
43 96
43 97
43 98
43 100
43 101
43 102
43 105
43 106
43 107
43 111
43 112
43 113
43 114
43 119
43 120
43 124
43 129
43 131
43 134
43 135
43 137
43 138
43 142
43 147
43 153
43 159
43 161
43 162
43 165
43 167
43 174
43 176
43 178
43 180
43 182
43 186
43 188
43 189
43 195
43 198
43 200
43 203
43 205
43 207
43 208
43 209
43 210
43 212
43 219
43 223
43 224
43 229
43 230
43 231
43 232
43 233
43 237
44 0
44 1
44 2
44 3
44 4
44 6
44 7
44 8
44 9
44 10
44 11
44 12
44 13
44 14
44 15
44 16
44 17
44 18
44 19
44 20
44 21
44 22
44 23
44 24
44 25
44 26
44 27
44 28
44 29
44 30
44 31
44 32
44 33
44 34
44 35
44 36
44 37
44 38
44 39
44 40
44 41
44 42
44 43
44 45
44 46
44 47
44 48
44 49
44 50
44 51
44 52
44 53
44 69
44 73
44 77
44 82
44 83
44 84
44 88
44 89
44 90
44 91
44 93
44 94
44 96
44 97
44 98
44 99
44 100
44 101
44 102
44 103
44 105
44 106
44 107
44 111
44 112
44 113
44 114
44 116
44 119
44 120
44 124
44 127
44 129
44 131
44 132
44 134
44 135
44 137
44 138
44 139
44 141
44 142
44 147
44 153
44 159
44 161
44 162
44 165
44 167
44 174
44 178
44 180
44 182
44 186
44 188
44 189
44 195
44 198
44 200
44 205
44 207
44 208
44 209
44 210
44 212
44 215
44 223
44 224
44 228
44 229
44 230
44 231
44 232
44 233
45 0
45 1
45 2
45 3
45 4
45 5
45 7
45 8
45 9
45 10
45 11
45 12
45 13
45 14
45 15
45 18
45 20
45 22
45 23
45 25
45 26
45 27
45 28
45 30
45 31
45 32
45 33
45 34
45 35
45 36
45 37
45 38
45 39
45 40
45 41
45 42
45 43
45 44
45 46
45 47
45 48
45 49
45 50
45 51
45 52
45 53
45 59
45 69
45 71
45 73
45 74
45 76
45 77
45 78
45 82
45 83
45 84
45 88
45 89
45 90
45 91
45 93
45 94
45 95
45 96
45 97
45 98
45 100
45 101
45 102
45 103
45 104
45 105
45 106
45 107
45 111
45 112
45 113
45 115
45 117
45 119
45 120
45 121
45 124
45 127
45 129
45 131
45 134
45 135
45 136
45 137
45 138
45 139
45 140
45 142
45 143
45 144
45 147
45 148
45 149
45 150
45 151
45 152
45 153
45 154
45 155
45 158
45 159
45 160
45 161
45 162
45 163
45 164
45 165
45 167
45 171
45 173
45 178
45 180
45 182
45 185
45 186
45 188
45 189
45 190
45 194
45 195
45 197
45 198
45 200
45 201
45 204
45 207
45 208
45 209
45 210
45 212
45 226
45 229
45 233
45 234
46 0
46 1
46 2
46 3
46 4
46 5
46 6
46 7
46 8
46 9
46 10
46 11
46 12
46 13
46 14
46 15
46 16
46 17
46 18
46 19
46 20
46 21
46 22
46 23
46 24
46 25
46 26
46 27
46 28
46 29
46 30
46 31
46 32
46 33
46 34
46 35
46 36
46 37
46 38
46 39
46 40
46 41
46 42
46 43
46 44
46 45
46 47
46 48
46 49
46 50
46 51
46 52
46 53
46 65
46 67
46 69
46 73
46 77
46 78
46 82
46 83
46 84
46 88
46 89
46 90
46 91
46 92
46 93
46 94
46 95
46 96
46 97
46 98
46 99
46 100
46 101
46 102
46 105
46 106
46 107
46 111
46 112
46 113
46 114
46 119
46 120
46 124
46 127
46 129
46 130
46 131
46 134
46 135
46 137
46 138
46 139
46 142
46 147
46 153
46 156
46 159
46 161
46 162
46 165
46 167
46 175
46 178
46 180
46 182
46 186
46 188
46 189
46 195
46 197
46 198
46 200
46 204
46 205
46 207
46 208
46 209
46 210
46 212
46 213
46 217
46 220
46 223
46 224
46 225
46 227
46 228
46 229
46 230
46 231
46 232
46 233
46 236
47 0
47 1
47 2
47 3
47 4
47 6
47 7
47 8
47 9
47 10
47 11
47 12
47 13
47 14
47 15
47 16
47 17
47 18
47 20
47 22
47 23
47 24
47 27
47 28
47 29
47 30
47 31
47 32
47 33
47 34
47 35
47 36
47 37
47 38
47 39
47 40
47 41
47 42
47 43
47 44
47 45
47 46
47 48
47 49
47 50
47 51
47 52
47 53
47 67
47 69
47 73
47 75
47 77
47 81
47 82
47 83
47 84
47 88
47 89
47 90
47 91
47 92
47 93
47 94
47 95
47 96
47 97
47 98
47 99
47 100
47 101
47 102
47 103
47 104
47 105
47 106
47 111
47 112
47 113
47 119
47 120
47 121
47 124
47 126
47 127
47 128
47 129
47 131
47 134
47 135
47 137
47 138
47 142
47 145
47 146
47 147
47 153
47 159
47 160
47 161
47 162
47 165
47 167
47 171
47 174
47 176
47 178
47 180
47 182
47 185
47 186
47 188
47 189
47 191
47 195
47 196
47 198
47 199
47 200
47 205
47 207
47 208
47 209
47 210
47 212
47 228
47 229
47 230
47 231
47 232
47 233
47 234
47 237
48 0
48 1
48 2
48 3
48 4
48 5
48 6
48 8
48 9
48 10
48 11
48 12
48 13
48 14
48 15
48 17
48 20
48 22
48 23
48 28
48 30
48 31
48 32
48 33
48 34
48 35
48 36
48 37
48 38
48 39
48 40
48 41
48 42
48 43
48 44
48 45
48 46
48 47
48 48
48 49
48 50
48 51
48 52
48 53
48 65
48 69
48 71
48 73
48 76
48 77
48 78
48 82
48 83
48 84
48 88
48 89
48 90
48 91
48 93
48 94
48 95
48 96
48 97
48 98
48 100
48 101
48 102
48 103
48 104
48 106
48 108
48 111
48 112
48 113
48 115
48 117
48 118
48 119
48 120
48 121
48 124
48 129
48 131
48 132
48 134
48 135
48 136
48 137
48 138
48 139
48 140
48 141
48 142
48 143
48 144
48 147
48 148
48 149
48 150
48 151
48 152
48 153
48 154
48 155
48 159
48 160
48 161
48 162
48 163
48 164
48 165
48 166
48 167
48 168
48 171
48 178
48 180
48 182
48 184
48 185
48 186
48 188
48 189
48 190
48 192
48 195
48 196
48 197
48 198
48 199
48 200
48 201
48 202
48 207
48 208
48 209
48 210
48 212
48 216
48 226
48 229
48 230
48 233
49 0
49 1
49 2
49 3
49 4
49 5
49 6
49 7
49 8
49 9
49 10
49 11
49 12
49 13
49 14
49 15
49 16
49 17
49 20
49 22
49 23
49 24
49 25
49 27
49 28
49 29
49 30
49 31
49 32
49 33
49 34
49 35
49 36
49 37
49 38
49 39
49 40
49 41
49 42
49 43
49 44
49 45
49 46
49 47
49 48
49 50
49 51
49 52
49 53
49 54
49 57
49 59
49 67
49 69
49 73
49 74
49 75
49 76
49 77
49 78
49 82
49 83
49 84
49 85
49 88
49 89
49 90
49 91
49 92
49 93
49 94
49 95
49 96
49 97
49 98
49 100
49 101
49 102
49 103
49 105
49 106
49 108
49 109
49 110
49 111
49 112
49 113
49 119
49 120
49 122
49 123
49 124
49 126
49 129
49 131
49 132
49 134
49 135
49 137
49 138
49 140
49 141
49 142
49 145
49 147
49 148
49 153
49 158
49 159
49 160
49 161
49 162
49 165
49 167
49 173
49 178
49 180
49 182
49 186
49 188
49 189
49 195
49 196
49 197
49 198
49 200
49 205
49 207
49 208
49 209
49 210
49 212
49 214
49 215
49 216
49 220
49 221
49 224
49 229
49 230
49 231
49 232
49 233
49 236
50 0
50 1
50 2
50 3
50 4
50 5
50 6
50 7
50 8
50 9
50 10
50 11
50 12
50 14
50 15
50 16
50 17
50 18
50 19
50 20
50 21
50 22
50 23
50 24
50 25
50 26
50 27
50 28
50 29
50 30
50 31
50 32
50 33
50 34
50 35
50 36
50 38
50 40
50 41
50 42
50 43
50 44
50 45
50 46
50 47
50 48
50 49
50 50
50 51
50 52
50 53
50 54
50 57
50 59
50 61
50 65
50 67
50 69
50 72
50 73
50 76
50 79
50 83
50 84
50 86
50 88
50 89
50 91
50 92
50 95
50 96
50 97
50 98
50 99
50 100
50 102
50 103
50 105
50 106
50 107
50 108
50 109
50 111
50 112
50 114
50 115
50 119
50 120
50 121
50 122
50 123
50 126
50 127
50 130
50 131
50 132
50 139
50 140
50 141
50 143
50 145
50 147
50 148
50 150
50 151
50 153
50 156
50 158
50 160
50 161
50 162
50 164
50 173
50 174
50 175
50 176
50 179
50 180
50 183
50 184
50 185
50 186
50 188
50 191
50 196
50 197
50 198
50 199
50 201
50 204
50 205
50 206
50 207
50 208
50 209
50 210
50 211
50 212
50 213
50 214
50 215
50 216
50 217
50 218
50 219
50 220
50 221
50 222
50 223
50 224
50 225
50 227
50 228
50 229
50 230
50 231
50 232
50 236
50 237
51 0
51 1
51 2
51 3
51 4
51 5
51 6
51 7
51 8
51 9
51 10
51 11
51 12
51 13
51 14
51 15
51 16
51 17
51 18
51 19
51 20
51 21
51 22
51 23
51 24
51 25
51 26
51 27
51 28
51 29
51 30
51 31
51 32
51 33
51 34
51 35
51 36
51 37
51 38
51 39
51 40
51 41
51 42
51 43
51 44
51 45
51 46
51 47
51 48
51 49
51 50
51 52
51 53
51 65
51 67
51 69
51 72
51 73
51 77
51 81
51 82
51 83
51 84
51 85
51 87
51 88
51 89
51 90
51 91
51 93
51 94
51 95
51 96
51 97
51 98
51 99
51 100
51 101
51 102
51 103
51 105
51 106
51 107
51 109
51 111
51 112
51 113
51 114
51 115
51 116
51 119
51 120
51 121
51 122
51 123
51 124
51 126
51 127
51 129
51 131
51 134
51 135
51 137
51 138
51 139
51 142
51 145
51 147
51 150
51 153
51 159
51 160
51 161
51 162
51 165
51 167
51 173
51 174
51 175
51 176
51 178
51 180
51 182
51 185
51 186
51 188
51 189
51 195
51 196
51 198
51 200
51 204
51 205
51 207
51 208
51 209
51 210
51 211
51 212
51 216
51 217
51 218
51 219
51 223
51 224
51 228
51 229
51 230
51 231
51 232
51 233
51 235
51 236
51 237
52 0
52 1
52 2
52 3
52 4
52 5
52 6
52 7
52 8
52 9
52 10
52 11
52 12
52 13
52 14
52 15
52 16
52 17
52 18
52 19
52 20
52 21
52 22
52 23
52 24
52 25
52 26
52 27
52 28
52 29
52 30
52 31
52 32
52 33
52 34
52 35
52 36
52 37
52 38
52 39
52 40
52 41
52 42
52 43
52 44
52 45
52 46
52 47
52 48
52 49
52 50
52 51
52 53
52 54
52 57
52 61
52 65
52 66
52 67
52 69
52 71
52 72
52 73
52 75
52 77
52 78
52 79
52 81
52 82
52 83
52 84
52 85
52 86
52 87
52 88
52 89
52 90
52 91
52 92
52 93
52 94
52 95
52 96
52 97
52 98
52 99
52 100
52 101
52 102
52 103
52 105
52 106
52 109
52 111
52 112
52 113
52 114
52 115
52 116
52 119
52 120
52 121
52 122
52 124
52 126
52 127
52 129
52 130
52 131
52 132
52 134
52 135
52 137
52 138
52 139
52 140
52 141
52 142
52 144
52 146
52 147
52 148
52 149
52 150
52 151
52 153
52 154
52 155
52 158
52 159
52 160
52 161
52 162
52 163
52 164
52 165
52 166
52 167
52 171
52 173
52 174
52 175
52 176
52 178
52 179
52 180
52 181
52 182
52 184
52 185
52 186
52 188
52 189
52 191
52 194
52 195
52 196
52 197
52 198
52 199
52 200
52 201
52 202
52 203
52 204
52 205
52 206
52 207
52 208
52 209
52 210
52 211
52 212
52 213
52 214
52 215
52 216
52 217
52 218
52 219
52 220
52 223
52 224
52 225
52 228
52 229
52 230
52 231
52 232
52 233
52 234
52 235
52 236
52 237
53 0
53 1
53 2
53 3
53 4
53 5
53 6
53 7
53 8
53 9
53 10
53 11
53 12
53 13
53 14
53 15
53 16
53 17
53 18
53 19
53 20
53 21
53 22
53 23
53 24
53 25
53 26
53 27
53 28
53 29
53 30
53 31
53 32
53 33
53 34
53 35
53 36
53 37
53 38
53 39
53 40
53 41
53 42
53 43
53 44
53 45
53 46
53 47
53 48
53 49
53 50
53 51
53 52
53 53
53 56
53 57
53 59
53 65
53 66
53 67
53 69
53 73
53 74
53 75
53 76
53 77
53 78
53 81
53 82
53 83
53 84
53 85
53 86
53 87
53 88
53 89
53 90
53 91
53 92
53 93
53 94
53 95
53 96
53 97
53 98
53 99
53 100
53 101
53 102
53 103
53 104
53 105
53 106
53 107
53 108
53 109
53 111
53 112
53 113
53 114
53 116
53 118
53 119
53 120
53 121
53 122
53 123
53 124
53 125
53 126
53 127
53 128
53 129
53 131
53 132
53 134
53 135
53 137
53 138
53 139
53 140
53 142
53 145
53 146
53 147
53 148
53 150
53 152
53 153
53 154
53 155
53 158
53 159
53 160
53 161
53 162
53 163
53 164
53 165
53 167
53 168
53 173
53 174
53 175
53 176
53 178
53 180
53 181
53 182
53 183
53 186
53 188
53 189
53 191
53 193
53 195
53 196
53 197
53 198
53 200
53 204
53 205
53 206
53 207
53 208
53 209
53 210
53 211
53 212
53 213
53 215
53 216
53 217
53 218
53 220
53 221
53 223
53 224
53 226
53 227
53 228
53 229
53 230
53 231
53 232
53 233
53 234
53 236
53 237
54 0
54 1
54 2
54 3
54 4
54 6
54 8
54 9
54 10
54 11
54 18
54 32
54 33
54 38
54 49
54 50
54 52
54 54
54 56
54 57
54 58
54 59
54 60
54 63
54 66
54 67
54 70
54 72
54 74
54 79
54 82
54 85
54 93
54 100
54 105
54 108
54 109
54 118
54 122
54 123
54 124
54 127
54 128
54 132
54 133
54 137
54 144
54 147
54 151
54 160
54 166
54 168
54 169
54 170
54 171
54 172
54 173
54 179
54 233
55 0
55 1
55 2
55 10
55 11
55 55
55 56
55 57
55 58
55 64
55 97
55 128
56 0
56 1
56 2
56 3
56 11
56 15
56 16
56 21
56 30
56 53
56 54
56 55
56 56
56 57
56 58
56 62
56 63
56 64
56 66
56 68
56 73
56 75
56 87
56 90
56 95
56 106
56 115
56 118
56 128
56 132
56 138
56 157
56 169
56 198
57 0
57 1
57 2
57 3
57 4
57 6
57 8
57 9
57 10
57 11
57 26
57 31
57 32
57 33
57 37
57 49
57 50
57 52
57 53
57 54
57 55
57 56
57 57
57 58
57 59
57 60
57 62
57 63
57 66
57 67
57 68
57 69
57 70
57 72
57 74
57 75
57 78
57 79
57 80
57 82
57 83
57 85
57 88
57 90
57 101
57 102
57 104
57 106
57 108
57 109
57 112
57 115
57 118
57 119
57 120
57 122
57 123
57 124
57 127
57 128
57 129
57 130
57 132
57 136
57 137
57 139
57 144
57 149
57 150
57 153
57 166
57 168
57 169
57 171
57 182
57 192
57 199
57 202
57 205
57 233
58 0
58 1
58 16
58 54
58 55
58 56
58 57
58 58
58 60
58 62
58 64
58 68
58 73
58 74
58 109
58 157
58 225
59 0
59 1
59 2
59 3
59 4
59 5
59 8
59 9
59 10
59 11
59 18
59 33
59 38
59 45
59 49
59 50
59 53
59 54
59 57
59 59
59 64
59 66
59 67
59 70
59 72
59 73
59 74
59 75
59 78
59 79
59 84
59 85
59 86
59 95
59 108
59 109
59 115
59 119
59 122
59 123
59 127
59 129
59 132
59 134
59 136
59 144
59 160
59 173
59 175
59 178
59 179
59 185
59 220
59 233
60 0
60 1
60 2
60 3
60 11
60 18
60 26
60 41
60 54
60 57
60 58
60 63
60 66
60 67
60 72
60 86
60 95
60 100
60 146
60 166
60 168
60 169
60 171
60 173
60 182
61 0
61 1
61 2
61 6
61 8
61 9
61 16
61 18
61 20
61 21
61 24
61 25
61 29
61 30
61 31
61 33
61 50
61 52
61 61
61 62
61 64
61 67
61 68
61 80
61 92
61 105
61 106
61 112
61 114
61 139
61 140
61 143
61 189
61 214
61 232
62 0
62 1
62 2
62 3
62 56
62 57
62 58
62 61
62 62
62 64
62 68
62 80
62 127
62 128
62 132
62 133
63 0
63 1
63 2
63 3
63 4
63 5
63 6
63 7
63 8
63 11
63 14
63 17
63 18
63 19
63 20
63 23
63 54
63 56
63 57
63 60
63 66
63 67
63 72
63 86
63 93
63 100
63 118
63 132
63 157
63 166
63 168
63 169
63 171
63 173
63 180
63 182
63 208
63 232
64 0
64 1
64 2
64 55
64 56
64 58
64 59
64 61
64 62
64 64
64 68
64 75
64 80
64 128
65 0
65 1
65 2
65 3
65 4
65 7
65 8
65 9
65 10
65 11
65 13
65 17
65 21
65 27
65 30
65 31
65 35
65 37
65 39
65 40
65 42
65 46
65 48
65 50
65 51
65 52
65 53
65 67
65 75
65 82
65 83
65 84
65 85
65 86
65 88
65 94
65 99
65 101
65 102
65 105
65 106
65 111
65 113
65 128
65 135
65 138
65 146
65 152
65 156
65 173
65 174
65 175
65 176
65 177
65 178
65 179
65 181
65 182
65 183
65 214
65 218
65 219
65 220
65 236
65 237
66 0
66 1
66 2
66 3
66 10
66 11
66 18
66 52
66 53
66 54
66 56
66 57
66 59
66 60
66 63
66 67
66 70
66 72
66 93
66 100
66 109
66 123
66 132
66 166
66 168
66 169
66 171
66 173
67 0
67 1
67 2
67 3
67 4
67 6
67 7
67 8
67 9
67 10
67 16
67 17
67 18
67 20
67 21
67 27
67 29
67 32
67 33
67 37
67 38
67 46
67 47
67 49
67 50
67 51
67 52
67 53
67 54
67 57
67 59
67 60
67 61
67 63
67 65
67 66
67 67
67 70
67 72
67 74
67 75
67 78
67 79
67 80
67 82
67 84
67 85
67 88
67 94
67 95
67 97
67 99
67 100
67 101
67 103
67 108
67 109
67 113
67 115
67 118
67 121
67 122
67 123
67 125
67 127
67 128
67 130
67 132
67 134
67 135
67 136
67 138
67 157
67 158
67 162
67 166
67 168
67 169
67 170
67 171
67 173
67 174
67 175
67 179
67 196
67 208
67 209
67 214
67 216
67 218
67 220
67 222
67 237
68 0
68 1
68 2
68 56
68 57
68 58
68 61
68 62
68 64
68 68
68 80
69 0
69 1
69 2
69 3
69 5
69 6
69 7
69 8
69 9
69 10
69 11
69 12
69 13
69 14
69 15
69 19
69 22
69 23
69 25
69 28
69 30
69 31
69 32
69 33
69 34
69 35
69 36
69 37
69 38
69 39
69 40
69 41
69 42
69 43
69 44
69 45
69 46
69 47
69 48
69 49
69 50
69 51
69 52
69 53
69 57
69 70
69 71
69 73
69 77
69 82
69 83
69 84
69 88
69 89
69 90
69 91
69 93
69 94
69 96
69 97
69 98
69 100
69 101
69 102
69 106
69 111
69 112
69 113
69 119
69 120
69 124
69 129
69 131
69 134
69 135
69 137
69 138
69 142
69 147
69 153
69 154
69 158
69 159
69 160
69 161
69 162
69 164
69 165
69 167
69 170
69 171
69 178
69 180
69 182
69 186
69 188
69 189
69 190
69 191
69 192
69 195
69 197
69 198
69 199
69 200
69 201
69 203
69 204
69 207
69 208
69 209
69 210
69 212
69 216
69 229
69 230
69 231
69 233
69 235
70 0
70 1
70 2
70 3
70 5
70 8
70 9
70 10
70 12
70 33
70 40
70 54
70 57
70 59
70 66
70 67
70 69
70 70
70 72
70 75
70 86
70 90
70 91
70 96
70 98
70 102
70 108
70 109
70 112
70 115
70 118
70 122
70 123
70 124
70 127
70 128
70 132
70 137
70 144
70 147
70 148
70 168
70 170
70 172
70 198
70 221
71 0
71 1
71 2
71 3
71 5
71 8
71 9
71 10
71 11
71 34
71 40
71 45
71 48
71 52
71 69
71 76
71 82
71 84
71 93
71 97
71 118
71 134
71 142
71 147
71 151
71 154
71 155
71 159
71 160
71 161
71 162
71 163
71 164
71 165
71 173
72 0
72 1
72 2
72 3
72 9
72 10
72 12
72 32
72 50
72 51
72 52
72 54
72 57
72 59
72 60
72 63
72 66
72 67
72 70
72 75
72 78
72 79
72 80
72 82
72 85
72 87
72 96
72 99
72 100
72 108
72 109
72 111
72 115
72 118
72 122
72 123
72 127
72 128
72 132
72 137
72 150
72 166
72 168
72 169
72 170
72 171
72 172
73 0
73 1
73 2
73 4
73 6
73 7
73 8
73 9
73 10
73 11
73 12
73 13
73 14
73 15
73 16
73 17
73 18
73 20
73 22
73 23
73 24
73 25
73 26
73 27
73 28
73 29
73 30
73 31
73 32
73 33
73 34
73 35
73 36
73 37
73 38
73 39
73 40
73 41
73 42
73 43
73 44
73 45
73 46
73 47
73 48
73 49
73 50
73 51
73 52
73 53
73 56
73 58
73 59
73 69
73 77
73 82
73 83
73 84
73 88
73 89
73 90
73 91
73 92
73 93
73 94
73 96
73 97
73 98
73 99
73 100
73 101
73 102
73 103
73 104
73 105
73 106
73 111
73 112
73 113
73 114
73 119
73 120
73 124
73 129
73 131
73 134
73 135
73 137
73 138
73 140
73 142
73 145
73 146
73 147
73 148
73 153
73 158
73 159
73 160
73 161
73 162
73 165
73 167
73 173
73 178
73 180
73 182
73 186
73 188
73 189
73 194
73 195
73 196
73 198
73 200
73 204
73 205
73 207
73 208
73 209
73 210
73 212
73 221
73 229
73 230
73 231
73 232
73 233
74 0
74 1
74 2
74 3
74 4
74 8
74 9
74 10
74 11
74 21
74 31
74 32
74 33
74 37
74 39
74 45
74 49
74 53
74 54
74 57
74 58
74 59
74 67
74 74
74 79
74 82
74 92
74 95
74 101
74 106
74 108
74 109
74 121
74 122
74 127
74 128
74 130
74 132
74 138
74 151
74 160
74 174
74 178
74 179
74 181
74 182
75 0
75 1
75 2
75 3
75 5
75 9
75 10
75 12
75 16
75 20
75 33
75 40
75 47
75 49
75 52
75 53
75 56
75 57
75 59
75 64
75 65
75 67
75 70
75 72
75 75
75 79
75 86
75 87
75 90
75 91
75 95
75 108
75 109
75 110
75 113
75 115
75 118
75 122
75 123
75 127
75 128
75 132
75 133
75 135
75 147
75 148
75 153
75 156
75 170
75 173
75 175
75 194
75 198
75 199
75 205
75 211
75 214
75 217
75 221
75 232
76 0
76 1
76 2
76 3
76 5
76 6
76 8
76 9
76 10
76 11
76 16
76 28
76 31
76 33
76 34
76 40
76 45
76 48
76 49
76 50
76 53
76 71
76 77
76 83
76 88
76 97
76 101
76 103
76 135
76 138
76 142
76 147
76 151
76 154
76 155
76 159
76 160
76 161
76 162
76 163
76 164
76 165
76 190
76 197
77 0
77 1
77 2
77 3
77 5
77 6
77 7
77 8
77 9
77 10
77 11
77 12
77 13
77 14
77 15
77 16
77 17
77 19
77 22
77 23
77 24
77 25
77 28
77 30
77 31
77 32
77 33
77 34
77 35
77 36
77 37
77 38
77 39
77 40
77 41
77 42
77 43
77 44
77 45
77 46
77 47
77 48
77 49
77 51
77 52
77 53
77 69
77 73
77 76
77 82
77 83
77 84
77 88
77 89
77 90
77 91
77 93
77 94
77 95
77 96
77 97
77 98
77 100
77 101
77 102
77 106
77 111
77 112
77 113
77 119
77 120
77 121
77 124
77 129
77 131
77 134
77 135
77 137
77 138
77 140
77 142
77 147
77 151
77 153
77 158
77 159
77 160
77 161
77 162
77 163
77 165
77 167
77 178
77 180
77 182
77 184
77 186
77 188
77 189
77 195
77 197
77 198
77 200
77 201
77 204
77 207
77 208
77 209
77 210
77 212
77 215
77 229
77 231
77 233
78 0
78 1
78 2
78 3
78 4
78 5
78 7
78 9
78 10
78 14
78 17
78 18
78 20
78 29
78 30
78 33
78 39
78 45
78 46
78 48
78 49
78 52
78 53
78 57
78 59
78 67
78 72
78 79
78 84
78 87
78 95
78 99
78 101
78 102
78 104
78 109
78 111
78 112
78 115
78 116
78 117
78 124
78 127
78 129
78 132
78 135
78 137
78 138
78 139
78 141
78 144
78 147
78 149
78 150
78 152
78 153
78 155
78 156
78 158
78 160
78 172
78 200
78 201
78 203
78 208
78 213
78 220
78 228
78 232
78 233
79 0
79 1
79 2
79 3
79 4
79 9
79 10
79 18
79 31
79 32
79 33
79 50
79 52
79 54
79 57
79 59
79 67
79 72
79 74
79 75
79 78
79 82
79 85
79 86
79 87
79 97
79 108
79 109
79 110
79 111
79 122
79 123
79 125
79 127
79 130
79 132
79 135
79 179
79 181
79 194
79 197
79 216
79 217
79 222
80 0
80 1
80 2
80 57
80 61
80 62
80 64
80 67
80 68
80 72
80 80
80 82
81 0
81 1
81 2
81 3
81 6
81 8
81 9
81 11
81 14
81 18
81 21
81 31
81 32
81 43
81 47
81 51
81 52
81 53
81 84
81 88
81 89
81 95
81 99
81 101
81 109
81 116
81 130
81 139
81 145
81 160
81 173
81 175
81 176
81 205
81 209
81 233
82 0
82 1
82 2
82 3
82 4
82 5
82 6
82 8
82 9
82 10
82 11
82 12
82 13
82 14
82 15
82 16
82 20
82 22
82 23
82 28
82 30
82 31
82 32
82 33
82 34
82 35
82 36
82 37
82 38
82 39
82 40
82 41
82 42
82 43
82 44
82 45
82 46
82 47
82 48
82 49
82 51
82 52
82 53
82 54
82 57
82 65
82 67
82 69
82 71
82 72
82 73
82 74
82 77
82 79
82 80
82 83
82 84
82 85
82 86
82 88
82 90
82 91
82 92
82 93
82 94
82 96
82 97
82 98
82 100
82 101
82 102
82 106
82 109
82 111
82 112
82 113
82 119
82 120
82 121
82 122
82 123
82 124
82 129
82 131
82 132
82 134
82 135
82 137
82 138
82 140
82 144
82 147
82 153
82 156
82 159
82 160
82 161
82 162
82 163
82 164
82 165
82 167
82 173
82 174
82 175
82 176
82 178
82 179
82 180
82 181
82 182
82 185
82 186
82 188
82 189
82 195
82 198
82 200
82 203
82 207
82 208
82 209
82 210
82 212
82 218
82 219
82 220
82 229
82 231
82 233
82 234
82 237
83 0
83 1
83 2
83 3
83 5
83 6
83 7
83 8
83 9
83 10
83 11
83 12
83 13
83 14
83 15
83 22
83 23
83 24
83 25
83 27
83 28
83 30
83 31
83 32
83 33
83 34
83 35
83 36
83 37
83 38
83 39
83 40
83 41
83 42
83 43
83 44
83 45
83 46
83 47
83 48
83 49
83 50
83 51
83 52
83 53
83 57
83 65
83 69
83 73
83 76
83 77
83 82
83 84
83 88
83 89
83 90
83 91
83 92
83 93
83 94
83 96
83 97
83 98
83 100
83 101
83 102
83 106
83 111
83 112
83 113
83 114
83 115
83 119
83 120
83 122
83 124
83 129
83 131
83 134
83 135
83 137
83 138
83 142
83 147
83 153
83 159
83 160
83 161
83 162
83 165
83 167
83 173
83 178
83 180
83 181
83 182
83 186
83 188
83 189
83 195
83 196
83 197
83 198
83 199
83 200
83 205
83 207
83 208
83 209
83 210
83 212
83 229
83 230
83 232
83 233
83 236
84 0
84 1
84 2
84 3
84 4
84 5
84 6
84 7
84 8
84 9
84 10
84 11
84 12
84 14
84 16
84 17
84 18
84 19
84 20
84 23
84 24
84 25
84 26
84 27
84 28
84 29
84 30
84 31
84 32
84 33
84 34
84 35
84 36
84 37
84 38
84 39
84 40
84 41
84 42
84 43
84 44
84 45
84 46
84 47
84 48
84 49
84 50
84 51
84 52
84 53
84 59
84 65
84 67
84 69
84 71
84 73
84 77
84 78
84 81
84 82
84 83
84 86
84 87
84 88
84 89
84 91
84 92
84 93
84 94
84 95
84 96
84 99
84 101
84 102
84 103
84 105
84 106
84 109
84 111
84 112
84 113
84 114
84 115
84 116
84 119
84 120
84 124
84 126
84 127
84 129
84 131
84 134
84 135
84 137
84 138
84 141
84 142
84 145
84 146
84 147
84 153
84 155
84 158
84 159
84 161
84 162
84 167
84 173
84 174
84 175
84 176
84 178
84 180
84 182
84 185
84 186
84 188
84 193
84 197
84 201
84 204
84 205
84 207
84 208
84 209
84 210
84 211
84 212
84 213
84 214
84 216
84 220
84 223
84 226
84 229
84 230
84 231
84 232
84 233
84 237
85 0
85 1
85 2
85 3
85 4
85 9
85 10
85 11
85 13
85 18
85 26
85 32
85 35
85 39
85 42
85 49
85 51
85 52
85 53
85 54
85 57
85 59
85 65
85 67
85 72
85 79
85 82
85 86
85 95
85 99
85 105
85 108
85 109
85 111
85 122
85 127
85 130
85 132
85 173
85 174
85 175
85 176
85 178
85 179
85 181
85 183
85 196
85 217
85 218
85 219
85 220
85 229
85 237
86 0
86 1
86 2
86 3
86 4
86 5
86 7
86 8
86 9
86 10
86 11
86 13
86 17
86 20
86 31
86 35
86 37
86 39
86 50
86 52
86 53
86 59
86 60
86 63
86 65
86 70
86 75
86 79
86 82
86 84
86 85
86 87
86 88
86 93
86 95
86 99
86 102
86 109
86 111
86 116
86 127
86 134
86 146
86 173
86 174
86 175
86 176
86 177
86 178
86 179
86 181
86 183
86 205
86 218
86 219
86 220
86 232
86 237
87 0
87 1
87 2
87 3
87 4
87 5
87 6
87 8
87 9
87 10
87 16
87 18
87 31
87 32
87 33
87 40
87 51
87 52
87 53
87 56
87 72
87 75
87 78
87 79
87 84
87 86
87 87
87 99
87 101
87 108
87 109
87 124
87 128
87 135
87 138
87 144
87 149
87 156
87 160
87 213
87 220
87 225
87 231
88 0
88 1
88 2
88 3
88 4
88 5
88 6
88 7
88 8
88 9
88 10
88 11
88 12
88 13
88 14
88 15
88 16
88 17
88 18
88 20
88 22
88 23
88 25
88 26
88 28
88 29
88 30
88 31
88 32
88 33
88 34
88 35
88 36
88 37
88 38
88 39
88 40
88 41
88 42
88 43
88 44
88 45
88 46
88 47
88 48
88 49
88 50
88 51
88 52
88 53
88 57
88 65
88 67
88 69
88 73
88 76
88 77
88 81
88 82
88 83
88 84
88 86
88 89
88 90
88 91
88 92
88 93
88 94
88 95
88 96
88 97
88 98
88 99
88 100
88 101
88 102
88 105
88 106
88 109
88 111
88 112
88 113
88 119
88 120
88 123
88 124
88 129
88 130
88 131
88 134
88 135
88 137
88 138
88 142
88 146
88 147
88 148
88 152
88 153
88 159
88 161
88 162
88 165
88 167
88 173
88 174
88 175
88 176
88 178
88 179
88 180
88 181
88 182
88 186
88 188
88 189
88 195
88 196
88 198
88 200
88 204
88 205
88 207
88 208
88 209
88 210
88 211
88 212
88 218
88 219
88 220
88 223
88 229
88 230
88 231
88 233
88 237
89 0
89 1
89 2
89 3
89 8
89 9
89 10
89 11
89 12
89 13
89 14
89 15
89 22
89 23
89 28
89 30
89 31
89 32
89 33
89 34
89 35
89 36
89 37
89 38
89 39
89 41
89 42
89 43
89 44
89 45
89 46
89 47
89 48
89 49
89 50
89 51
89 52
89 53
89 69
89 73
89 77
89 81
89 83
89 84
89 88
89 90
89 91
89 93
89 94
89 95
89 96
89 97
89 98
89 100
89 101
89 102
89 105
89 106
89 111
89 112
89 113
89 119
89 120
89 124
89 129
89 131
89 134
89 135
89 137
89 138
89 147
89 153
89 159
89 161
89 162
89 163
89 164
89 165
89 167
89 178
89 180
89 182
89 186
89 188
89 189
89 195
89 198
89 200
89 207
89 208
89 209
89 210
89 212
89 220
89 229
89 233
90 0
90 1
90 2
90 3
90 8
90 9
90 10
90 11
90 15
90 19
90 30
90 31
90 32
90 33
90 34
90 35
90 36
90 37
90 38
90 39
90 40
90 41
90 42
90 43
90 44
90 45
90 46
90 47
90 48
90 49
90 51
90 52
90 53
90 56
90 57
90 69
90 70
90 73
90 75
90 77
90 82
90 83
90 88
90 89
90 90
90 93
90 94
90 96
90 100
90 102
90 106
90 109
90 112
90 113
90 116
90 119
90 120
90 124
90 129
90 131
90 132
90 133
90 134
90 135
90 137
90 142
90 147
90 153
90 159
90 161
90 162
90 167
90 170
90 178
90 180
90 182
90 199
90 202
90 207
90 208
90 209
90 210
90 233
91 0
91 1
91 2
91 5
91 6
91 7
91 8
91 9
91 10
91 11
91 12
91 14
91 16
91 19
91 25
91 26
91 28
91 29
91 30
91 31
91 32
91 33
91 34
91 35
91 36
91 37
91 38
91 39
91 40
91 41
91 42
91 43
91 44
91 45
91 46
91 47
91 48
91 49
91 50
91 51
91 52
91 53
91 69
91 70
91 73
91 75
91 77
91 82
91 83
91 84
91 88
91 89
91 93
91 94
91 96
91 98
91 100
91 102
91 106
91 112
91 113
91 114
91 119
91 120
91 124
91 129
91 131
91 134
91 135
91 137
91 142
91 147
91 153
91 159
91 161
91 162
91 167
91 178
91 180
91 182
91 184
91 189
91 191
91 202
91 204
91 207
91 208
91 209
91 210
91 226
91 233
91 235
92 0
92 1
92 2
92 3
92 4
92 6
92 8
92 9
92 10
92 11
92 12
92 13
92 14
92 15
92 20
92 21
92 29
92 30
92 31
92 32
92 33
92 34
92 36
92 39
92 46
92 47
92 49
92 50
92 52
92 53
92 61
92 73
92 74
92 82
92 83
92 84
92 88
92 94
92 95
92 103
92 112
92 116
92 121
92 127
92 134
92 140
92 155
92 156
92 158
92 160
92 162
92 164
92 167
92 176
92 180
92 185
92 205
92 207
92 213
92 215
92 230
92 232
92 233
93 0
93 1
93 2
93 3
93 4
93 5
93 6
93 8
93 9
93 10
93 11
93 12
93 13
93 14
93 15
93 17
93 20
93 22
93 23
93 26
93 27
93 28
93 30
93 31
93 32
93 33
93 34
93 35
93 36
93 37
93 38
93 39
93 40
93 41
93 42
93 43
93 44
93 45
93 46
93 47
93 48
93 49
93 51
93 52
93 53
93 54
93 63
93 66
93 69
93 71
93 73
93 77
93 82
93 83
93 84
93 86
93 88
93 89
93 90
93 91
93 93
93 94
93 96
93 97
93 98
93 99
93 100
93 101
93 102
93 103
93 104
93 106
93 111
93 112
93 113
93 114
93 115
93 119
93 120
93 121
93 124
93 127
93 129
93 131
93 132
93 134
93 135
93 137
93 138
93 142
93 143
93 144
93 146
93 147
93 148
93 150
93 153
93 154
93 159
93 160
93 161
93 162
93 164
93 165
93 167
93 168
93 178
93 180
93 182
93 184
93 186
93 187
93 188
93 189
93 190
93 192
93 195
93 197
93 198
93 199
93 200
93 201
93 202
93 203
93 204
93 207
93 208
93 209
93 210
93 212
93 229
93 233
93 235
94 0
94 1
94 2
94 3
94 4
94 5
94 6
94 7
94 8
94 9
94 10
94 11
94 12
94 13
94 14
94 15
94 17
94 20
94 22
94 23
94 25
94 27
94 28
94 30
94 31
94 32
94 33
94 34
94 35
94 36
94 37
94 38
94 39
94 40
94 41
94 42
94 43
94 44
94 45
94 46
94 47
94 48
94 49
94 51
94 52
94 53
94 65
94 67
94 69
94 73
94 77
94 82
94 83
94 84
94 88
94 89
94 90
94 91
94 92
94 93
94 95
94 96
94 97
94 98
94 100
94 101
94 102
94 106
94 111
94 112
94 113
94 119
94 120
94 121
94 124
94 129
94 131
94 132
94 134
94 135
94 137
94 138
94 140
94 142
94 147
94 153
94 155
94 158
94 159
94 160
94 161
94 162
94 163
94 164
94 165
94 167
94 178
94 180
94 182
94 186
94 188
94 189
94 195
94 198
94 200
94 205
94 207
94 208
94 209
94 210
94 212
94 215
94 229
94 232
94 233
95 0
95 1
95 2
95 3
95 4
95 5
95 6
95 7
95 8
95 9
95 10
95 11
95 12
95 14
95 15
95 16
95 17
95 18
95 19
95 20
95 23
95 24
95 25
95 26
95 27
95 28
95 29
95 30
95 31
95 32
95 33
95 37
95 41
95 42
95 45
95 46
95 47
95 48
95 49
95 50
95 51
95 52
95 53
95 56
95 59
95 60
95 67
95 74
95 75
95 77
95 78
95 81
95 84
95 85
95 86
95 88
95 89
95 92
95 94
95 97
95 99
95 101
95 102
95 103
95 105
95 106
95 107
95 108
95 109
95 112
95 114
95 116
95 119
95 120
95 121
95 123
95 126
95 127
95 129
95 132
95 138
95 139
95 145
95 146
95 147
95 156
95 158
95 159
95 160
95 161
95 162
95 173
95 175
95 176
95 179
95 182
95 183
95 186
95 191
95 197
95 198
95 204
95 205
95 206
95 208
95 209
95 210
95 211
95 213
95 214
95 216
95 219
95 220
95 224
95 226
95 227
95 229
95 230
95 231
95 232
95 233
95 234
95 236
96 0
96 1
96 2
96 3
96 4
96 8
96 9
96 10
96 11
96 12
96 13
96 14
96 15
96 22
96 23
96 27
96 28
96 30
96 31
96 32
96 33
96 34
96 35
96 36
96 37
96 38
96 39
96 40
96 41
96 42
96 43
96 44
96 45
96 46
96 47
96 48
96 49
96 50
96 51
96 52
96 53
96 69
96 70
96 72
96 73
96 77
96 82
96 83
96 84
96 88
96 89
96 90
96 91
96 93
96 94
96 97
96 98
96 100
96 101
96 102
96 106
96 111
96 112
96 113
96 119
96 120
96 124
96 129
96 131
96 134
96 135
96 137
96 138
96 140
96 142
96 147
96 153
96 159
96 161
96 162
96 165
96 167
96 178
96 180
96 182
96 184
96 186
96 188
96 189
96 191
96 192
96 194
96 195
96 197
96 198
96 199
96 200
96 202
96 204
96 207
96 208
96 209
96 210
96 212
96 229
96 233
96 236
97 0
97 1
97 2
97 3
97 4
97 5
97 6
97 8
97 9
97 10
97 11
97 15
97 20
97 30
97 31
97 32
97 33
97 34
97 35
97 36
97 37
97 38
97 39
97 40
97 41
97 42
97 43
97 44
97 45
97 46
97 47
97 48
97 49
97 50
97 51
97 52
97 53
97 55
97 67
97 69
97 71
97 73
97 76
97 77
97 79
97 82
97 83
97 88
97 89
97 93
97 94
97 95
97 96
97 102
97 106
97 112
97 113
97 119
97 120
97 121
97 124
97 129
97 131
97 134
97 135
97 137
97 142
97 143
97 147
97 150
97 151
97 153
97 154
97 155
97 156
97 159
97 160
97 161
97 162
97 163
97 164
97 165
97 167
97 173
97 178
97 180
97 182
97 183
97 190
97 198
97 200
97 202
97 204
97 207
97 208
97 209
97 210
97 213
97 230
97 233
97 234
98 0
98 1
98 2
98 3
98 5
98 6
98 8
98 9
98 10
98 11
98 12
98 14
98 23
98 28
98 30
98 31
98 32
98 33
98 34
98 35
98 36
98 37
98 38
98 39
98 40
98 41
98 42
98 43
98 44
98 45
98 46
98 47
98 48
98 49
98 50
98 51
98 52
98 53
98 69
98 70
98 73
98 77
98 82
98 83
98 88
98 89
98 91
98 93
98 94
98 96
98 100
98 102
98 106
98 112
98 113
98 114
98 119
98 120
98 124
98 129
98 131
98 134
98 135
98 137
98 142
98 147
98 153
98 159
98 161
98 162
98 167
98 178
98 180
98 182
98 184
98 187
98 188
98 195
98 201
98 207
98 208
98 209
98 210
98 212
98 229
98 230
98 231
98 233
98 235
98 237
99 0
99 1
99 2
99 3
99 4
99 5
99 6
99 7
99 8
99 9
99 10
99 11
99 12
99 13
99 14
99 16
99 17
99 18
99 19
99 20
99 21
99 24
99 25
99 26
99 27
99 29
99 31
99 32
99 33
99 35
99 36
99 42
99 44
99 46
99 47
99 50
99 51
99 52
99 53
99 65
99 67
99 72
99 73
99 78
99 81
99 84
99 85
99 86
99 87
99 88
99 93
99 95
99 101
99 103
99 105
99 106
99 107
99 109
99 111
99 114
99 116
99 119
99 120
99 122
99 126
99 130
99 131
99 138
99 145
99 146
99 173
99 174
99 175
99 176
99 178
99 179
99 181
99 183
99 185
99 193
99 197
99 201
99 204
99 205
99 211
99 218
99 219
99 220
99 223
99 224
99 226
99 229
99 230
99 231
99 232
99 236
99 237
100 0
100 1
100 2
100 3
100 6
100 8
100 9
100 10
100 11
100 14
100 15
100 16
100 17
100 18
100 19
100 20
100 28
100 30
100 31
100 32
100 33
100 34
100 35
100 36
100 37
100 38
100 39
100 40
100 41
100 42
100 43
100 44
100 45
100 46
100 47
100 48
100 49
100 50
100 51
100 52
100 53
100 54
100 60
100 63
100 66
100 67
100 69
100 72
100 73
100 77
100 82
100 83
100 88
100 89
100 90
100 91
100 93
100 94
100 96
100 98
100 102
100 103
100 106
100 112
100 113
100 119
100 120
100 124
100 129
100 131
100 134
100 135
100 137
100 142
100 147
100 153
100 159
100 161
100 162
100 166
100 167
100 168
100 171
100 173
100 178
100 180
100 182
100 184
100 187
100 190
100 195
100 198
100 200
100 201
100 202
100 204
100 206
100 207
100 208
100 209
100 210
100 213
100 230
100 232
100 233
100 235
100 236
101 0
101 1
101 2
101 3
101 4
101 5
101 6
101 7
101 8
101 9
101 10
101 11
101 12
101 16
101 17
101 20
101 26
101 30
101 31
101 32
101 33
101 34
101 35
101 36
101 37
101 38
101 39
101 40
101 41
101 42
101 43
101 44
101 45
101 46
101 47
101 48
101 49
101 51
101 52
101 53
101 57
101 65
101 67
101 69
101 73
101 74
101 76
101 77
101 78
101 81
101 82
101 83
101 84
101 87
101 88
101 89
101 93
101 94
101 95
101 96
101 99
101 102
101 103
101 106
101 107
101 108
101 112
101 113
101 115
101 119
101 120
101 124
101 127
101 129
101 131
101 134
101 135
101 137
101 138
101 142
101 147
101 149
101 151
101 153
101 156
101 159
101 160
101 161
101 162
101 166
101 167
101 178
101 180
101 182
101 193
101 197
101 205
101 207
101 208
101 209
101 210
101 219
101 220
101 231
101 232
101 233
101 236
102 0
102 1
102 2
102 3
102 4
102 5
102 8
102 9
102 10
102 11
102 12
102 13
102 14
102 15
102 22
102 23
102 28
102 30
102 31
102 32
102 33
102 34
102 35
102 36
102 37
102 38
102 39
102 40
102 41
102 42
102 43
102 44
102 45
102 46
102 47
102 48
102 49
102 50
102 51
102 52
102 53
102 57
102 65
102 69
102 70
102 73
102 77
102 78
102 82
102 83
102 84
102 86
102 88
102 89
102 90
102 91
102 93
102 94
102 95
102 96
102 97
102 98
102 100
102 101
102 103
102 106
102 111
102 112
102 113
102 119
102 120
102 124
102 129
102 131
102 134
102 135
102 137
102 138
102 139
102 140
102 142
102 147
102 148
102 149
102 153
102 154
102 155
102 159
102 160
102 161
102 162
102 164
102 165
102 167
102 178
102 180
102 181
102 182
102 185
102 186
102 188
102 189
102 190
102 191
102 192
102 193
102 195
102 197
102 198
102 200
102 202
102 205
102 207
102 208
102 209
102 210
102 212
102 226
102 229
102 233
102 236
103 0
103 1
103 2
103 3
103 4
103 5
103 6
103 7
103 8
103 9
103 10
103 11
103 12
103 14
103 16
103 17
103 18
103 20
103 24
103 25
103 26
103 27
103 29
103 30
103 31
103 32
103 33
103 34
103 41
103 44
103 45
103 47
103 48
103 49
103 50
103 51
103 52
103 53
103 67
103 73
103 76
103 84
103 92
103 93
103 95
103 99
103 100
103 101
103 102
103 105
103 106
103 114
103 116
103 119
103 120
103 126
103 135
103 150
103 160
103 162
103 174
103 185
103 209
103 228
103 230
103 233
104 0
104 1
104 2
104 3
104 4
104 9
104 10
104 11
104 32
104 38
104 39
104 45
104 47
104 48
104 53
104 57
104 73
104 78
104 93
104 104
104 115
104 117
104 124
104 127
104 129
104 132
104 135
104 136
104 139
104 141
104 144
104 147
104 149
104 150
104 152
104 153
104 175
104 220
104 228
104 233
105 0
105 1
105 2
105 3
105 4
105 5
105 6
105 7
105 8
105 9
105 10
105 11
105 14
105 16
105 17
105 18
105 19
105 20
105 21
105 22
105 23
105 24
105 25
105 26
105 27
105 28
105 29
105 31
105 32
105 33
105 36
105 41
105 42
105 43
105 44
105 45
105 46
105 47
105 49
105 50
105 51
105 52
105 53
105 54
105 61
105 65
105 73
105 84
105 85
105 88
105 89
105 95
105 99
105 103
105 105
105 106
105 107
105 111
105 114
105 116
105 119
105 120
105 126
105 127
105 130
105 138
105 139
105 146
105 147
105 148
105 154
105 158
105 161
105 173
105 174
105 175
105 176
105 179
105 181
105 196
105 205
105 210
105 213
105 223
105 224
105 226
105 228
105 229
105 230
105 231
105 232
105 237
106 0
106 1
106 2
106 5
106 6
106 7
106 8
106 9
106 10
106 11
106 12
106 13
106 14
106 15
106 16
106 17
106 20
106 22
106 23
106 24
106 28
106 29
106 30
106 31
106 32
106 33
106 34
106 35
106 36
106 37
106 38
106 39
106 40
106 41
106 42
106 43
106 44
106 45
106 46
106 47
106 48
106 49
106 50
106 51
106 52
106 53
106 56
106 57
106 61
106 65
106 69
106 73
106 74
106 77
106 82
106 83
106 84
106 88
106 89
106 90
106 91
106 93
106 94
106 95
106 96
106 97
106 98
106 99
106 100
106 101
106 102
106 103
106 105
106 106
106 107
106 111
106 112
106 113
106 114
106 116
106 119
106 120
106 121
106 124
106 126
106 128
106 129
106 130
106 131
106 134
106 135
106 137
106 138
106 142
106 145
106 147
106 153
106 158
106 159
106 161
106 162
106 165
106 167
106 173
106 178
106 180
106 181
106 182
106 185
106 186
106 188
106 189
106 195
106 198
106 200
106 206
106 207
106 208
106 209
106 210
106 211
106 212
106 220
106 229
106 232
106 233
107 0
107 1
107 2
107 3
107 5
107 6
107 7
107 8
107 10
107 11
107 14
107 16
107 17
107 18
107 19
107 20
107 21
107 22
107 23
107 24
107 25
107 26
107 27
107 28
107 32
107 42
107 43
107 44
107 45
107 46
107 50
107 51
107 53
107 95
107 99
107 101
107 105
107 106
107 114
107 127
107 138
107 139
107 161
107 215
107 223
107 224
107 228
107 229
107 230
107 231
107 232
108 0
108 1
108 2
108 3
108 9
108 10
108 48
108 49
108 50
108 53
108 54
108 57
108 59
108 67
108 70
108 72
108 74
108 75
108 79
108 85
108 87
108 95
108 101
108 108
108 109
108 112
108 118
108 121
108 122
108 123
108 124
108 127
108 128
108 132
108 137
108 138
108 166
108 168
108 170
108 172
108 217
109 0
109 1
109 2
109 3
109 4
109 5
109 6
109 8
109 9
109 10
109 12
109 29
109 30
109 31
109 32
109 33
109 41
109 42
109 49
109 50
109 51
109 52
109 53
109 54
109 57
109 58
109 59
109 66
109 67
109 70
109 72
109 74
109 75
109 78
109 79
109 81
109 82
109 84
109 85
109 86
109 87
109 88
109 90
109 95
109 99
109 108
109 109
109 110
109 113
109 115
109 118
109 122
109 123
109 124
109 125
109 127
109 128
109 129
109 130
109 132
109 133
109 136
109 137
109 145
109 155
109 156
109 166
109 171
109 172
109 173
109 174
109 176
109 183
109 192
109 193
109 199
109 203
109 220
109 221
109 222
109 233
109 237
110 0
110 1
110 2
110 49
110 75
110 79
110 109
110 123
110 217
110 222
111 0
111 1
111 2
111 3
111 4
111 8
111 9
111 10
111 11
111 12
111 13
111 16
111 17
111 18
111 20
111 24
111 25
111 26
111 27
111 29
111 30
111 31
111 32
111 33
111 34
111 35
111 36
111 37
111 38
111 39
111 40
111 41
111 42
111 43
111 44
111 45
111 46
111 47
111 48
111 49
111 50
111 51
111 52
111 53
111 65
111 69
111 72
111 73
111 77
111 78
111 79
111 82
111 83
111 84
111 85
111 86
111 88
111 89
111 93
111 94
111 96
111 99
111 102
111 105
111 106
111 112
111 113
111 119
111 120
111 124
111 129
111 131
111 134
111 135
111 137
111 142
111 147
111 153
111 159
111 161
111 162
111 167
111 173
111 174
111 175
111 176
111 178
111 179
111 180
111 181
111 182
111 185
111 207
111 208
111 209
111 210
111 211
111 213
111 218
111 219
111 220
111 226
111 232
111 233
111 234
111 237
112 0
112 1
112 2
112 3
112 4
112 5
112 6
112 8
112 9
112 10
112 11
112 12
112 13
112 14
112 15
112 16
112 17
112 18
112 20
112 22
112 23
112 28
112 30
112 31
112 32
112 33
112 34
112 35
112 36
112 37
112 38
112 39
112 40
112 41
112 42
112 43
112 44
112 45
112 46
112 47
112 48
112 49
112 50
112 51
112 52
112 53
112 57
112 61
112 69
112 70
112 73
112 77
112 78
112 82
112 83
112 84
112 88
112 89
112 90
112 91
112 92
112 93
112 94
112 95
112 96
112 97
112 98
112 100
112 101
112 102
112 106
112 108
112 111
112 112
112 113
112 119
112 120
112 123
112 124
112 127
112 129
112 131
112 132
112 134
112 135
112 137
112 138
112 142
112 147
112 152
112 153
112 159
112 160
112 161
112 162
112 165
112 167
112 172
112 178
112 180
112 181
112 182
112 186
112 188
112 189
112 195
112 198
112 200
112 203
112 207
112 208
112 209
112 210
112 212
112 215
112 229
112 232
112 233
113 0
113 1
113 2
113 3
113 4
113 8
113 9
113 10
113 11
113 12
113 13
113 14
113 15
113 16
113 20
113 22
113 23
113 28
113 29
113 30
113 31
113 32
113 33
113 34
113 35
113 36
113 37
113 38
113 39
113 40
113 41
113 42
113 43
113 44
113 45
113 46
113 47
113 48
113 49
113 51
113 52
113 53
113 65
113 67
113 69
113 73
113 75
113 77
113 82
113 83
113 84
113 88
113 89
113 90
113 91
113 93
113 94
113 96
113 97
113 98
113 100
113 101
113 102
113 106
113 109
113 111
113 112
113 113
113 119
113 120
113 124
113 129
113 130
113 131
113 132
113 134
113 135
113 137
113 138
113 139
113 142
113 147
113 148
113 153
113 156
113 159
113 161
113 162
113 165
113 167
113 178
113 180
113 182
113 186
113 188
113 189
113 195
113 198
113 200
113 207
113 208
113 209
113 210
113 212
113 214
113 229
113 231
113 232
113 233
114 0
114 1
114 2
114 3
114 4
114 6
114 7
114 8
114 9
114 10
114 11
114 13
114 14
114 15
114 16
114 17
114 18
114 19
114 20
114 21
114 22
114 23
114 24
114 25
114 26
114 27
114 28
114 29
114 31
114 32
114 33
114 34
114 37
114 41
114 42
114 43
114 44
114 46
114 50
114 51
114 52
114 53
114 61
114 73
114 83
114 84
114 91
114 93
114 95
114 98
114 99
114 103
114 105
114 106
114 107
114 119
114 120
114 123
114 126
114 127
114 158
114 160
114 165
114 174
114 176
114 205
114 209
114 210
114 223
114 224
114 227
114 229
114 230
114 231
114 232
115 0
115 1
115 2
115 3
115 4
115 9
115 10
115 11
115 30
115 32
115 33
115 39
115 45
115 48
115 50
115 51
115 52
115 56
115 57
115 59
115 67
115 70
115 72
115 75
115 78
115 83
115 84
115 93
115 101
115 104
115 109
115 118
115 121
115 124
115 129
115 132
115 135
115 136
115 139
115 141
115 144
115 147
115 149
115 150
115 152
115 153
115 158
115 167
115 185
115 205
115 233
116 0
116 1
116 2
116 3
116 4
116 5
116 6
116 8
116 9
116 10
116 11
116 12
116 13
116 14
116 16
116 17
116 18
116 20
116 24
116 28
116 32
116 33
116 38
116 41
116 44
116 51
116 52
116 53
116 78
116 81
116 84
116 86
116 90
116 92
116 95
116 99
116 103
116 105
116 106
116 119
116 120
116 121
116 127
116 132
116 136
116 139
116 141
116 143
116 147
116 150
116 161
116 173
116 174
116 175
116 182
116 196
116 228
117 0
117 1
117 2
117 3
117 4
117 8
117 9
117 10
117 11
117 31
117 32
117 33
117 34
117 45
117 48
117 78
117 104
117 129
117 134
117 135
117 136
117 139
117 144
117 147
117 150
117 159
117 162
117 180
117 185
117 228
118 0
118 1
118 2
118 3
118 4
118 10
118 33
118 48
118 53
118 54
118 56
118 57
118 63
118 67
118 70
118 71
118 72
118 75
118 108
118 109
118 115
118 118
118 123
118 127
118 128
118 132
118 137
118 142
118 148
118 157
118 166
118 168
118 169
118 170
118 171
118 172
118 221
119 0
119 1
119 2
119 3
119 4
119 5
119 6
119 8
119 9
119 10
119 11
119 12
119 13
119 14
119 15
119 16
119 17
119 18
119 19
119 20
119 22
119 23
119 24
119 26
119 27
119 28
119 29
119 30
119 31
119 32
119 33
119 34
119 35
119 36
119 37
119 38
119 39
119 40
119 41
119 42
119 43
119 44
119 45
119 46
119 47
119 48
119 49
119 50
119 51
119 52
119 53
119 57
119 59
119 69
119 73
119 77
119 82
119 83
119 84
119 88
119 89
119 90
119 91
119 93
119 94
119 95
119 96
119 97
119 98
119 99
119 100
119 101
119 102
119 103
119 105
119 106
119 111
119 112
119 113
119 114
119 116
119 120
119 124
119 126
119 129
119 131
119 134
119 135
119 137
119 138
119 142
119 145
119 147
119 152
119 153
119 159
119 161
119 162
119 165
119 167
119 175
119 178
119 180
119 182
119 185
119 186
119 188
119 189
119 195
119 198
119 200
119 207
119 208
119 209
119 210
119 212
119 215
119 229
119 232
119 233
120 0
120 1
120 2
120 3
120 4
120 5
120 6
120 7
120 8
120 9
120 10
120 11
120 12
120 13
120 14
120 15
120 16
120 17
120 18
120 19
120 20
120 22
120 23
120 24
120 25
120 26
120 27
120 28
120 29
120 30
120 31
120 32
120 33
120 34
120 35
120 36
120 37
120 38
120 39
120 40
120 41
120 42
120 43
120 44
120 45
120 46
120 47
120 48
120 49
120 50
120 51
120 52
120 53
120 57
120 69
120 73
120 77
120 82
120 83
120 84
120 88
120 89
120 90
120 91
120 93
120 94
120 95
120 96
120 97
120 98
120 99
120 100
120 101
120 102
120 103
120 105
120 106
120 111
120 112
120 113
120 114
120 116
120 119
120 120
120 124
120 126
120 127
120 129
120 131
120 134
120 135
120 137
120 138
120 142
120 145
120 147
120 153
120 159
120 161
120 162
120 165
120 167
120 175
120 178
120 179
120 180
120 182
120 186
120 188
120 189
120 195
120 197
120 198
120 200
120 203
120 205
120 207
120 208
120 209
120 210
120 212
120 215
120 224
120 229
120 230
120 231
120 232
120 233
120 237
121 0
121 1
121 2
121 3
121 4
121 6
121 8
121 9
121 10
121 11
121 12
121 13
121 17
121 29
121 30
121 31
121 32
121 33
121 34
121 39
121 45
121 47
121 48
121 50
121 51
121 52
121 53
121 67
121 74
121 77
121 82
121 92
121 93
121 94
121 95
121 97
121 106
121 108
121 115
121 116
121 123
121 128
121 147
121 156
121 165
121 167
121 180
121 185
121 186
121 198
121 213
121 215
121 230
121 232
121 234
122 0
122 1
122 2
122 3
122 4
122 5
122 9
122 29
122 32
122 33
122 39
122 49
122 50
122 51
122 52
122 53
122 54
122 57
122 59
122 67
122 70
122 72
122 74
122 75
122 79
122 82
122 83
122 85
122 99
122 108
122 109
122 122
122 123
122 127
122 128
122 132
122 133
122 205
123 0
123 1
123 2
123 4
123 9
123 10
123 16
123 17
123 20
123 21
123 29
123 33
123 49
123 50
123 51
123 53
123 54
123 57
123 59
123 66
123 67
123 70
123 72
123 75
123 79
123 82
123 88
123 95
123 108
123 109
123 110
123 112
123 114
123 118
123 121
123 122
123 123
123 124
123 125
123 127
123 128
123 130
123 132
123 133
123 137
123 144
123 148
123 166
123 169
123 170
123 172
123 193
123 205
123 214
123 221
123 222
123 232
124 0
124 1
124 2
124 4
124 8
124 9
124 10
124 11
124 12
124 13
124 14
124 15
124 16
124 22
124 23
124 28
124 30
124 31
124 32
124 33
124 34
124 35
124 36
124 37
124 38
124 39
124 40
124 41
124 42
124 43
124 44
124 45
124 46
124 47
124 48
124 49
124 51
124 52
124 53
124 54
124 57
124 69
124 70
124 73
124 77
124 78
124 82
124 83
124 84
124 87
124 88
124 89
124 90
124 91
124 93
124 94
124 96
124 97
124 98
124 100
124 101
124 102
124 104
124 106
124 108
124 109
124 111
124 112
124 113
124 115
124 119
124 120
124 123
124 129
124 131
124 132
124 133
124 134
124 135
124 136
124 137
124 138
124 139
124 141
124 142
124 144
124 147
124 149
124 150
124 152
124 153
124 159
124 161
124 162
124 165
124 167
124 172
124 178
124 180
124 182
124 186
124 188
124 189
124 195
124 198
124 200
124 203
124 207
124 208
124 209
124 210
124 212
124 221
124 229
124 233
125 0
125 1
125 53
125 67
125 79
125 109
125 123
125 222
126 0
126 1
126 2
126 5
126 6
126 7
126 8
126 9
126 10
126 11
126 12
126 14
126 16
126 17
126 18
126 24
126 29
126 30
126 33
126 41
126 47
126 49
126 50
126 51
126 52
126 53
126 84
126 95
126 99
126 103
126 105
126 106
126 114
126 119
126 120
126 132
126 158
126 196
126 207
126 212
126 213
127 0
127 1
127 2
127 3
127 4
127 5
127 6
127 7
127 8
127 9
127 10
127 14
127 16
127 17
127 18
127 20
127 24
127 25
127 26
127 27
127 28
127 29
127 31
127 32
127 33
127 38
127 44
127 45
127 46
127 47
127 50
127 51
127 52
127 53
127 54
127 57
127 59
127 62
127 67
127 70
127 72
127 74
127 75
127 78
127 79
127 84
127 85
127 86
127 92
127 93
127 95
127 101
127 104
127 105
127 107
127 108
127 109
127 112
127 114
127 116
127 118
127 120
127 122
127 123
127 127
127 128
127 130
127 131
127 132
127 135
127 137
127 138
127 141
127 143
127 144
127 147
127 148
127 150
127 152
127 161
127 170
127 172
127 173
127 174
127 175
127 176
127 178
127 180
127 182
127 183
127 185
127 188
127 200
127 209
127 218
127 220
127 228
127 231
128 0
128 1
128 2
128 3
128 6
128 8
128 10
128 16
128 20
128 31
128 47
128 53
128 54
128 55
128 56
128 57
128 62
128 64
128 65
128 67
128 70
128 72
128 74
128 75
128 87
128 106
128 108
128 109
128 118
128 121
128 122
128 123
128 127
128 128
128 130
128 132
128 133
128 137
128 170
128 172
128 222
129 0
129 1
129 2
129 3
129 4
129 8
129 9
129 10
129 11
129 12
129 13
129 14
129 15
129 22
129 23
129 28
129 30
129 31
129 32
129 33
129 34
129 35
129 36
129 37
129 38
129 39
129 40
129 41
129 42
129 43
129 44
129 45
129 46
129 47
129 48
129 49
129 51
129 52
129 53
129 57
129 59
129 69
129 73
129 77
129 78
129 82
129 83
129 84
129 88
129 89
129 90
129 91
129 93
129 94
129 95
129 96
129 97
129 98
129 100
129 101
129 102
129 104
129 106
129 109
129 111
129 112
129 113
129 115
129 117
129 119
129 120
129 124
129 131
129 132
129 134
129 135
129 136
129 137
129 138
129 142
129 144
129 147
129 150
129 153
129 155
129 158
129 159
129 161
129 162
129 165
129 167
129 178
129 180
129 181
129 182
129 186
129 188
129 189
129 195
129 198
129 200
129 207
129 208
129 209
129 210
129 212
129 229
129 233
130 0
130 1
130 2
130 3
130 6
130 8
130 9
130 18
130 20
130 21
130 29
130 39
130 41
130 46
130 50
130 52
130 57
130 67
130 74
130 79
130 81
130 85
130 88
130 99
130 105
130 106
130 109
130 113
130 123
130 127
130 128
130 130
130 132
130 143
130 156
130 160
130 181
130 182
130 204
130 205
130 214
130 216
130 230
130 232
131 0
131 1
131 2
131 3
131 4
131 6
131 7
131 8
131 9
131 10
131 11
131 12
131 13
131 14
131 15
131 16
131 18
131 20
131 22
131 23
131 24
131 25
131 28
131 29
131 30
131 31
131 32
131 33
131 34
131 35
131 36
131 37
131 38
131 39
131 40
131 41
131 42
131 43
131 44
131 45
131 46
131 47
131 48
131 49
131 50
131 51
131 52
131 53
131 69
131 73
131 77
131 82
131 83
131 84
131 88
131 89
131 90
131 91
131 93
131 94
131 96
131 97
131 98
131 99
131 100
131 101
131 102
131 106
131 111
131 112
131 113
131 119
131 120
131 124
131 127
131 129
131 132
131 134
131 135
131 137
131 138
131 139
131 141
131 142
131 147
131 153
131 159
131 161
131 162
131 165
131 167
131 178
131 180
131 182
131 186
131 187
131 188
131 189
131 195
131 198
131 200
131 205
131 207
131 208
131 209
131 210
131 212
131 213
131 229
131 230
131 232
131 233
132 0
132 1
132 2
132 3
132 4
132 6
132 7
132 8
132 9
132 10
132 11
132 13
132 14
132 15
132 17
132 19
132 20
132 24
132 27
132 28
132 31
132 32
132 33
132 34
132 36
132 37
132 38
132 39
132 40
132 41
132 44
132 48
132 49
132 50
132 52
132 53
132 54
132 56
132 57
132 59
132 62
132 63
132 66
132 67
132 70
132 72
132 74
132 75
132 78
132 79
132 82
132 85
132 90
132 93
132 94
132 95
132 104
132 108
132 109
132 112
132 113
132 115
132 116
132 118
132 122
132 123
132 124
132 126
132 127
132 128
132 129
132 130
132 131
132 132
132 133
132 134
132 136
132 137
132 141
132 143
132 148
132 149
132 150
132 155
132 160
132 166
132 168
132 171
132 172
132 180
132 189
132 196
132 209
132 213
132 221
132 226
132 228
132 232
132 233
133 0
133 1
133 2
133 54
133 62
133 75
133 90
133 109
133 122
133 123
133 124
133 128
133 132
133 133
133 170
133 221
134 0
134 1
134 2
134 3
134 4
134 5
134 8
134 9
134 10
134 11
134 12
134 13
134 14
134 15
134 16
134 17
134 19
134 22
134 23
134 28
134 30
134 31
134 32
134 33
134 34
134 35
134 36
134 37
134 38
134 39
134 40
134 41
134 42
134 43
134 44
134 45
134 46
134 47
134 48
134 49
134 51
134 52
134 53
134 59
134 67
134 69
134 71
134 73
134 77
134 82
134 83
134 84
134 86
134 88
134 89
134 90
134 91
134 92
134 93
134 94
134 96
134 97
134 98
134 100
134 101
134 102
134 106
134 111
134 112
134 113
134 117
134 119
134 120
134 124
134 129
134 131
134 132
134 135
134 137
134 138
134 139
134 141
134 142
134 147
134 153
134 154
134 155
134 158
134 159
134 160
134 161
134 162
134 164
134 165
134 167
134 171
134 178
134 180
134 182
134 186
134 187
134 188
134 189
134 190
134 195
134 198
134 200
134 201
134 204
134 207
134 208
134 209
134 210
134 212
134 213
134 216
134 220
134 229
134 233
135 0
135 1
135 2
135 3
135 4
135 8
135 9
135 10
135 11
135 12
135 13
135 14
135 15
135 22
135 23
135 28
135 30
135 31
135 32
135 33
135 34
135 35
135 36
135 37
135 38
135 39
135 40
135 41
135 42
135 43
135 44
135 45
135 46
135 47
135 48
135 49
135 51
135 52
135 53
135 65
135 67
135 69
135 73
135 75
135 76
135 77
135 78
135 79
135 82
135 83
135 84
135 87
135 88
135 89
135 90
135 91
135 93
135 94
135 96
135 97
135 98
135 100
135 101
135 102
135 103
135 104
135 106
135 111
135 112
135 113
135 115
135 117
135 119
135 120
135 124
135 127
135 129
135 131
135 134
135 135
135 136
135 137
135 138
135 139
135 141
135 142
135 144
135 147
135 149
135 150
135 152
135 153
135 155
135 159
135 160
135 161
135 162
135 165
135 167
135 178
135 180
135 182
135 186
135 188
135 189
135 195
135 198
135 200
135 203
135 207
135 208
135 209
135 210
135 212
135 215
135 224
135 229
135 233
136 0
136 1
136 2
136 3
136 4
136 9
136 10
136 11
136 30
136 32
136 33
136 45
136 48
136 57
136 59
136 67
136 104
136 109
136 115
136 116
136 117
136 124
136 129
136 132
136 135
136 139
136 141
136 144
136 147
136 149
136 150
136 152
136 153
136 155
136 156
136 158
136 160
136 172
136 201
136 203
136 220
136 228
136 233
137 0
137 1
137 2
137 4
137 8
137 9
137 10
137 11
137 12
137 13
137 14
137 15
137 22
137 23
137 28
137 30
137 31
137 32
137 33
137 34
137 35
137 36
137 37
137 38
137 39
137 40
137 41
137 42
137 43
137 44
137 45
137 46
137 47
137 48
137 49
137 51
137 52
137 53
137 54
137 57
137 69
137 70
137 72
137 73
137 77
137 78
137 82
137 83
137 84
137 88
137 89
137 90
137 91
137 93
137 94
137 96
137 97
137 98
137 100
137 101
137 102
137 106
137 108
137 109
137 111
137 112
137 113
137 118
137 119
137 120
137 123
137 124
137 127
137 128
137 129
137 131
137 132
137 134
137 135
137 138
137 139
137 142
137 144
137 147
137 148
137 153
137 159
137 161
137 162
137 165
137 167
137 170
137 172
137 178
137 180
137 182
137 186
137 188
137 189
137 195
137 198
137 200
137 207
137 208
137 209
137 210
137 212
137 221
137 229
137 233
138 0
138 1
138 2
138 3
138 4
138 5
138 6
138 7
138 8
138 9
138 10
138 11
138 14
138 15
138 16
138 17
138 18
138 25
138 29
138 30
138 31
138 32
138 33
138 34
138 35
138 36
138 37
138 38
138 39
138 40
138 41
138 42
138 43
138 44
138 45
138 46
138 47
138 48
138 49
138 51
138 52
138 53
138 56
138 65
138 67
138 69
138 73
138 74
138 76
138 77
138 78
138 82
138 83
138 84
138 87
138 88
138 89
138 93
138 94
138 95
138 96
138 99
138 101
138 102
138 105
138 106
138 107
138 108
138 112
138 113
138 119
138 120
138 124
138 127
138 129
138 131
138 134
138 135
138 137
138 142
138 145
138 147
138 150
138 151
138 153
138 155
138 156
138 159
138 160
138 161
138 162
138 163
138 167
138 178
138 180
138 182
138 205
138 207
138 208
138 209
138 210
138 213
138 217
138 229
138 231
138 233
139 0
139 1
139 2
139 3
139 4
139 7
139 9
139 10
139 11
139 15
139 16
139 19
139 20
139 26
139 29
139 30
139 32
139 33
139 38
139 44
139 45
139 46
139 48
139 50
139 51
139 52
139 53
139 57
139 61
139 78
139 81
139 95
139 102
139 104
139 105
139 107
139 113
139 115
139 116
139 117
139 124
139 131
139 134
139 135
139 136
139 137
139 139
139 141
139 142
139 144
139 147
139 149
139 150
139 152
139 153
139 156
139 166
139 185
139 203
139 209
139 228
140 0
140 1
140 2
140 3
140 5
140 8
140 9
140 10
140 11
140 15
140 31
140 32
140 33
140 34
140 36
140 40
140 45
140 48
140 49
140 50
140 52
140 53
140 61
140 73
140 77
140 82
140 92
140 94
140 96
140 102
140 145
140 146
140 160
140 163
140 167
140 176
140 209
140 212
140 215
140 230
141 0
141 1
141 2
141 3
141 4
141 8
141 9
141 10
141 11
141 14
141 17
141 19
141 29
141 31
141 32
141 33
141 38
141 44
141 48
141 49
141 50
141 52
141 78
141 84
141 104
141 115
141 116
141 124
141 127
141 131
141 132
141 134
141 135
141 136
141 139
141 144
141 149
141 150
141 152
141 153
141 156
141 201
141 209
141 228
141 233
142 0
142 1
142 2
142 3
142 4
142 5
142 8
142 9
142 10
142 11
142 12
142 13
142 14
142 15
142 22
142 23
142 28
142 30
142 31
142 32
142 33
142 34
142 35
142 36
142 37
142 38
142 39
142 40
142 41
142 42
142 43
142 44
142 45
142 46
142 47
142 48
142 49
142 51
142 52
142 53
142 69
142 71
142 73
142 76
142 77
142 83
142 84
142 88
142 90
142 91
142 93
142 94
142 96
142 97
142 98
142 100
142 101
142 102
142 106
142 111
142 112
142 113
142 118
142 119
142 120
142 124
142 129
142 131
142 134
142 135
142 137
142 138
142 139
142 147
142 151
142 153
142 154
142 155
142 159
142 160
142 161
142 162
142 163
142 164
142 165
142 167
142 178
142 180
142 182
142 186
142 188
142 189
142 190
142 195
142 198
142 200
142 201
142 203
142 204
142 207
142 208
142 209
142 210
142 212
142 228
142 229
142 233
143 0
143 1
143 2
143 3
143 5
143 6
143 9
143 10
143 11
143 33
143 34
143 40
143 45
143 48
143 50
143 61
143 93
143 97
143 116
143 127
143 130
143 132
143 143
143 154
143 159
143 160
143 162
143 164
143 165
143 173
143 190
143 214
143 230
144 0
144 1
144 2
144 4
144 6
144 8
144 9
144 10
144 11
144 17
144 30
144 32
144 33
144 38
144 45
144 48
144 52
144 54
144 57
144 59
144 70
144 78
144 82
144 87
144 93
144 104
144 115
144 117
144 123
144 124
144 127
144 129
144 135
144 136
144 137
144 139
144 141
144 144
144 147
144 149
144 150
144 152
144 153
144 156
144 160
144 180
144 220
144 221
144 228
144 233
145 0
145 1
145 3
145 4
145 5
145 7
145 8
145 9
145 10
145 11
145 20
145 21
145 24
145 31
145 47
145 49
145 50
145 51
145 53
145 73
145 81
145 84
145 95
145 99
145 106
145 109
145 119
145 120
145 138
145 140
145 145
145 146
145 173
145 174
145 184
146 0
146 1
146 2
146 3
146 4
146 5
146 6
146 8
146 9
146 10
146 11
146 12
146 13
146 18
146 24
146 31
146 32
146 33
146 35
146 37
146 40
146 47
146 52
146 53
146 60
146 65
146 73
146 84
146 86
146 88
146 93
146 95
146 99
146 105
146 140
146 145
146 162
146 173
146 174
146 175
146 176
146 178
146 179
146 181
146 198
146 218
146 219
146 220
146 237
147 0
147 1
147 2
147 3
147 4
147 5
147 6
147 8
147 9
147 10
147 11
147 12
147 13
147 14
147 15
147 16
147 17
147 22
147 23
147 25
147 26
147 28
147 30
147 31
147 32
147 33
147 34
147 35
147 36
147 37
147 38
147 39
147 40
147 41
147 42
147 43
147 44
147 45
147 46
147 47
147 48
147 49
147 50
147 51
147 52
147 53
147 54
147 69
147 70
147 71
147 73
147 75
147 76
147 77
147 78
147 82
147 83
147 84
147 88
147 89
147 90
147 91
147 93
147 94
147 95
147 96
147 97
147 98
147 100
147 101
147 102
147 104
147 105
147 106
147 111
147 112
147 113
147 115
147 116
147 117
147 119
147 120
147 121
147 124
147 127
147 129
147 131
147 134
147 135
147 136
147 137
147 138
147 139
147 142
147 144
147 147
147 149
147 150
147 151
147 152
147 153
147 154
147 155
147 159
147 160
147 161
147 162
147 163
147 164
147 165
147 167
147 170
147 178
147 180
147 182
147 186
147 187
147 188
147 189
147 190
147 191
147 195
147 198
147 199
147 200
147 203
147 207
147 208
147 209
147 210
147 212
147 221
147 229
147 233
148 0
148 1
148 2
148 6
148 9
148 10
148 11
148 32
148 45
148 48
148 49
148 50
148 52
148 53
148 70
148 73
148 75
148 88
148 93
148 102
148 105
148 113
148 118
148 123
148 127
148 132
148 137
148 162
148 168
148 171
148 221
148 230
149 0
149 1
149 2
149 3
149 4
149 9
149 10
149 11
149 32
149 39
149 45
149 48
149 52
149 57
149 78
149 87
149 101
149 102
149 104
149 115
149 124
149 132
149 135
149 136
149 139
149 141
149 144
149 147
149 150
149 152
149 153
149 155
150 0
150 1
150 2
150 3
150 4
150 8
150 9
150 10
150 11
150 31
150 32
150 39
150 41
150 45
150 48
150 50
150 51
150 52
150 53
150 57
150 72
150 78
150 93
150 97
150 103
150 104
150 115
150 116
150 117
150 124
150 127
150 129
150 132
150 135
150 136
150 138
150 139
150 141
150 144
150 147
150 149
150 150
150 152
150 153
151 0
151 1
151 2
151 3
151 5
151 6
151 8
151 9
151 10
151 11
151 17
151 20
151 29
151 32
151 33
151 38
151 40
151 45
151 48
151 50
151 52
151 54
151 71
151 74
151 76
151 77
151 97
151 101
151 138
151 142
151 147
151 151
151 154
151 155
151 159
151 160
151 161
151 162
151 163
151 164
151 165
152 0
152 1
152 2
152 4
152 9
152 10
152 11
152 29
152 32
152 45
152 48
152 53
152 65
152 78
152 88
152 104
152 112
152 115
152 119
152 124
152 127
152 135
152 136
152 139
152 141
152 144
152 147
152 149
152 150
152 153
152 197
153 0
153 1
153 2
153 3
153 4
153 8
153 9
153 10
153 11
153 12
153 13
153 14
153 15
153 22
153 23
153 28
153 29
153 30
153 31
153 32
153 33
153 34
153 35
153 36
153 37
153 38
153 39
153 40
153 41
153 42
153 43
153 44
153 45
153 46
153 47
153 48
153 49
153 50
153 51
153 52
153 53
153 57
153 69
153 73
153 75
153 77
153 78
153 82
153 83
153 84
153 88
153 89
153 90
153 91
153 93
153 94
153 96
153 97
153 98
153 100
153 101
153 102
153 104
153 106
153 111
153 112
153 113
153 115
153 119
153 120
153 124
153 129
153 131
153 134
153 135
153 136
153 137
153 138
153 139
153 141
153 142
153 144
153 147
153 149
153 150
153 152
153 159
153 161
153 162
153 165
153 167
153 178
153 180
153 182
153 186
153 188
153 189
153 195
153 198
153 200
153 207
153 208
153 209
153 210
153 211
153 212
153 229
153 233
154 0
154 1
154 2
154 3
154 4
154 5
154 9
154 10
154 11
154 15
154 31
154 32
154 33
154 34
154 40
154 45
154 48
154 52
154 53
154 69
154 71
154 76
154 93
154 97
154 102
154 105
154 134
154 142
154 143
154 147
154 151
154 155
154 159
154 160
154 161
154 162
154 163
154 164
154 165
154 190
154 200
154 225
155 0
155 1
155 2
155 3
155 4
155 5
155 8
155 9
155 10
155 11
155 31
155 32
155 33
155 34
155 40
155 45
155 48
155 52
155 53
155 71
155 76
155 78
155 84
155 92
155 94
155 97
155 102
155 109
155 129
155 132
155 134
155 135
155 136
155 138
155 142
155 147
155 149
155 151
155 154
155 155
155 158
155 159
155 160
155 161
155 162
155 163
155 164
155 165
155 170
155 185
155 198
155 203
155 209
155 215
156 0
156 1
156 2
156 3
156 4
156 9
156 11
156 12
156 13
156 15
156 29
156 33
156 39
156 46
156 50
156 65
156 75
156 78
156 82
156 87
156 92
156 95
156 97
156 101
156 109
156 113
156 121
156 130
156 136
156 138
156 139
156 141
156 144
156 156
156 173
156 213
157 0
157 1
157 2
157 3
157 56
157 58
157 63
157 67
157 118
157 166
158 0
158 1
158 2
158 3
158 4
158 5
158 7
158 8
158 9
158 10
158 11
158 15
158 24
158 31
158 32
158 33
158 34
158 40
158 41
158 45
158 49
158 50
158 52
158 53
158 67
158 69
158 73
158 77
158 78
158 84
158 92
158 94
158 95
158 105
158 106
158 114
158 115
158 126
158 129
158 134
158 136
158 155
158 160
158 164
158 198
158 215
158 230
158 233
159 0
159 1
159 2
159 3
159 4
159 5
159 6
159 7
159 8
159 9
159 10
159 11
159 12
159 13
159 14
159 15
159 16
159 20
159 22
159 23
159 27
159 28
159 30
159 31
159 32
159 33
159 34
159 35
159 36
159 37
159 38
159 39
159 40
159 41
159 42
159 43
159 44
159 45
159 46
159 47
159 48
159 49
159 51
159 52
159 53
159 69
159 71
159 73
159 76
159 77
159 82
159 83
159 84
159 88
159 89
159 90
159 91
159 93
159 94
159 95
159 96
159 97
159 98
159 100
159 101
159 102
159 106
159 111
159 112
159 113
159 117
159 119
159 120
159 124
159 129
159 131
159 134
159 135
159 137
159 138
159 142
159 143
159 147
159 151
159 153
159 154
159 155
159 160
159 161
159 162
159 163
159 164
159 165
159 167
159 178
159 180
159 182
159 185
159 186
159 188
159 189
159 190
159 195
159 198
159 199
159 200
159 207
159 208
159 209
159 210
159 212
159 220
159 229
159 233
160 0
160 1
160 2
160 3
160 4
160 5
160 9
160 10
160 11
160 20
160 25
160 28
160 31
160 32
160 33
160 34
160 40
160 45
160 47
160 48
160 49
160 50
160 51
160 52
160 53
160 54
160 59
160 69
160 71
160 73
160 74
160 76
160 77
160 78
160 81
160 82
160 83
160 87
160 92
160 93
160 94
160 95
160 97
160 101
160 102
160 103
160 112
160 114
160 130
160 132
160 134
160 135
160 136
160 138
160 140
160 142
160 143
160 144
160 147
160 151
160 154
160 155
160 158
160 159
160 160
160 161
160 162
160 163
160 164
160 165
160 180
160 185
160 190
160 200
160 204
160 233
161 0
161 1
161 2
161 3
161 4
161 5
161 6
161 7
161 8
161 9
161 10
161 11
161 12
161 13
161 14
161 15
161 16
161 17
161 18
161 20
161 22
161 23
161 24
161 26
161 27
161 28
161 30
161 31
161 32
161 33
161 34
161 35
161 36
161 37
161 38
161 39
161 40
161 41
161 42
161 43
161 44
161 45
161 46
161 47
161 48
161 49
161 50
161 51
161 52
161 53
161 69
161 71
161 73
161 76
161 77
161 82
161 83
161 84
161 88
161 89
161 90
161 91
161 93
161 94
161 95
161 96
161 97
161 98
161 100
161 101
161 102
161 105
161 106
161 107
161 111
161 112
161 113
161 116
161 119
161 120
161 124
161 127
161 129
161 131
161 134
161 135
161 137
161 138
161 142
161 147
161 151
161 153
161 154
161 155
161 159
161 160
161 162
161 163
161 164
161 165
161 167
161 174
161 178
161 180
161 182
161 186
161 188
161 189
161 190
161 195
161 198
161 200
161 205
161 207
161 208
161 209
161 210
161 212
161 213
161 229
161 233
162 0
162 1
162 2
162 3
162 4
162 5
162 7
162 8
162 9
162 10
162 11
162 12
162 13
162 14
162 15
162 22
162 23
162 25
162 28
162 30
162 31
162 32
162 33
162 34
162 35
162 36
162 37
162 38
162 39
162 40
162 41
162 42
162 43
162 44
162 45
162 46
162 47
162 48
162 49
162 50
162 51
162 52
162 53
162 67
162 69
162 71
162 73
162 76
162 77
162 82
162 83
162 84
162 88
162 89
162 90
162 91
162 92
162 93
162 94
162 95
162 96
162 97
162 98
162 100
162 101
162 102
162 103
162 106
162 111
162 112
162 113
162 117
162 119
162 120
162 124
162 129
162 131
162 134
162 135
162 137
162 138
162 142
162 143
162 146
162 147
162 148
162 151
162 153
162 154
162 155
162 159
162 160
162 161
162 162
162 163
162 164
162 165
162 167
162 178
162 180
162 182
162 186
162 188
162 189
162 190
162 195
162 198
162 200
162 207
162 208
162 209
162 210
162 212
162 213
162 229
162 233
162 234
162 235
163 0
163 1
163 2
163 3
163 4
163 5
163 8
163 9
163 10
163 11
163 33
163 34
163 40
163 45
163 48
163 52
163 53
163 71
163 76
163 77
163 82
163 89
163 94
163 97
163 138
163 140
163 142
163 147
163 151
163 154
163 155
163 159
163 160
163 161
163 162
163 164
163 165
163 180
163 182
163 185
163 190
163 197
164 0
164 1
164 2
164 3
164 4
164 5
164 8
164 9
164 10
164 11
164 31
164 32
164 33
164 34
164 40
164 45
164 48
164 50
164 52
164 53
164 69
164 71
164 76
164 82
164 89
164 92
164 93
164 94
164 97
164 102
164 134
164 142
164 143
164 147
164 151
164 154
164 155
164 158
164 159
164 160
164 161
164 162
164 163
164 165
164 174
164 182
164 190
164 198
164 200
164 237
165 0
165 1
165 2
165 3
165 4
165 5
165 9
165 10
165 11
165 30
165 31
165 32
165 33
165 34
165 35
165 36
165 37
165 38
165 39
165 40
165 41
165 42
165 43
165 44
165 45
165 46
165 47
165 48
165 49
165 51
165 52
165 53
165 69
165 71
165 73
165 76
165 77
165 82
165 83
165 88
165 89
165 93
165 94
165 96
165 97
165 102
165 106
165 112
165 113
165 114
165 119
165 120
165 121
165 124
165 129
165 131
165 134
165 135
165 137
165 142
165 143
165 147
165 151
165 153
165 154
165 155
165 159
165 160
165 161
165 162
165 163
165 164
165 167
165 178
165 180
165 182
165 185
165 190
165 200
165 207
165 208
165 209
165 210
165 226
165 233
165 234
166 0
166 1
166 2
166 3
166 9
166 10
166 11
166 18
166 33
166 48
166 52
166 54
166 57
166 60
166 63
166 66
166 67
166 72
166 100
166 101
166 108
166 109
166 118
166 123
166 132
166 139
166 157
166 166
166 168
166 169
166 171
166 217
167 0
167 1
167 2
167 4
167 8
167 9
167 10
167 11
167 12
167 13
167 14
167 15
167 22
167 23
167 28
167 30
167 31
167 32
167 33
167 34
167 35
167 36
167 37
167 38
167 39
167 40
167 41
167 42
167 43
167 44
167 45
167 46
167 47
167 48
167 49
167 51
167 52
167 53
167 69
167 73
167 77
167 82
167 83
167 84
167 88
167 89
167 90
167 91
167 92
167 93
167 94
167 96
167 97
167 98
167 100
167 101
167 102
167 106
167 111
167 112
167 113
167 115
167 119
167 120
167 121
167 124
167 129
167 131
167 134
167 135
167 137
167 138
167 140
167 142
167 147
167 153
167 159
167 161
167 162
167 165
167 178
167 180
167 182
167 184
167 185
167 186
167 188
167 189
167 195
167 198
167 200
167 201
167 205
167 206
167 207
167 208
167 209
167 210
167 212
167 213
167 229
167 233
168 0
168 1
168 2
168 3
168 11
168 18
168 33
168 48
168 53
168 54
168 57
168 60
168 63
168 66
168 67
168 70
168 72
168 93
168 100
168 108
168 118
168 132
168 148
168 166
168 168
168 169
168 171
168 202
168 221
169 0
169 1
169 2
169 54
169 56
169 57
169 60
169 63
169 66
169 67
169 72
169 118
169 123
169 166
169 168
169 171
170 0
170 1
170 2
170 4
170 10
170 33
170 54
170 67
170 69
170 70
170 72
170 75
170 90
170 108
170 118
170 123
170 127
170 128
170 133
170 137
170 147
170 155
170 172
171 0
171 1
171 2
171 3
171 9
171 11
171 18
171 45
171 47
171 48
171 52
171 54
171 57
171 60
171 63
171 66
171 67
171 69
171 72
171 100
171 109
171 118
171 132
171 134
171 148
171 166
171 168
171 169
171 221
172 0
172 1
172 2
172 9
172 10
172 54
172 70
172 72
172 78
172 108
172 109
172 112
172 118
172 123
172 124
172 127
172 128
172 132
172 136
172 137
172 170
172 221
173 0
173 1
173 2
173 3
173 4
173 5
173 6
173 8
173 9
173 10
173 11
173 13
173 16
173 17
173 18
173 19
173 20
173 21
173 26
173 27
173 29
173 30
173 31
173 32
173 35
173 37
173 39
173 41
173 45
173 49
173 50
173 51
173 52
173 53
173 54
173 59
173 60
173 63
173 65
173 66
173 67
173 71
173 73
173 75
173 81
173 82
173 83
173 84
173 85
173 86
173 88
173 95
173 97
173 99
173 100
173 105
173 106
173 109
173 111
173 116
173 127
173 143
173 145
173 146
173 156
173 173
173 174
173 175
173 176
173 177
173 178
173 179
173 181
173 182
173 183
173 185
173 196
173 203
173 218
173 219
173 220
173 226
173 231
173 237
174 0
174 1
174 3
174 4
174 5
174 7
174 8
174 9
174 10
174 11
174 13
174 16
174 17
174 20
174 24
174 27
174 29
174 31
174 35
174 37
174 39
174 43
174 44
174 47
174 50
174 51
174 52
174 53
174 65
174 67
174 74
174 82
174 84
174 85
174 86
174 88
174 99
174 103
174 105
174 109
174 111
174 114
174 116
174 127
174 145
174 146
174 161
174 164
174 173
174 174
174 175
174 176
174 177
174 178
174 179
174 181
174 182
174 183
174 193
174 196
174 205
174 218
174 219
174 220
174 237
175 0
175 1
175 2
175 3
175 4
175 5
175 6
175 7
175 10
175 11
175 13
175 16
175 17
175 18
175 20
175 24
175 26
175 27
175 29
175 31
175 33
175 35
175 37
175 38
175 39
175 41
175 46
175 50
175 51
175 52
175 53
175 59
175 65
175 67
175 75
175 81
175 82
175 84
175 85
175 86
175 88
175 95
175 99
175 104
175 105
175 111
175 116
175 119
175 120
175 127
175 146
175 173
175 174
175 175
175 176
175 177
175 178
175 179
175 180
175 181
175 183
175 187
175 204
175 218
175 219
175 220
175 228
175 231
175 237
176 0
176 1
176 2
176 3
176 4
176 5
176 6
176 7
176 8
176 9
176 10
176 11
176 13
176 17
176 18
176 25
176 26
176 27
176 29
176 32
176 35
176 37
176 39
176 40
176 41
176 43
176 47
176 50
176 51
176 52
176 53
176 65
176 81
176 82
176 84
176 85
176 86
176 88
176 92
176 95
176 99
176 105
176 109
176 111
176 114
176 127
176 140
176 146
176 173
176 174
176 175
176 176
176 177
176 178
176 179
176 181
176 183
176 218
176 219
176 220
176 223
176 237
177 0
177 1
177 3
177 4
177 10
177 11
177 13
177 35
177 65
177 86
177 173
177 174
177 175
177 176
177 178
177 179
177 181
177 183
177 218
177 219
177 220
177 237
178 0
178 1
178 2
178 3
178 4
178 8
178 9
178 10
178 11
178 12
178 13
178 14
178 15
178 22
178 23
178 28
178 30
178 31
178 32
178 33
178 34
178 35
178 36
178 37
178 38
178 39
178 40
178 41
178 42
178 43
178 44
178 45
178 46
178 47
178 48
178 49
178 51
178 52
178 53
178 59
178 65
178 69
178 73
178 74
178 77
178 82
178 83
178 84
178 85
178 86
178 88
178 89
178 90
178 91
178 93
178 94
178 96
178 97
178 98
178 99
178 100
178 101
178 102
178 106
178 111
178 112
178 113
178 119
178 120
178 124
178 127
178 129
178 131
178 134
178 135
178 137
178 138
178 142
178 146
178 147
178 153
178 159
178 161
178 162
178 165
178 167
178 173
178 174
178 175
178 176
178 177
178 179
178 180
178 181
178 182
178 186
178 188
178 189
178 195
178 198
178 200
178 207
178 208
178 209
178 210
178 212
178 218
178 219
178 220
178 229
178 233
178 237
179 0
179 1
179 2
179 3
179 4
179 6
179 10
179 11
179 13
179 29
179 35
179 37
179 39
179 50
179 52
179 54
179 59
179 65
179 67
179 74
179 79
179 82
179 85
179 86
179 88
179 95
179 99
179 105
179 111
179 120
179 146
179 173
179 174
179 175
179 176
179 177
179 178
179 179
179 181
179 218
179 219
179 220
179 230
179 237
180 0
180 1
180 2
180 3
180 4
180 6
180 8
180 9
180 10
180 11
180 12
180 13
180 14
180 15
180 17
180 18
180 22
180 23
180 28
180 30
180 31
180 32
180 33
180 34
180 35
180 36
180 37
180 38
180 39
180 40
180 41
180 42
180 43
180 44
180 45
180 46
180 47
180 48
180 49
180 50
180 51
180 52
180 53
180 63
180 69
180 73
180 77
180 82
180 83
180 84
180 88
180 89
180 90
180 91
180 92
180 93
180 94
180 96
180 97
180 98
180 100
180 101
180 102
180 106
180 111
180 112
180 113
180 117
180 119
180 120
180 121
180 124
180 127
180 129
180 131
180 132
180 134
180 135
180 137
180 138
180 142
180 144
180 147
180 153
180 159
180 160
180 161
180 162
180 163
180 165
180 167
180 175
180 178
180 182
180 184
180 186
180 187
180 188
180 189
180 190
180 195
180 198
180 200
180 201
180 204
180 205
180 207
180 208
180 209
180 210
180 212
180 219
180 228
180 229
180 230
180 233
180 237
181 0
181 1
181 2
181 3
181 4
181 5
181 8
181 9
181 10
181 11
181 13
181 15
181 30
181 32
181 35
181 37
181 39
181 40
181 52
181 53
181 65
181 74
181 79
181 82
181 83
181 85
181 86
181 88
181 99
181 102
181 105
181 106
181 111
181 112
181 129
181 130
181 146
181 173
181 174
181 175
181 176
181 177
181 178
181 179
181 182
181 218
181 219
181 220
181 237
182 0
182 1
182 2
182 3
182 5
182 6
182 7
182 8
182 9
182 10
182 11
182 12
182 13
182 14
182 15
182 17
182 21
182 22
182 23
182 28
182 30
182 31
182 32
182 33
182 34
182 35
182 36
182 37
182 38
182 39
182 40
182 41
182 42
182 43
182 44
182 45
182 46
182 47
182 48
182 49
182 51
182 52
182 53
182 57
182 60
182 63
182 65
182 69
182 73
182 74
182 77
182 82
182 83
182 84
182 88
182 89
182 90
182 91
182 93
182 94
182 95
182 96
182 97
182 98
182 100
182 101
182 102
182 106
182 111
182 112
182 113
182 116
182 119
182 120
182 124
182 127
182 129
182 130
182 131
182 134
182 135
182 137
182 138
182 142
182 147
182 153
182 159
182 161
182 162
182 163
182 164
182 165
182 167
182 173
182 174
182 178
182 180
182 181
182 186
182 188
182 189
182 195
182 198
182 200
182 207
182 208
182 209
182 210
182 212
182 229
182 233
182 237
183 0
183 1
183 2
183 3
183 4
183 5
183 6
183 8
183 16
183 20
183 21
183 26
183 29
183 30
183 31
183 37
183 41
183 50
183 53
183 65
183 85
183 86
183 95
183 97
183 99
183 109
183 127
183 173
183 174
183 175
183 176
183 177
183 197
183 216
183 217
183 218
183 219
183 220
184 0
184 1
184 2
184 3
184 6
184 8
184 9
184 10
184 11
184 12
184 19
184 23
184 26
184 30
184 31
184 32
184 33
184 37
184 48
184 50
184 52
184 77
184 91
184 93
184 96
184 98
184 100
184 145
184 167
184 180
184 188
184 205
184 207
184 209
184 210
184 229
184 230
184 231
185 0
185 1
185 2
185 3
185 4
185 6
185 8
185 9
185 10
185 11
185 17
185 27
185 29
185 30
185 31
185 32
185 33
185 35
185 38
185 41
185 45
185 47
185 48
185 50
185 51
185 52
185 59
185 82
185 84
185 92
185 99
185 102
185 103
185 106
185 111
185 115
185 117
185 119
185 121
185 127
185 139
185 155
185 159
185 160
185 163
185 165
185 167
185 173
185 186
185 209
185 213
186 0
186 1
186 8
186 9
186 10
186 11
186 17
186 25
186 30
186 31
186 32
186 33
186 34
186 35
186 36
186 37
186 38
186 39
186 40
186 41
186 42
186 43
186 44
186 45
186 46
186 47
186 48
186 49
186 50
186 51
186 52
186 53
186 69
186 73
186 77
186 82
186 83
186 84
186 88
186 89
186 93
186 94
186 95
186 96
186 102
186 106
186 112
186 113
186 119
186 120
186 121
186 124
186 129
186 131
186 134
186 135
186 137
186 142
186 147
186 153
186 159
186 161
186 162
186 167
186 178
186 180
186 182
186 185
186 204
186 207
186 208
186 209
186 210
186 215
186 233
187 0
187 1
187 2
187 3
187 8
187 9
187 10
187 11
187 16
187 34
187 93
187 98
187 100
187 131
187 134
187 147
187 175
187 180
187 194
188 0
188 2
188 3
188 8
188 9
188 30
188 31
188 32
188 33
188 34
188 35
188 36
188 37
188 38
188 39
188 40
188 41
188 42
188 43
188 44
188 45
188 46
188 47
188 48
188 49
188 50
188 51
188 52
188 53
188 69
188 73
188 77
188 82
188 83
188 84
188 88
188 89
188 93
188 94
188 96
188 98
188 102
188 106
188 112
188 113
188 119
188 120
188 124
188 127
188 129
188 131
188 134
188 135
188 137
188 142
188 147
188 153
188 159
188 161
188 162
188 167
188 178
188 180
188 182
188 184
188 207
188 208
188 209
188 210
188 211
188 212
188 233
189 0
189 1
189 2
189 8
189 9
189 30
189 31
189 32
189 33
189 34
189 35
189 36
189 37
189 38
189 39
189 40
189 41
189 42
189 43
189 44
189 45
189 46
189 47
189 48
189 49
189 51
189 52
189 53
189 61
189 69
189 73
189 77
189 82
189 83
189 88
189 89
189 91
189 93
189 94
189 96
189 102
189 106
189 112
189 113
189 119
189 120
189 124
189 129
189 131
189 132
189 134
189 135
189 137
189 142
189 147
189 153
189 159
189 161
189 162
189 167
189 178
189 180
189 182
189 197
189 207
189 208
189 209
189 210
189 213
189 233
190 0
190 1
190 2
190 3
190 4
190 5
190 8
190 9
190 10
190 11
190 31
190 32
190 33
190 34
190 40
190 45
190 48
190 69
190 76
190 93
190 97
190 100
190 102
190 134
190 142
190 143
190 147
190 154
190 159
190 160
190 161
190 162
190 163
190 164
190 165
190 180
190 195
190 198
190 200
190 201
190 204
191 0
191 2
191 3
191 8
191 9
191 10
191 31
191 32
191 33
191 47
191 50
191 52
191 53
191 69
191 91
191 95
191 96
191 102
191 147
191 201
192 0
192 1
192 8
192 9
192 10
192 11
192 30
192 48
192 57
192 69
192 93
192 96
192 102
192 109
192 197
192 199
192 209
193 0
193 1
193 4
193 9
193 32
193 53
193 84
193 99
193 101
193 102
193 109
193 123
193 174
193 213
194 0
194 1
194 4
194 8
194 9
194 11
194 16
194 30
194 31
194 45
194 52
194 73
194 75
194 79
194 96
194 187
195 0
195 1
195 2
195 3
195 9
195 10
195 30
195 31
195 32
195 33
195 34
195 35
195 36
195 37
195 38
195 39
195 40
195 41
195 42
195 43
195 44
195 45
195 46
195 47
195 48
195 49
195 51
195 52
195 53
195 69
195 73
195 77
195 82
195 83
195 88
195 89
195 93
195 94
195 96
195 98
195 100
195 102
195 106
195 112
195 113
195 119
195 120
195 124
195 129
195 131
195 134
195 135
195 137
195 142
195 147
195 153
195 159
195 161
195 162
195 167
195 178
195 180
195 182
195 190
195 198
195 200
195 201
195 204
195 207
195 208
195 209
195 210
195 233
196 0
196 1
196 2
196 3
196 4
196 5
196 7
196 9
196 10
196 14
196 15
196 16
196 17
196 18
196 20
196 23
196 24
196 28
196 41
196 47
196 48
196 49
196 50
196 51
196 52
196 53
196 67
196 73
196 83
196 85
196 88
196 105
196 116
196 126
196 132
196 173
196 174
197 0
197 1
197 2
197 3
197 6
197 8
197 9
197 10
197 11
197 14
197 15
197 16
197 19
197 25
197 32
197 33
197 40
197 41
197 45
197 46
197 48
197 49
197 50
197 52
197 53
197 69
197 76
197 77
197 79
197 83
197 84
197 93
197 95
197 96
197 99
197 101
197 102
197 120
197 152
197 163
197 183
197 189
197 192
197 197
197 199
197 209
197 220
198 0
198 1
198 2
198 3
198 4
198 8
198 9
198 10
198 11
198 12
198 30
198 31
198 32
198 33
198 34
198 35
198 36
198 37
198 38
198 39
198 40
198 41
198 42
198 43
198 44
198 45
198 46
198 47
198 48
198 49
198 50
198 51
198 52
198 53
198 56
198 69
198 70
198 73
198 75
198 77
198 82
198 83
198 88
198 89
198 93
198 94
198 95
198 96
198 97
198 100
198 102
198 106
198 112
198 113
198 119
198 120
198 121
198 124
198 129
198 131
198 134
198 135
198 137
198 142
198 146
198 147
198 153
198 155
198 158
198 159
198 161
198 162
198 164
198 167
198 178
198 180
198 182
198 190
198 195
198 198
198 200
198 201
198 204
198 207
198 208
198 209
198 210
198 233
199 0
199 1
199 2
199 3
199 8
199 9
199 10
199 11
199 33
199 47
199 48
199 50
199 52
199 57
199 69
199 75
199 83
199 90
199 93
199 96
199 109
199 147
199 159
199 192
199 197
199 202
199 209
200 1
200 2
200 3
200 5
200 8
200 9
200 10
200 11
200 29
200 30
200 31
200 32
200 33
200 34
200 35
200 36
200 37
200 38
200 39
200 40
200 41
200 42
200 43
200 44
200 45
200 46
200 47
200 48
200 49
200 51
200 52
200 53
200 69
200 73
200 77
200 78
200 82
200 83
200 88
200 89
200 93
200 94
200 96
200 97
200 100
200 102
200 106
200 112
200 113
200 119
200 120
200 124
200 127
200 129
200 131
200 134
200 135
200 137
200 142
200 147
200 153
200 154
200 159
200 160
200 161
200 162
200 164
200 165
200 167
200 178
200 180
200 182
200 190
200 195
200 198
200 201
200 204
200 207
200 208
200 209
200 210
200 233
201 0
201 1
201 2
201 3
201 8
201 9
201 10
201 11
201 31
201 32
201 33
201 40
201 45
201 48
201 50
201 52
201 69
201 77
201 78
201 84
201 93
201 98
201 99
201 100
201 134
201 136
201 141
201 142
201 167
201 180
201 190
201 191
201 195
201 198
201 200
201 201
201 204
202 0
202 1
202 2
202 3
202 8
202 9
202 10
202 11
202 31
202 33
202 48
202 52
202 57
202 90
202 91
202 93
202 96
202 97
202 100
202 102
202 168
202 199
202 202
202 236
203 0
203 1
203 2
203 3
203 4
203 8
203 9
203 10
203 30
203 31
203 35
203 39
203 43
203 52
203 69
203 78
203 82
203 93
203 109
203 112
203 120
203 124
203 135
203 136
203 139
203 142
203 147
203 155
203 173
203 209
204 0
204 1
204 2
204 3
204 5
204 6
204 7
204 8
204 9
204 10
204 11
204 14
204 15
204 19
204 20
204 25
204 28
204 31
204 32
204 33
204 38
204 40
204 42
204 45
204 46
204 50
204 51
204 52
204 53
204 69
204 73
204 77
204 84
204 88
204 91
204 93
204 95
204 96
204 97
204 99
204 100
204 130
204 134
204 142
204 160
204 175
204 180
204 186
204 190
204 195
204 198
204 200
204 201
204 211
204 212
204 216
204 223
204 226
204 229
204 230
204 232
204 233
205 0
205 1
205 2
205 3
205 4
205 5
205 6
205 7
205 8
205 9
205 10
205 11
205 12
205 14
205 16
205 17
205 18
205 19
205 20
205 21
205 24
205 26
205 27
205 29
205 30
205 41
205 43
205 44
205 46
205 47
205 49
205 50
205 51
205 52
205 53
205 57
205 73
205 75
205 81
205 83
205 84
205 86
205 88
205 92
205 94
205 95
205 99
205 101
205 102
205 105
205 114
205 115
205 120
205 122
205 123
205 130
205 131
205 138
205 161
205 167
205 174
205 180
205 184
205 213
205 214
205 221
205 230
205 232
205 236
205 237
206 1
206 3
206 8
206 10
206 11
206 30
206 31
206 50
206 52
206 53
206 95
206 100
206 106
206 167
206 209
206 212
206 213
206 230
207 0
207 2
207 6
207 8
207 9
207 10
207 11
207 12
207 13
207 14
207 15
207 17
207 22
207 23
207 25
207 28
207 30
207 31
207 32
207 33
207 34
207 35
207 36
207 37
207 38
207 39
207 40
207 41
207 42
207 43
207 44
207 45
207 46
207 47
207 48
207 49
207 50
207 51
207 52
207 53
207 69
207 73
207 77
207 82
207 83
207 84
207 88
207 89
207 90
207 91
207 92
207 93
207 94
207 96
207 97
207 98
207 100
207 101
207 102
207 106
207 111
207 112
207 113
207 119
207 120
207 124
207 126
207 129
207 131
207 134
207 135
207 137
207 138
207 142
207 147
207 153
207 159
207 161
207 162
207 165
207 167
207 178
207 180
207 182
207 184
207 186
207 188
207 189
207 195
207 198
207 200
207 207
207 208
207 209
207 210
207 212
207 229
207 230
207 233
208 0
208 1
208 2
208 3
208 8
208 9
208 10
208 11
208 12
208 13
208 14
208 15
208 20
208 22
208 23
208 28
208 29
208 30
208 31
208 32
208 33
208 34
208 35
208 36
208 37
208 38
208 39
208 40
208 41
208 42
208 43
208 44
208 45
208 46
208 47
208 48
208 49
208 50
208 51
208 52
208 53
208 63
208 67
208 69
208 73
208 77
208 78
208 82
208 83
208 84
208 88
208 89
208 90
208 91
208 93
208 94
208 95
208 96
208 97
208 98
208 100
208 101
208 102
208 106
208 111
208 112
208 113
208 119
208 120
208 124
208 129
208 131
208 134
208 135
208 137
208 138
208 142
208 147
208 153
208 159
208 161
208 162
208 165
208 167
208 178
208 180
208 182
208 186
208 188
208 189
208 195
208 198
208 200
208 207
208 209
208 210
208 212
208 225
208 229
208 230
208 232
208 233
209 0
209 1
209 2
209 3
209 6
209 7
209 8
209 9
209 10
209 11
209 12
209 13
209 14
209 15
209 16
209 17
209 18
209 20
209 22
209 23
209 24
209 25
209 27
209 28
209 29
209 30
209 31
209 32
209 33
209 34
209 35
209 36
209 37
209 38
209 39
209 40
209 41
209 42
209 43
209 44
209 45
209 46
209 47
209 48
209 49
209 50
209 51
209 52
209 53
209 67
209 69
209 73
209 77
209 81
209 82
209 83
209 84
209 88
209 89
209 90
209 91
209 93
209 94
209 95
209 96
209 97
209 98
209 100
209 101
209 102
209 103
209 106
209 111
209 112
209 113
209 114
209 119
209 120
209 124
209 127
209 129
209 131
209 132
209 134
209 135
209 137
209 138
209 139
209 140
209 141
209 142
209 147
209 153
209 155
209 159
209 161
209 162
209 165
209 167
209 178
209 180
209 182
209 184
209 185
209 186
209 188
209 189
209 192
209 195
209 197
209 198
209 199
209 200
209 203
209 206
209 207
209 208
209 209
209 210
209 212
209 213
209 229
209 230
209 232
209 233
209 236
209 237
210 1
210 2
210 8
210 9
210 10
210 11
210 12
210 13
210 14
210 15
210 18
210 22
210 23
210 24
210 28
210 30
210 31
210 32
210 33
210 34
210 35
210 36
210 37
210 38
210 39
210 40
210 41
210 42
210 43
210 44
210 45
210 46
210 47
210 48
210 49
210 50
210 51
210 52
210 53
210 69
210 73
210 77
210 82
210 83
210 84
210 88
210 89
210 90
210 91
210 93
210 94
210 95
210 96
210 97
210 98
210 100
210 101
210 102
210 105
210 106
210 111
210 112
210 113
210 114
210 119
210 120
210 124
210 129
210 131
210 134
210 135
210 137
210 138
210 142
210 147
210 153
210 159
210 161
210 162
210 165
210 167
210 178
210 180
210 182
210 184
210 186
210 188
210 189
210 195
210 198
210 200
210 207
210 208
210 209
210 210
210 212
210 229
210 230
210 233
211 0
211 4
211 6
211 8
211 9
211 50
211 51
211 52
211 53
211 75
211 84
211 88
211 95
211 99
211 106
211 111
211 153
211 188
211 204
211 211
211 214
211 223
211 230
212 0
212 8
212 9
212 10
212 11
212 25
212 30
212 31
212 32
212 33
212 34
212 35
212 36
212 37
212 38
212 39
212 40
212 41
212 42
212 43
212 44
212 45
212 46
212 47
212 48
212 49
212 50
212 51
212 52
212 53
212 69
212 73
212 77
212 82
212 83
212 84
212 88
212 89
212 93
212 94
212 96
212 98
212 102
212 106
212 112
212 113
212 119
212 120
212 124
212 126
212 129
212 131
212 134
212 135
212 137
212 140
212 142
212 147
212 153
212 159
212 161
212 162
212 167
212 178
212 180
212 182
212 188
212 204
212 206
212 207
212 208
212 209
212 210
212 230
212 233
213 0
213 1
213 2
213 4
213 6
213 7
213 8
213 9
213 10
213 11
213 14
213 15
213 20
213 24
213 26
213 27
213 29
213 31
213 32
213 33
213 34
213 41
213 46
213 50
213 52
213 53
213 78
213 84
213 87
213 92
213 95
213 97
213 100
213 105
213 111
213 121
213 126
213 131
213 132
213 134
213 138
213 156
213 161
213 162
213 167
213 185
213 189
213 193
213 205
213 206
213 209
213 215
213 230
213 232
213 237
214 0
214 1
214 2
214 3
214 6
214 8
214 10
214 11
214 16
214 17
214 30
214 49
214 50
214 52
214 61
214 65
214 67
214 75
214 84
214 95
214 113
214 123
214 130
214 143
214 205
214 211
214 216
214 230
214 231
215 0
215 1
215 2
215 3
215 6
215 8
215 9
215 10
215 11
215 14
215 15
215 26
215 27
215 28
215 31
215 32
215 34
215 44
215 49
215 50
215 52
215 53
215 77
215 92
215 94
215 107
215 112
215 119
215 120
215 121
215 135
215 140
215 155
215 158
215 186
215 213
215 230
215 233
216 0
216 1
216 2
216 6
216 7
216 18
216 21
216 25
216 27
216 29
216 48
216 49
216 50
216 51
216 52
216 53
216 67
216 69
216 79
216 84
216 95
216 130
216 134
216 183
216 204
216 214
216 222
216 227
216 230
217 0
217 1
217 2
217 3
217 6
217 8
217 9
217 14
217 16
217 17
217 18
217 28
217 30
217 32
217 36
217 46
217 50
217 51
217 52
217 53
217 75
217 79
217 85
217 108
217 110
217 138
217 166
217 183
217 217
217 230
218 0
218 1
218 2
218 3
218 4
218 10
218 11
218 13
218 15
218 35
218 37
218 39
218 41
218 50
218 51
218 52
218 53
218 65
218 67
218 82
218 85
218 86
218 88
218 99
218 111
218 127
218 146
218 173
218 174
218 175
218 176
218 177
218 178
218 179
218 181
218 183
218 219
218 220
218 230
218 237
219 0
219 1
219 2
219 3
219 4
219 8
219 10
219 11
219 13
219 31
219 35
219 37
219 39
219 43
219 50
219 51
219 52
219 65
219 82
219 85
219 86
219 88
219 95
219 99
219 101
219 111
219 146
219 173
219 174
219 175
219 176
219 177
219 178
219 179
219 180
219 181
219 183
219 218
219 220
219 230
219 237
220 0
220 1
220 2
220 3
220 4
220 5
220 6
220 8
220 9
220 10
220 11
220 13
220 16
220 21
220 29
220 30
220 31
220 35
220 37
220 38
220 39
220 46
220 49
220 50
220 52
220 53
220 59
220 65
220 67
220 78
220 82
220 84
220 85
220 86
220 87
220 88
220 89
220 95
220 99
220 101
220 104
220 106
220 109
220 111
220 127
220 134
220 136
220 144
220 146
220 159
220 173
220 174
220 175
220 176
220 177
220 178
220 179
220 181
220 183
220 197
220 218
220 219
220 220
220 230
220 237
221 0
221 1
221 2
221 4
221 10
221 49
221 50
221 53
221 70
221 73
221 75
221 109
221 118
221 123
221 124
221 132
221 133
221 137
221 144
221 147
221 148
221 168
221 171
221 172
221 205
221 230
222 0
222 1
222 50
222 67
222 79
222 109
222 110
222 123
222 125
222 128
222 216
222 230
223 3
223 4
223 5
223 6
223 7
223 16
223 17
223 18
223 19
223 20
223 21
223 22
223 23
223 24
223 25
223 26
223 27
223 28
223 42
223 43
223 44
223 46
223 50
223 51
223 52
223 53
223 84
223 88
223 99
223 105
223 107
223 114
223 176
223 204
223 211
223 230
223 237
224 0
224 4
224 16
224 17
224 18
224 19
224 20
224 21
224 22
224 23
224 24
224 25
224 26
224 27
224 28
224 29
224 32
224 36
224 42
224 43
224 44
224 46
224 49
224 50
224 51
224 52
224 53
224 95
224 99
224 105
224 107
224 114
224 120
224 135
224 230
225 0
225 1
225 2
225 8
225 14
225 42
225 46
225 50
225 52
225 58
225 87
225 154
225 208
225 225
225 229
225 230
226 0
226 1
226 2
226 3
226 4
226 5
226 6
226 9
226 11
226 31
226 33
226 40
226 45
226 48
226 53
226 84
226 91
226 95
226 99
226 102
226 105
226 111
226 132
226 165
226 173
226 204
227 4
227 5
227 6
227 14
227 18
227 24
227 25
227 28
227 46
227 50
227 53
227 95
227 114
227 216
227 230
228 0
228 1
228 2
228 6
228 9
228 14
228 17
228 18
228 19
228 20
228 24
228 26
228 27
228 33
228 38
228 44
228 46
228 47
228 50
228 51
228 52
228 53
228 78
228 103
228 104
228 105
228 107
228 116
228 117
228 127
228 132
228 136
228 139
228 141
228 142
228 144
228 175
228 180
229 1
229 2
229 6
229 14
229 15
229 16
229 17
229 18
229 19
229 20
229 21
229 22
229 23
229 24
229 25
229 26
229 27
229 28
229 29
229 30
229 31
229 32
229 33
229 34
229 35
229 36
229 37
229 38
229 39
229 40
229 41
229 42
229 43
229 44
229 45
229 46
229 47
229 48
229 49
229 50
229 51
229 52
229 53
229 69
229 73
229 77
229 82
229 83
229 84
229 85
229 88
229 89
229 93
229 94
229 95
229 96
229 98
229 99
229 102
229 105
229 106
229 107
229 112
229 113
229 114
229 119
229 120
229 124
229 129
229 131
229 134
229 135
229 137
229 138
229 142
229 147
229 153
229 159
229 161
229 162
229 167
229 178
229 180
229 182
229 184
229 204
229 207
229 208
229 209
229 210
229 225
229 233
230 16
230 17
230 18
230 19
230 20
230 21
230 22
230 23
230 24
230 25
230 26
230 27
230 28
230 29
230 36
230 41
230 42
230 43
230 44
230 46
230 47
230 48
230 49
230 50
230 51
230 52
230 53
230 69
230 73
230 83
230 84
230 88
230 92
230 95
230 97
230 98
230 99
230 100
230 103
230 105
230 107
230 114
230 120
230 121
230 130
230 131
230 140
230 143
230 148
230 158
230 179
230 180
230 184
230 204
230 205
230 206
230 207
230 208
230 209
230 210
230 211
230 212
230 213
230 214
230 215
230 216
230 217
230 218
230 219
230 220
230 221
230 222
230 223
230 224
230 225
230 227
230 236
230 237
231 0
231 1
231 5
231 16
231 17
231 18
231 19
231 20
231 21
231 22
231 23
231 24
231 25
231 26
231 27
231 28
231 29
231 33
231 36
231 38
231 41
231 42
231 43
231 44
231 46
231 47
231 49
231 50
231 51
231 52
231 53
231 69
231 73
231 77
231 82
231 84
231 87
231 88
231 95
231 98
231 99
231 101
231 105
231 107
231 113
231 114
231 120
231 127
231 138
231 173
231 175
231 184
231 214
231 237
232 0
232 1
232 2
232 3
232 4
232 6
232 8
232 9
232 10
232 15
232 16
232 17
232 18
232 19
232 20
232 21
232 22
232 23
232 24
232 25
232 26
232 27
232 28
232 29
232 31
232 33
232 37
232 38
232 41
232 42
232 43
232 44
232 46
232 47
232 49
232 50
232 51
232 52
232 53
232 61
232 63
232 73
232 75
232 78
232 83
232 84
232 86
232 92
232 94
232 95
232 99
232 100
232 101
232 105
232 106
232 107
232 111
232 112
232 113
232 114
232 119
232 120
232 121
232 123
232 130
232 131
232 132
232 204
232 205
232 208
232 209
232 213
232 237
233 0
233 1
233 2
233 4
233 8
233 9
233 10
233 11
233 12
233 13
233 14
233 15
233 22
233 23
233 28
233 29
233 30
233 31
233 32
233 33
233 34
233 35
233 36
233 37
233 38
233 39
233 40
233 41
233 42
233 43
233 44
233 45
233 46
233 47
233 48
233 49
233 51
233 52
233 53
233 54
233 57
233 59
233 69
233 73
233 77
233 78
233 81
233 82
233 83
233 84
233 88
233 89
233 90
233 91
233 92
233 93
233 94
233 95
233 96
233 97
233 98
233 100
233 101
233 102
233 103
233 104
233 106
233 109
233 111
233 112
233 113
233 115
233 119
233 120
233 124
233 129
233 131
233 132
233 134
233 135
233 136
233 137
233 138
233 141
233 142
233 144
233 147
233 153
233 158
233 159
233 160
233 161
233 162
233 165
233 167
233 178
233 180
233 182
233 186
233 188
233 189
233 195
233 198
233 200
233 204
233 207
233 208
233 209
233 210
233 212
233 215
233 229
234 0
234 1
234 5
234 10
234 40
234 45
234 47
234 52
234 53
234 82
234 95
234 97
234 111
234 121
234 162
234 165
235 0
235 1
235 2
235 8
235 9
235 10
235 11
235 30
235 31
235 32
235 51
235 52
235 69
235 91
235 93
235 98
235 100
235 162
236 0
236 1
236 2
236 4
236 5
236 6
236 8
236 9
236 11
236 14
236 17
236 23
236 25
236 31
236 32
236 38
236 41
236 46
236 49
236 50
236 51
236 52
236 53
236 65
236 83
236 95
236 96
236 99
236 100
236 101
236 102
236 202
236 205
236 209
236 230
237 0
237 1
237 2
237 3
237 4
237 6
237 7
237 8
237 9
237 10
237 11
237 13
237 16
237 20
237 24
237 25
237 30
237 35
237 37
237 38
237 39
237 43
237 47
237 50
237 51
237 52
237 53
237 65
237 67
237 82
237 84
237 85
237 86
237 88
237 98
237 99
237 105
237 109
237 111
237 120
237 146
237 164
237 173
237 174
237 175
237 176
237 177
237 178
237 179
237 180
237 181
237 182
237 205
237 209
237 213
237 218
237 219
237 220
237 223
237 230
237 231
237 232
