0 64
1 38
1 95
2 11
2 35
2 38
3 11
3 19
3 25
3 40
4 11
4 37
4 42
4 43
4 116
5 11
5 44
5 45
5 46
5 81
5 100
6 8
6 9
6 10
6 11
6 47
6 48
6 49
7 7
7 9
7 10
7 11
7 50
7 51
7 52
7 53
8 6
8 10
8 11
8 49
8 54
8 55
8 60
9 6
9 7
9 12
9 13
9 22
9 31
9 32
9 33
9 39
9 56
9 57
9 58
9 59
10 6
10 7
10 8
10 11
10 21
10 22
10 33
10 39
10 41
10 55
10 60
10 61
10 62
10 67
10 69
11 2
11 3
11 4
11 5
11 6
11 7
11 8
11 10
11 13
11 16
11 17
11 18
11 22
11 23
11 25
11 26
11 29
11 30
11 33
11 34
11 40
11 41
11 42
11 43
11 44
11 45
11 47
11 49
11 54
11 55
11 60
11 63
11 64
11 65
11 66
11 67
11 68
11 69
11 70
11 76
11 81
11 82
11 84
11 92
11 97
11 99
11 100
11 101
11 104
11 109
11 111
11 113
11 114
11 115
11 116
11 117
11 118
11 121
11 123
12 9
12 12
12 70
12 71
12 72
13 9
13 11
13 73
13 74
14 75
14 76
14 77
15 27
15 126
16 11
16 20
16 125
17 11
17 80
18 11
18 19
18 20
18 28
18 37
18 81
18 82
18 83
18 93
19 3
19 18
19 19
19 20
19 25
19 84
19 85
20 16
20 18
20 19
20 86
21 10
21 22
21 54
21 87
21 88
21 89
21 127
22 9
22 10
22 11
22 21
22 90
22 91
23 11
23 59
23 92
23 93
23 94
24 93
24 97
25 3
25 11
25 19
25 84
25 98
25 99
26 11
26 46
26 53
26 56
26 74
26 100
26 101
26 102
27 15
27 31
27 103
27 104
27 105
28 18
28 66
28 106
29 11
29 61
29 62
29 107
30 11
30 54
30 71
30 108
30 109
30 110
31 9
31 27
31 31
31 105
32 9
32 111
32 112
33 9
33 10
33 11
33 113
34 11
34 36
34 76
35 2
35 38
35 115
36 34
36 116
36 117
37 4
37 18
37 42
37 118
38 1
38 2
38 35
38 114
39 9
39 10
39 39
39 67
40 3
40 11
40 96
41 10
41 11
41 60
41 119
42 4
42 11
42 37
43 4
43 11
43 120
44 5
44 11
44 52
45 5
45 11
46 5
46 26
46 46
47 6
47 11
48 6
48 121
49 6
49 8
49 11
50 7
50 122
51 7
51 123
52 7
52 44
52 65
53 7
53 26
54 8
54 11
54 21
54 30
55 8
55 10
55 11
56 9
56 26
56 102
57 9
57 57
57 124
58 9
58 58
59 9
59 23
60 8
60 10
60 11
60 41
61 10
61 29
62 10
62 29
62 95
63 11
64 0
64 11
65 11
65 52
66 11
66 28
66 106
67 10
67 11
67 39
68 11
68 68
69 10
69 11
70 11
70 12
71 12
71 30
72 12
73 13
74 13
74 26
75 14
76 11
76 14
76 34
77 14
77 77
78 87
79 82
80 17
81 5
81 11
81 18
82 11
82 18
82 79
83 18
84 11
84 19
84 25
85 19
86 20
87 21
87 78
88 21
89 21
89 91
90 22
91 22
91 89
92 11
92 23
93 18
93 23
93 24
94 23
95 1
95 62
95 95
96 40
96 110
97 11
97 24
98 25
98 98
99 11
99 25
100 5
100 11
100 26
101 11
101 26
102 26
102 56
103 27
103 103
104 11
104 27
105 27
105 31
106 28
106 66
107 29
108 30
109 11
109 30
110 30
110 96
111 11
111 32
112 32
113 11
113 33
114 11
114 38
114 114
115 11
115 35
116 4
116 11
116 36
117 11
117 36
118 11
118 37
119 41
120 43
121 11
121 48
122 50
123 11
123 51
124 57
125 16
126 15
127 21
127 127
