0 0
0 1
0 2
0 3
0 4
0 5
0 6
0 7
0 8
0 9
0 10
0 11
0 12
0 13
0 14
0 15
0 16
0 17
1 0
1 1
1 2
1 3
1 4
1 5
1 6
1 7
1 9
1 10
1 11
1 12
1 13
1 14
1 15
1 16
1 17
1 19
2 0
2 1
2 7
3 0
3 1
3 3
3 4
3 5
3 6
3 7
3 13
4 0
4 1
4 3
4 6
4 7
4 11
5 0
5 1
5 3
5 8
5 10
5 15
6 0
6 1
6 3
6 4
6 7
6 8
6 13
6 15
7 0
7 1
7 2
7 3
7 4
7 6
7 8
7 9
7 10
7 12
7 15
7 16
7 17
8 0
8 5
8 6
8 7
8 8
9 0
9 1
9 7
10 0
10 1
10 5
10 7
11 0
11 1
11 4
11 11
11 17
12 0
12 1
12 7
13 0
13 1
13 3
13 6
14 0
14 1
15 0
15 1
15 5
15 6
15 7
15 15
15 18
15 20
16 0
16 1
16 7
17 0
17 1
17 7
17 11
18 15
18 20
19 1
20 15
20 18
