0 104
1 63
1 92
2 34
2 61
2 107
3 15
3 40
3 42
3 60
4 14
4 25
4 46
4 57
4 66
5 7
5 14
5 20
5 55
5 67
5 105
6 9
6 14
6 29
6 63
6 68
7 5
7 13
7 14
7 23
7 26
7 69
7 70
7 87
8 11
8 15
8 25
8 71
8 72
8 73
8 74
8 75
8 184
9 6
9 12
9 22
9 54
9 76
9 77
10 14
10 78
10 79
10 80
10 81
10 82
11 8
11 14
11 15
11 42
11 71
11 72
11 74
11 75
11 83
11 84
11 85
11 132
11 184
12 9
12 14
12 78
12 79
12 80
12 81
12 82
12 86
13 7
13 43
13 64
13 87
13 88
13 89
13 90
13 91
13 92
13 93
13 94
13 102
13 141
13 144
13 150
13 151
13 168
13 189
14 4
14 5
14 6
14 7
14 10
14 11
14 12
14 15
14 17
14 19
14 20
14 21
14 22
14 24
14 25
14 26
14 28
14 31
14 33
14 37
14 39
14 41
14 42
14 43
14 45
14 53
14 54
14 55
14 57
14 60
14 64
14 66
14 69
14 70
14 76
14 80
14 81
14 82
14 85
14 87
14 91
14 92
14 93
14 95
14 96
14 97
14 98
14 99
14 100
14 101
14 102
14 103
14 104
14 105
14 106
14 107
14 111
14 117
14 118
14 119
14 127
14 128
14 129
14 130
14 133
14 136
14 138
14 139
14 140
14 142
14 146
14 148
14 152
14 157
14 161
14 166
14 167
14 170
14 171
14 172
14 173
14 175
14 178
14 188
14 191
14 192
14 196
15 3
15 8
15 11
15 14
15 25
15 40
15 71
15 85
15 108
15 109
15 115
16 111
16 193
17 14
17 17
17 37
17 112
18 113
18 114
18 115
19 14
19 116
19 117
20 5
20 14
20 118
20 119
20 120
21 14
21 30
21 64
21 121
21 122
21 124
22 9
22 14
22 47
22 123
22 124
23 7
23 30
23 69
23 70
23 90
23 125
23 126
24 14
24 33
24 38
24 44
24 47
24 127
24 128
24 129
24 130
24 131
25 4
25 8
25 14
25 15
25 42
25 57
25 71
25 114
25 115
25 132
26 7
26 14
26 53
26 56
26 133
26 134
26 135
27 62
27 63
27 196
28 14
28 138
29 6
29 37
29 44
29 80
29 139
29 140
30 21
30 23
30 64
30 141
30 142
30 143
31 14
31 47
31 144
31 145
32 33
32 50
32 146
33 14
33 24
33 32
33 44
33 147
34 2
34 41
34 107
34 148
34 149
35 90
35 150
36 36
36 151
37 14
37 17
37 29
37 37
37 65
37 152
37 153
38 24
38 154
38 155
38 156
39 14
39 157
39 158
40 3
40 15
40 159
40 160
40 161
41 14
41 34
41 41
41 137
41 162
41 163
41 164
42 3
42 11
42 14
42 25
42 42
42 52
42 71
42 109
42 121
42 165
42 166
43 13
43 14
43 43
43 51
43 145
43 167
43 168
44 24
44 29
44 33
44 129
44 130
44 154
44 169
45 14
45 59
45 61
45 101
45 130
45 156
45 162
45 170
46 4
46 46
46 57
46 66
46 103
46 171
46 172
47 22
47 24
47 31
47 97
47 149
48 48
48 58
48 67
48 173
49 51
49 75
49 83
49 97
50 32
50 50
50 174
50 175
51 43
51 49
51 100
52 42
52 52
52 175
53 14
53 26
53 134
54 9
54 14
54 124
55 5
55 14
55 105
55 167
55 176
56 26
56 98
56 111
56 119
57 4
57 14
57 25
57 46
57 66
57 114
57 115
58 48
58 67
58 177
59 45
59 61
59 101
59 170
59 178
60 3
60 14
60 160
61 2
61 45
61 59
61 101
61 179
62 27
62 100
62 140
62 180
63 1
63 6
63 27
63 92
63 140
64 13
64 14
64 21
64 30
64 64
65 37
65 80
65 181
66 4
66 14
66 46
66 57
66 171
67 5
67 48
67 58
68 6
68 182
69 7
69 14
69 23
70 7
70 14
70 23
70 183
71 8
71 11
71 15
71 25
71 42
72 8
72 11
72 75
72 184
73 8
74 8
74 11
74 75
75 8
75 11
75 49
75 72
75 74
76 9
76 14
77 9
78 10
78 12
78 86
79 10
79 12
80 10
80 12
80 14
80 29
80 65
81 10
81 12
81 14
82 10
82 12
82 14
82 185
83 11
83 49
84 11
85 11
85 14
85 15
86 12
86 78
87 7
87 13
87 14
88 13
88 111
89 13
89 89
90 13
90 23
90 35
91 13
91 14
91 92
91 186
92 1
92 13
92 14
92 63
92 91
93 13
93 14
93 106
94 13
94 187
95 14
96 14
96 118
97 14
97 47
97 49
98 14
98 56
98 135
98 188
99 14
99 99
99 189
100 14
100 51
100 62
101 14
101 45
101 59
101 61
102 13
102 14
103 14
103 46
103 121
103 190
104 0
104 14
105 5
105 14
105 55
106 14
106 93
106 106
107 2
107 14
107 34
107 191
108 15
109 15
109 42
109 109
110 164
111 14
111 16
111 56
111 88
112 17
113 18
114 18
114 25
114 57
115 15
115 18
115 25
115 57
116 19
117 14
117 19
117 192
118 14
118 20
118 96
119 14
119 20
119 56
120 20
121 21
121 42
121 103
122 21
123 22
124 21
124 22
124 54
125 23
125 194
126 23
127 14
127 24
128 14
128 24
128 128
129 14
129 24
129 44
130 14
130 24
130 44
130 45
131 24
132 11
132 25
133 14
133 26
134 26
134 53
134 134
135 26
135 98
136 14
136 145
137 41
137 156
138 14
138 28
139 14
139 29
140 14
140 29
140 62
140 63
141 13
141 30
142 14
142 30
143 30
143 195
144 13
144 31
145 31
145 43
145 136
146 14
146 32
147 33
147 169
148 14
148 34
149 34
149 47
150 13
150 35
151 13
151 36
152 14
152 37
153 37
154 38
154 44
155 38
156 38
156 45
156 137
157 14
157 39
158 39
159 40
160 40
160 60
161 14
161 40
162 41
162 45
163 41
164 41
164 110
165 42
166 14
166 42
167 14
167 43
167 55
168 13
168 43
169 44
169 147
170 14
170 45
170 59
171 14
171 46
171 66
172 14
172 46
173 14
173 48
174 50
175 14
175 50
175 52
176 55
177 58
178 14
178 59
179 61
180 62
181 65
182 68
183 70
184 8
184 11
184 72
185 82
186 91
187 94
188 14
188 98
189 13
189 99
190 103
191 14
191 107
192 14
192 117
193 16
194 125
195 143
196 14
196 27
