0 0
0 1
0 2
0 3
0 4
0 5
0 6
0 8
0 9
0 10
0 11
0 12
0 13
0 14
0 16
1 0
1 1
1 2
1 3
1 4
1 5
1 6
1 8
1 9
1 10
1 11
1 12
1 13
1 16
2 0
2 1
2 2
2 3
2 4
2 5
2 6
2 9
2 11
2 12
2 16
3 0
3 1
3 2
3 3
3 4
3 6
3 9
3 16
4 0
4 1
4 2
4 3
4 6
4 16
5 0
5 1
5 2
5 11
6 0
6 1
6 2
6 3
6 4
6 8
6 9
6 10
6 11
6 13
6 14
6 16
7 10
7 13
7 14
7 15
8 0
8 1
8 6
9 0
9 1
9 2
9 3
9 6
9 9
9 11
9 16
10 0
10 1
10 6
10 7
11 0
11 1
11 2
11 5
11 6
11 9
11 11
12 0
12 1
12 2
12 13
13 0
13 1
13 6
13 7
13 12
14 0
14 6
14 7
15 7
16 0
16 1
16 2
16 3
16 4
16 6
16 9
16 16
