0 0
0 1
0 2
0 3
0 4
0 5
0 6
0 7
0 8
0 9
0 10
0 11
0 12
0 13
0 14
0 15
0 16
0 17
0 18
0 19
0 20
0 22
0 23
0 25
0 26
0 28
0 34
0 35
1 0
1 1
1 2
1 3
1 4
1 5
1 6
1 7
1 8
1 9
1 10
1 12
1 15
1 17
1 18
1 19
1 20
1 21
1 22
1 23
1 25
1 26
1 27
1 28
1 30
1 31
1 34
1 37
2 0
2 1
2 2
2 3
2 4
2 7
2 8
2 9
2 10
2 12
2 13
2 15
2 17
2 20
2 27
2 28
3 0
3 1
3 2
3 9
3 20
3 24
4 0
4 1
4 2
4 4
4 5
4 6
4 9
4 20
4 27
4 29
5 0
5 1
5 4
5 5
5 6
5 9
5 14
5 22
5 29
5 30
6 0
6 1
6 4
6 5
6 9
6 20
6 29
7 0
7 1
7 2
7 9
7 24
8 0
8 1
8 2
8 18
9 0
9 1
9 2
9 3
9 4
9 5
9 6
9 7
9 10
9 12
9 15
9 16
9 17
9 18
9 19
9 20
9 21
9 22
9 23
9 27
9 32
9 33
9 36
9 37
10 0
10 1
10 2
10 9
11 0
11 11
12 0
12 1
12 2
12 9
12 17
12 22
12 31
13 0
13 2
13 15
13 20
14 0
14 5
14 30
15 0
15 1
15 2
15 9
15 13
15 15
15 18
16 0
16 9
16 16
16 26
17 0
17 1
17 2
17 9
17 12
17 20
17 28
18 0
18 1
18 8
18 9
18 15
18 18
18 22
18 23
18 33
19 0
19 1
19 9
19 20
19 26
20 0
20 1
20 2
20 3
20 4
20 6
20 9
20 13
20 17
20 19
20 22
20 26
20 32
20 33
21 1
21 9
21 23
22 0
22 1
22 5
22 9
22 12
22 18
22 20
22 22
22 33
22 34
22 35
23 0
23 1
23 9
23 18
23 21
23 31
24 3
24 7
24 36
24 37
25 0
25 1
26 0
26 1
26 16
26 19
26 20
27 1
27 2
27 4
27 9
27 28
28 0
28 1
28 2
28 17
28 27
28 28
29 4
29 5
29 6
30 1
30 5
30 14
30 30
31 1
31 12
31 23
32 9
32 20
32 33
33 9
33 18
33 20
33 22
33 32
34 0
34 1
34 22
35 0
35 22
35 35
36 9
36 24
37 1
37 9
37 24
