0 1
0 40
1 2
1 41
2 3
2 42
3 4
3 43
4 5
4 44
5 6
5 45
6 7
6 46
7 8
7 47
8 9
8 48
9 10
9 49
10 11
10 50
11 12
11 51
12 13
12 52
13 14
13 53
14 15
14 54
15 16
15 55
16 17
16 56
17 18
17 57
18 19
18 58
19 20
19 59
20 21
20 60
21 22
21 61
22 23
22 62
23 24
23 63
24 25
24 64
25 26
25 65
26 27
26 66
27 28
27 67
28 29
28 68
29 30
29 69
30 31
30 70
31 32
31 71
32 33
32 72
33 34
33 73
34 35
34 74
35 36
35 75
36 37
36 76
37 38
37 77
38 39
38 78
39 79
40 41
41 42
42 43
43 44
44 45
45 46
46 47
47 48
48 49
49 50
50 51
51 52
52 53
53 54
54 55
55 56
56 57
57 58
58 59
59 60
60 61
61 62
62 63
63 64
64 65
65 66
66 67
67 68
68 69
69 70
70 71
71 72
72 73
73 74
74 75
75 76
76 77
77 78
78 79
